N2-dn2-coord-10bar/700K/snapshots/frame-80506/run-000/../data.lammps (written by ASE) 

770 	 atoms 
2  atom types
0.0      32.470343392086264  xlo xhi
0.0      28.120142247150884  ylo yhi
0.0      31.213473999158239  zlo zhi


Atoms 

     1   1      2.0293964600000001      1.1716090800000001    0.023552650000000001
     2   1      6.0880008999999999              1.17168918              0.02556874
     3   1      10.146952280000001              1.17170328    0.025416459999999998
     4   1      14.205754900000001      1.1716496700000001              0.02501565
     5   1             18.26456816              1.17166478              0.02504435
     6   1             22.32338141      1.1716496700000001              0.02501565
     7   1      26.382184030000001              1.17170328    0.025416459999999998
     8   1      30.441135410000001              1.17168918              0.02556874
     9   1  9.1780000000000006e-05      4.6866847900000002    0.025581599999999999
    10   1      4.0587011400000002      4.6866847900000002    0.025581599999999999
    11   1      8.1174961000000003      4.6866290399999997    0.025584639999999999
    12   1             12.17638011      4.6866852999999997              0.02491202
    13   1             16.23517979      4.6866942700000003    0.025006210000000001
    14   1      20.293956519999998      4.6866942700000003    0.025006210000000001
    15   1      24.352756209999999      4.6866852999999997              0.02491202
    16   1      28.411640219999999      4.6866290399999997    0.025584639999999999
    17   1      2.0293964600000001      8.2016395800000002    0.026613040000000001
    18   1      6.0881071599999999      8.2016314300000008              0.02543782
    19   1             10.14701835               8.2017045    0.025156850000000001
    20   1      14.205766049999999      8.2017080900000003    0.024990459999999999
    21   1             18.26456816      8.2017077599999997    0.025091249999999999
    22   1      22.323370260000001      8.2017080900000003    0.024990459999999999
    23   1      26.382117969999999               8.2017045    0.025156850000000001
    24   1      30.441029149999999      8.2016314300000008              0.02543782
    25   1  9.2789999999999998e-05             11.71671873    0.025573410000000001
    26   1              4.05870014             11.71671873    0.025573410000000001
    27   1      8.1176017700000003             11.71668698              0.02497914
    28   1             12.17637068             11.71673069    0.025001590000000001
    29   1      16.235177310000001      11.716730249999999    0.025074039999999999
    30   1      20.293959009999998      11.716730249999999    0.025074039999999999
    31   1      24.352765640000001             11.71673069    0.025001590000000001
    32   1      28.411534549999999             11.71668698              0.02497914
    33   1      2.0293964600000001             15.23167155              0.02525285
    34   1      6.0881728300000004      15.231678799999999    0.025062859999999999
    35   1             10.14698486      15.231762639999999               0.0250786
    36   1             14.20578841             15.23176782    0.025201990000000001
    37   1             18.26456816              15.2317707    0.025149979999999999
    38   1      22.323347900000002             15.23176782    0.025201990000000001
    39   1      26.382151459999999      15.231762639999999               0.0250786
    40   1      30.440963480000001      15.231678799999999    0.025062859999999999
    41   1      32.470327990000001      18.746748629999999    0.024951939999999999
    42   1      4.0588083299999997      18.746748629999999    0.024951939999999999
    43   1      8.1175770200000006      18.746803499999999    0.025222040000000001
    44   1             12.17637459      18.746799750000001    0.025428470000000002
    45   1      16.235159400000001      18.746805200000001    0.025487360000000001
    46   1      20.293976919999999      18.746805200000001    0.025487360000000001
    47   1      24.352761730000001      18.746799750000001    0.025428470000000002
    48   1             28.41155929      18.746803499999999    0.025222040000000001
    49   1      2.0293964600000001      22.261939099999999    0.025844880000000001
    50   1      6.0881419299999999      22.261841799999999    0.025489439999999999
    51   1             10.14692954             22.26176895              0.02551757
    52   1             14.20573559      22.261804690000002    0.025639160000000001
    53   1             18.26456816             22.26178625    0.025640119999999999
    54   1      22.323400729999999      22.261804690000002    0.025639160000000001
    55   1      26.382206780000001             22.26176895              0.02551757
    56   1             30.44099439      22.261841799999999    0.025489439999999999
    57   1  5.6450000000000003e-05      25.776936450000001              0.02613327
    58   1      4.0587364700000004      25.776936450000001              0.02613327
    59   1      8.1175325399999991              25.7767713    0.024734180000000001
    60   1      12.176376469999999      25.776831090000002              0.02545323
    61   1      16.235145939999999      25.776775220000001    0.025273360000000002
    62   1             20.29399038      25.776775220000001    0.025273360000000002
    63   1      24.352759840000001      25.776831090000002              0.02545323
    64   1      28.411603769999999              25.7767713    0.024734180000000001
    65   1  0.00024266000000000001              2.34304215     0.80166565000000001
    66   1      4.0585502699999996              2.34304215     0.80166565000000001
    67   1      8.1157394600000003              2.34454954     0.80169402000000001
    68   1             12.17601256      2.3433829099999999     0.80116898000000003
    69   1      16.235258170000002      2.3433209100000001     0.80090046999999998
    70   1      20.293878150000001      2.3433209100000001     0.80090046999999998
    71   1      24.353123750000002      2.3433829099999999     0.80116898000000003
    72   1      28.413396859999999              2.34454954     0.80169402000000001
    73   1      2.0293964600000001      5.8582218700000004     0.80119762000000005
    74   1      6.0870566899999998      5.8583336700000004              0.80194851
    75   1             10.14649655              5.85853131     0.80121584000000001
    76   1             14.20597894      5.8582938599999999     0.80086840999999998
    77   1             18.26456816      5.8583798500000004               0.8010794
    78   1      22.323157380000001      5.8582938599999999     0.80086840999999998
    79   1             26.38263976              5.85853131     0.80121584000000001
    80   1      30.442079629999999      5.8583336700000004              0.80194851
    81   1  0.00019438999999999999      9.3717771800000005     0.80082061000000004
    82   1      4.0585985400000002      9.3717771800000005     0.80082061000000004
    83   1      8.1175070500000004      9.3725002699999997     0.80149060999999999
    84   1      12.176590020000001      9.3733583399999993     0.80088261999999999
    85   1             16.23512199      9.3733789200000004              0.80106506
    86   1             20.29401433      9.3733789200000004              0.80106506
    87   1      24.352546289999999      9.3733583399999993     0.80088261999999999
    88   1      28.411629269999999      9.3725002699999997     0.80149060999999999
    89   1      2.0293964600000001             12.88692854     0.80220621000000003
    90   1      6.0883212999999996             12.88743848     0.80138414999999996
    91   1      10.147128609999999             12.88859852     0.80085256000000005
    92   1             14.20571782      12.888558189999999     0.80113791000000001
    93   1             18.26456816      12.888409899999999     0.80109381000000002
    94   1      22.323418490000002      12.888558189999999     0.80113791000000001
    95   1             26.38200771             12.88859852     0.80085256000000005
    96   1      30.440815019999999             12.88743848     0.80138414999999996
    97   1              0.00012365      16.403222639999999     0.80145666999999998
    98   1      4.0586692700000002      16.403222639999999     0.80145666999999998
    99   1      8.1174337899999998      16.403825260000001     0.80097196999999998
   100   1              12.1761021             16.40390721     0.80133072000000005
   101   1             16.23503496      16.403861750000001     0.80140014999999998
   102   1      20.294101359999999      16.403861750000001     0.80140014999999998
   103   1      24.353034220000001             16.40390721     0.80133072000000005
   104   1      28.411702529999999      16.403825260000001     0.80097196999999998
   105   1      2.0293964600000001      19.919205120000001     0.80066369999999998
   106   1              6.08752564             19.91894023     0.80122479000000002
   107   1      10.146078839999999             19.91919038     0.80159137999999996
   108   1      14.204993419999999              19.9192584     0.80178742000000003
   109   1             18.26456816      19.919377350000001     0.80194975999999996
   110   1      22.324142899999998              19.9192584     0.80178742000000003
   111   1      26.383057470000001             19.91919038     0.80159137999999996
   112   1      30.441610669999999             19.91894023     0.80122479000000002
   113   1              0.00142012      23.434536609999999     0.80178442000000005
   114   1      4.0573728100000004      23.434536609999999     0.80178442000000005
   115   1      8.1165862000000004      23.433936769999999     0.80182306000000003
   116   1             12.17555218      23.433996919999998     0.80156656000000004
   117   1             16.23465491      23.434040110000002     0.80170828999999999
   118   1      20.294481409999999      23.434040110000002     0.80170828999999999
   119   1      24.353584130000002      23.433996919999998     0.80156656000000004
   120   1      28.412550110000002      23.433936769999999     0.80182306000000003
   121   1      2.0293964600000001      26.949875330000001              0.80297246
   122   1      6.0858208300000003      26.950066320000001              0.80215291
   123   1             10.14598146      26.949241430000001     0.80165810000000004
   124   1             14.20520604      26.948673230000001     0.80131923999999999
   125   1             18.26456816             26.94858318     0.80108193999999999
   126   1      22.323930279999999      26.948673230000001     0.80131923999999999
   127   1      26.383154860000001      26.949241430000001     0.80165810000000004
   128   1             30.44331549      26.950066320000001              0.80215291
   129   1     0.18397628999999999    0.096481059999999993              1.59591124
   130   1      4.1871660400000001             28.24396947      1.5458945799999999
   131   1      8.0768903900000009    0.011457510000000001      1.5720077699999999
   132   1      12.203708560000001             28.10086978              1.43557544
   133   1      16.126297770000001    0.077421989999999996      1.4354651700000001
   134   1      20.189566410000001   0.0019902700000000001              1.55039488
   135   1      24.377289319999999             28.12045638      1.5618335999999999
   136   1      28.378679529999999   -0.044758609999999997              1.29214743
   137   1      2.0185973800000001              3.50346007      1.3778305399999999
   138   1      6.1439681100000003      3.3849712900000002      1.4746235400000001
   139   1      10.124893309999999      3.4290179900000002              1.45591297
   140   1      14.066077440000001      3.5241170799999999      1.5390320900000001
   141   1             18.26118327      3.6965753600000002      1.5617333600000001
   142   1             22.22416561      3.5390536899999998      1.4140400900000001
   143   1             26.17095995      3.6464812599999998      1.3567787899999999
   144   1      30.356562910000001      3.4451055500000001               1.4046968
   145   1   -0.095488569999999995      7.0821135399999999      1.3331219400000001
   146   1      4.0817812399999998      7.0423798099999999      1.5634020799999999
   147   1      8.1413355299999992      6.8745708399999996              1.45984783
   148   1      12.110935469999999      6.8325051999999999              1.59676332
   149   1             16.16244515      7.0006065099999999      1.3931679299999999
   150   1      20.207107730000001      6.9821061000000002              1.44948527
   151   1      24.439646710000002      7.0072765400000003              1.54935171
   152   1             28.30572166      7.0530865900000004              1.54818732
   153   1      1.9524268199999999      10.543431719999999              1.37333493
   154   1      6.0542572699999999             10.59938127              1.43834095
   155   1             10.04831937             10.55745172              1.48287977
   156   1             14.15753954      10.413848550000001              1.55985682
   157   1             18.16039009             10.50379701      1.5896157099999999
   158   1      22.390388139999999             10.54701893              1.42552192
   159   1      26.511891599999998             10.51135934      1.5616004299999999
   160   1      30.378086190000001             10.52893356      1.4733330200000001
   161   1               -0.035184      13.986805179999999      1.5986119000000001
   162   1      3.8019291700000002      14.040281240000001              1.68605194
   163   1      8.2848731900000008      13.989168149999999      1.4566723800000001
   164   1      12.135136510000001      13.979904899999999      1.4741804999999999
   165   1      16.108865789999999      14.027193110000001      1.4593525300000001
   166   1      20.260453640000001      13.939317539999999      1.7823450300000001
   167   1             24.26503718             14.04521562      1.3911148900000001
   168   1             28.36751525      14.118970279999999              1.57666661
   169   1              1.91953335      17.605840539999999              1.54384732
   170   1      6.0083585599999996      17.478757689999998              1.58358895
   171   1      10.320466959999999             17.56805743      1.5975783800000001
   172   1             14.18125045      17.636193209999998              1.47764827
   173   1      18.356954699999999             17.67325572              1.44798318
   174   1      22.337215090000001      17.645083240000002      1.3795712099999999
   175   1              26.4640387      17.596592909999998      1.4230640999999999
   176   1              30.3742509      17.581674809999999      1.5477660200000001
   177   1      32.640471290000001      20.949025639999999      1.6138561199999999
   178   1      4.0048278799999997      21.038436600000001              1.43239406
   179   1      8.1168459800000008             21.12400972      1.4848745699999999
   180   1      12.375496010000001      21.165516950000001              1.51411257
   181   1             16.26961803      21.036973450000001      1.6021974699999999
   182   1      20.306611140000001             21.13021921              1.40826644
   183   1      24.339777649999998              21.1149855      1.4964813400000001
   184   1             28.44920063      21.073142359999999      1.4477707099999999
   185   1              2.10469785      24.611488980000001              1.28951792
   186   1      6.2184842700000003             24.60463103      1.5060047400000001
   187   1      9.9505482500000006      24.681407830000001      1.6583432600000001
   188   1             14.16746156      24.590814630000001      1.4829089499999999
   189   1      18.173520700000001      24.618944160000002              1.24844471
   190   1             22.24219781      24.739902650000001      1.4015098500000001
   191   1      26.469572719999999      24.563909639999999      1.5060089699999999
   192   1      30.700099219999998      24.590649039999999      1.3252218200000001
   193   1      1.8456874599999999      1.2057466100000001      2.4297948100000002
   194   1      6.0355095499999996               1.0972804      2.5323938899999998
   195   1      10.303922289999999      1.0089244799999999               2.3169643
   196   1      14.221723580000001      1.0736149500000001      2.3855700199999998
   197   1      18.171383760000001              1.19748075      2.2898720199999998
   198   1             22.24281414      1.1983456699999999               2.4749477
   199   1              26.2824913              1.10119283      2.5219182099999999
   200   1      30.368855199999999              1.25184685      2.4530567300000001
   201   1     0.31304811999999999      4.5220711900000001              2.27121488
   202   1      4.0719353500000004      4.7327463500000002      2.3383643699999999
   203   1      8.2056210400000005      4.5229592600000004      2.4901258099999999
   204   1      12.087593399999999      4.4944669299999997      2.4908230800000002
   205   1      16.136319780000001      4.6632189200000003      2.2977326499999999
   206   1             20.33778856      4.6340400900000001      2.3192169599999999
   207   1      24.290068770000001      4.8656135300000001              2.60820053
   208   1      28.343158460000001      4.7263916000000004      2.4670133000000001
   209   1      1.9210518299999999      8.1309625099999998      2.4394034000000002
   210   1      6.1870104499999998      7.9613739299999997      2.5092439099999999
   211   1      10.213664229999999      8.0832271599999999              2.33234794
   212   1             14.24394674      8.1138846600000001      2.5522770499999998
   213   1             18.19041709      8.0026668799999996      2.3118596500000002
   214   1      22.342624650000001      8.2834356200000006      2.3691161599999999
   215   1             26.44398876      8.2578573800000008      2.3132145899999998
   216   1      30.348069290000002      8.1894436099999997              2.52008214
   217   1      32.350875639999998             11.68452403      2.3298674799999999
   218   1      3.9063272200000001      11.852766089999999      2.4686079099999998
   219   1      7.9788574299999997             11.78602901              2.59546374
   220   1      12.105345639999999      11.814600199999999      2.4697291799999999
   221   1      16.304216499999999             11.80251941      2.4162613099999999
   222   1      20.353288070000001             11.55439297      2.5262023600000001
   223   1             24.42223242      11.626735800000001      2.3029790700000001
   224   1      28.273631810000001              11.8468102      2.3389654599999998
   225   1      1.9041893999999999             15.23938016              2.21761439
   226   1      6.0701788099999998              15.1957734      2.5346247599999998
   227   1             10.10512011      15.153512879999999      2.4869741200000002
   228   1      14.031674110000001      15.333106430000001      2.5314313400000001
   229   1      18.288702730000001      15.164366920000001      2.5706386299999999
   230   1             22.28949901      15.092873429999999      2.4441389500000001
   231   1      26.472048910000002             15.25051397      2.5136301400000001
   232   1      30.350319240000001             15.19601711              2.35701194
   233   1   -0.050834629999999999      18.813020850000001      2.3896867500000001
   234   1      4.0248832600000002      18.700419929999999              2.35003859
   235   1      8.0887721599999995             18.51414376      2.3752459899999998
   236   1             12.17063304      18.804793029999999      2.5229162600000001
   237   1      16.256647040000001      18.607501119999998      2.4385237200000001
   238   1             20.13553108      18.793295489999998      2.4540675900000002
   239   1             24.54951385      18.882639229999999      2.4259604100000001
   240   1      28.472470690000002      18.886999880000001      2.2713253400000002
   241   1              1.93135711             22.20391893      2.4467285799999998
   242   1      6.0014489800000002      22.170524589999999              2.43374997
   243   1             10.13355477             22.03018209      2.5242012599999999
   244   1             14.30878427             22.30838481      2.4457461700000001
   245   1      18.295785049999999      22.339941199999998      2.2630404199999998
   246   1      22.278043579999999      22.390817599999998      2.3072078899999999
   247   1      26.272092180000001      22.182706410000002      2.4725916899999998
   248   1      30.304363089999999      22.221413600000002      2.4158422599999998
   249   1      32.569862579999999      25.705322200000001      2.6288330800000002
   250   1      4.0804362599999999      25.713006060000001      2.6242963399999999
   251   1      8.1970123499999996             25.81877643              2.43172561
   252   1      12.292605379999999      25.706729169999999      2.4786503799999999
   253   1      16.245192769999999             25.67355826      2.5110716499999999
   254   1      20.155914379999999      25.970919380000002      2.2175158800000001
   255   1             24.19662108             25.92901397              2.43443458
   256   1      28.449036540000002      25.770830520000001      2.4545252500000001
   257   1  -0.0040199199999999997      2.3119370699999999      3.3146514599999999
   258   1      4.0055187099999996               2.4175119      3.3192022300000001
   259   1      8.2261209500000003              2.24339792      3.5069089999999998
   260   1             12.25259606              2.30997531      3.2144096499999999
   261   1             16.31202712      2.3298293499999998      3.2447930500000002
   262   1      20.338818570000001              2.40390492      3.2092076500000002
   263   1      24.323930390000001              2.46746591      3.3284039999999999
   264   1      28.281900889999999      2.4873616799999998      3.3871372200000001
   265   1      2.1633553499999998      5.8785563500000002      3.2404029799999998
   266   1              6.14539437      5.6246510199999999      3.1934152400000002
   267   1             10.26531293      5.7669592099999996      3.2898043000000001
   268   1             14.20295157      5.6783816900000001      3.3492036299999999
   269   1             18.46844643      5.7384519899999997      3.4313340999999999
   270   1             22.38517762      5.9020807199999998              3.16149725
   271   1      26.285138499999999      6.1325608799999998      3.2785790399999999
   272   1      30.373405269999999      5.8093192299999998      3.1490254100000001
   273   1      32.465757490000001      9.3704897900000006      3.2446474900000002
   274   1      4.0493258900000004      9.2893360299999994      3.2878117100000002
   275   1      8.3533410499999992      9.1774354799999998                 3.21713
   276   1      12.350354790000001      9.3134199899999999      3.2070894999999999
   277   1      16.464440849999999      9.2730756099999994              3.13589004
   278   1             20.14444525      9.1698942300000006      3.2641367200000002
   279   1      24.423835589999999      9.2755792800000005      3.1118501599999999
   280   1      28.334387249999999      9.5507535299999997      3.1720126500000001
   281   1              1.94287359      12.833874610000001      3.3720947799999998
   282   1      6.0580025900000001             12.93989395      3.3120914899999998
   283   1             10.03512362      12.762480999999999      3.2046218199999998
   284   1             14.13720884             13.06378232              3.27988949
   285   1      18.235590259999999      12.820146729999999      3.3754383300000002
   286   1      22.185834490000001             12.94751205      3.2918877499999999
   287   1      26.454201770000001             13.02719864      3.2073761099999998
   288   1      30.363617619999999      12.834803389999999      3.2811174599999999
   289   1   -0.058979759999999999      16.305149629999999      3.3125070499999998
   290   1      3.9401554999999999             16.34752829      3.1462762999999998
   291   1      8.1499774400000007      16.369223909999999      3.3035856699999999
   292   1              12.1048861      16.511416180000001      3.3586566200000001
   293   1      16.127483730000002      16.370535530000002      3.3982985600000002
   294   1      20.271150160000001      16.436234859999999      3.2330381300000002
   295   1      24.306054840000002      16.400976010000001      3.2318706100000001
   296   1      28.445157269999999      16.431272320000001      3.3294093500000002
   297   1              1.89865142             19.79055469      3.2741112700000001
   298   1      6.0694015800000001             19.80903489      3.2370016700000002
   299   1      10.239141030000001      19.939786179999999      3.1743831500000002
   300   1      14.170427269999999      20.001384139999999              3.44579755
   301   1      18.229738990000001      19.735783990000002      3.4174017399999999
   302   1      22.414603499999998             19.89384785      3.2060208600000002
   303   1      26.453935349999998             19.82116796      3.3019311400000002
   304   1             30.45150379      19.978510790000001      3.2201478899999998
   305   1      32.333045230000003      23.374329509999999      3.4717979699999999
   306   1      3.9941538699999999      23.275042970000001      3.1397479000000001
   307   1      8.1394387699999999      23.372120110000001      3.2136975200000002
   308   1      12.260703619999999      23.479374610000001      3.4270284599999998
   309   1      16.243108899999999              23.2657706      3.0929675799999998
   310   1      20.291750969999999      23.412959409999999      3.1454578500000001
   311   1      24.381213639999999      23.530091779999999              3.10625215
   312   1      28.355516300000001      23.554872540000002      3.4020390100000002
   313   1              2.11979249             26.96032241      3.1971226100000001
   314   1      6.1735897099999999      26.949403060000002      3.2967700999999998
   315   1      10.304525419999999      26.806422940000001      3.2418799900000002
   316   1             14.11249441      26.940721239999998      3.4426366599999998
   317   1      18.269470349999999             27.02583783              3.39859599
   318   1      22.185147220000001             26.85029789              3.38941363
   319   1      26.278307170000001      26.975780709999999      3.4074308100000001
   320   1             30.49502545      26.975020539999999      3.3854710200000002
   321   1      32.318436300000002      28.136664209999999      4.1526327700000003
   322   1              4.14291185    0.039938410000000001      3.9969799300000002
   323   1      8.1893706599999998               28.012981      4.0647173499999996
   324   1             12.18589345   0.0088878599999999992      4.1000801200000003
   325   1             16.22908838      28.109866740000001      4.1121678900000003
   326   1      20.321036889999998     0.18850059999999999      4.2227994000000004
   327   1             24.30807875              0.21311373      4.1175644299999998
   328   1              28.2769546    0.074835570000000004      4.0101874999999998
   329   1      2.0201745899999999      3.4338602900000001      4.0186980300000004
   330   1              5.98791925      3.5225417000000001      3.9685170699999999
   331   1             10.30720732      3.3376301499999999              4.00293162
   332   1             14.32764218      3.4691383500000001      4.0509319499999998
   333   1      18.304158439999998      3.5692668099999998      4.1232787799999997
   334   1             22.47260902              3.62832248      4.0974717600000004
   335   1      26.376185199999998              3.67749069      3.9754754000000001
   336   1      30.456607590000001      3.4571649999999998      4.0911706399999996
   337   1               0.0004216      7.0441591900000002      4.1131108000000003
   338   1      4.1821118300000002      7.0507381499999999      4.0652679899999997
   339   1      8.0369465099999999              6.84486303      4.0559040299999998
   340   1      12.135852720000001      6.9064184400000004      4.1508159600000001
   341   1      16.353766780000001      6.9594798899999999               3.9203006
   342   1      20.415759120000001      7.1035465999999996      4.1010103500000001
   343   1             24.22576677      7.0616598899999996      4.1342000900000002
   344   1      28.305791079999999      7.0512305099999999              3.95589038
   345   1      2.1672456599999999             10.52300659              4.01569091
   346   1      6.0796570599999997             10.37653875      4.1024367399999999
   347   1      10.339384089999999             10.44104797      4.2226458300000003
   348   1      14.316127659999999      10.572771700000001      4.0103062100000004
   349   1              18.1876383             10.51736509      4.0542641799999997
   350   1              22.3040442             10.62140183      4.1054831700000003
   351   1      26.533365499999999             10.64241009              4.03262871
   352   1      30.454957539999999             10.59364143      3.9533438300000001
   353   1      32.331749109999997             14.14821997      4.0705587300000001
   354   1      3.9787930500000002      14.137111279999999      4.1697471000000004
   355   1      8.1618577400000003             13.98956516      4.1086736400000001
   356   1             12.08874447      14.162286549999999      3.9708513399999998
   357   1              16.2360954      14.095126369999999      4.1439531399999998
   358   1             20.13793416             14.02575963      4.3392087899999998
   359   1      24.352155159999999             14.11544228      3.9254612799999999
   360   1      28.447264619999999      14.135499749999999      4.2378186199999996
   361   1      2.0321003800000002      17.520850190000001      4.1256898800000004
   362   1      6.1200034099999998             17.46979207      4.0637089399999997
   363   1             10.10632133      17.642359450000001      4.0819998399999999
   364   1             14.13497576      17.570252150000002      4.0353514700000002
   365   1      18.105191250000001      17.440514660000002      4.0735833699999997
   366   1             22.42285833             17.45535233      3.9652287799999999
   367   1      26.482363039999999      17.377723069999998      4.0110421499999998
   368   1      30.499476739999999             17.64862115      4.1115395699999997
   369   1      32.520434659999999      21.087385780000002      4.3190171499999996
   370   1      4.0865194899999997             21.12721204      3.9690475200000002
   371   1      8.1267927800000006      21.096300930000002      4.1244924300000001
   372   1      12.283228210000001      21.250839639999999      4.0918498799999998
   373   1      16.304906299999999      20.957820139999999      4.0862162900000003
   374   1      20.344767439999998      20.928223849999998               4.3347707
   375   1      24.242579970000001      20.969020449999999              4.07056723
   376   1      28.443598909999999             21.21895065      4.1215235999999997
   377   1      2.1149050200000001             24.48379065      4.0879388900000002
   378   1              6.03716002      24.733806420000001      4.0037506499999997
   379   1              10.3512155      24.630643200000002      4.3214830099999997
   380   1             14.30069591              24.6096143      4.0857669699999999
   381   1      18.143674359999999      24.645974899999999      3.9202135600000001
   382   1             22.22244251             24.56614862      4.1141584599999996
   383   1             26.35785967      24.697893659999998      4.2600146199999998
   384   1      30.452861810000002      24.677131580000001      4.1547067599999998
   385   1                1.871265              1.31678001      5.0468561899999997
   386   1      6.2814106399999998      1.0973827199999999      4.9845330299999997
   387   1             10.17506571              1.08723204      5.0732026000000001
   388   1      14.220382949999999      1.0973098800000001      4.9438534199999999
   389   1              18.1617122      1.1437358099999999      4.8630140900000001
   390   1      22.449684220000002              1.43160018      5.1267499799999996
   391   1      26.287055639999998      1.2178510499999999      4.9165831899999999
   392   1             30.35032988      1.1760435199999999      4.9792652899999998
   393   1      32.374463200000001      4.7303296599999998      4.8357290700000002
   394   1      4.2166546499999997      4.7055018999999998      4.8611567100000004
   395   1               8.1125235      4.5730470299999997      5.1177897300000001
   396   1      12.240392119999999      4.4531780000000003      5.0711411599999998
   397   1      16.242395040000002      4.5870849800000002      5.1211912399999999
   398   1      20.224897510000002      4.7834718399999998      4.9994201699999996
   399   1             24.40806164      4.9198151599999997      4.9976949900000003
   400   1      28.119090960000001      4.8250192399999996      4.9018964599999997
   401   1      2.0250577299999999      8.1323144599999999      4.9943850899999997
   402   1               6.1452114      7.9440379400000003      4.9542254999999997
   403   1      10.120659979999999      8.1174131000000003      4.8198493500000001
   404   1             14.29977916      8.3938010700000003      4.8433381799999999
   405   1             18.31167173      8.3109517499999992      4.9715758399999999
   406   1      22.222993939999999      8.1450698399999997      4.8882595000000002
   407   1      26.333420539999999      8.3309472400000004      4.8603570700000001
   408   1      30.301574639999998      8.1825458500000003      5.0097408699999999
   409   1              32.4175793             11.59554063      4.7001669100000001
   410   1      3.9871214500000001             11.67262785      4.8683663299999997
   411   1      8.2424750099999997      11.617218980000001      4.8907111299999997
   412   1             12.22109682             11.71962596      4.7751812300000003
   413   1      16.155810639999999              11.6321812      4.8077245199999998
   414   1      20.154667750000002      11.688183349999999      5.0136556299999997
   415   1      24.281558560000001             11.75726132      4.8142284699999998
   416   1      28.510005939999999      11.624967249999999              4.96032268
   417   1              1.98378879      15.289255819999999              4.96569254
   418   1      6.1274254499999996             15.28328484              5.01913828
   419   1             10.13273701             15.21350282      5.0263916499999999
   420   1      14.174652439999999             15.23521034      5.0229259099999997
   421   1             18.06434527               15.175158              5.03166271
   422   1      22.290008220000001      15.239396259999999      4.9779518600000001
   423   1      26.473661450000002             15.22412591      5.1226972499999999
   424   1      30.490592060000001             15.17335325      5.0148683199999997
   425   1     0.15437045999999999      18.666901549999999      5.0644362999999997
   426   1      4.0571921299999998             18.78252612      4.7369472899999998
   427   1              8.04495073      18.522054780000001      4.9877780500000002
   428   1             12.15750794             18.85923528      5.0928301100000004
   429   1             16.11977864             18.81709884              5.11014912
   430   1      20.226897359999999      18.547852070000001      4.9538897799999999
   431   1      24.329649629999999      18.675914680000002      4.9655268299999999
   432   1      28.520729939999999             18.68163328      5.0407280700000001
   433   1      1.9742576199999999      22.169414400000001      5.2031348599999996
   434   1      6.2553848399999996      22.341776150000001      4.7799018799999997
   435   1             10.30398231      22.355510349999999      5.0403335399999998
   436   1      14.344678849999999             22.34111871      5.0203829600000001
   437   1      18.162883069999999      22.210436260000002      4.8064547600000003
   438   1      22.190888409999999      22.229228330000002      4.7597823400000001
   439   1              26.4074952      22.152345579999999      5.0210534300000003
   440   1      30.532071070000001      22.149514289999999      5.0055484000000003
   441   1      32.412386519999998      25.768994280000001      4.8346398700000002
   442   1              3.92090475      25.746290429999998      5.1579820200000004
   443   1      8.0353790200000006             25.61515283      5.0933225200000001
   444   1      12.581050879999999             25.75097457      4.9704069100000003
   445   1      16.240023059999999             25.70406599      4.9169793300000002
   446   1              20.1994656             25.68466501      4.7565440299999997
   447   1      24.298091190000001      25.881537980000001      5.0503365000000002
   448   1      28.605713189999999      25.799331250000002      5.1627629099999996
   449   1      32.455568270000001              2.45513475      5.8485597499999997
   450   1      4.1652992199999996      2.3584973900000001      5.7036961499999999
   451   1      8.2276103000000003              2.26633387      5.9341190800000003
   452   1      12.209937549999999              2.11426924      5.7581889000000004
   453   1      16.302905429999999      2.2515339299999999              5.86719656
   454   1      20.150815990000002              2.44156065      5.7456747200000002
   455   1              24.3050797      2.5568540500000001               5.8898031
   456   1      28.248264070000001      2.3837356600000001      5.7443760199999998
   457   1      1.9615549999999999      5.9083743100000001      5.8268843800000001
   458   1      6.1147620500000004      5.7129959799999996              5.74816342
   459   1             10.26103371              5.85608708      5.6828012899999996
   460   1      14.192733199999999      5.8466703899999999      5.8380252600000002
   461   1             18.28808085              5.93679997      5.8201604900000001
   462   1             22.37336114      6.0533889900000002      5.6536983300000001
   463   1      26.287726070000001      6.0837382399999997      5.8350006299999997
   464   1      30.348549930000001      5.7282630899999996              5.79777875
   465   1    0.064422889999999997      9.3553817800000001      5.5599552000000001
   466   1      3.9865201300000002      9.2667864800000004      5.8569877000000004
   467   1      8.1428755600000002      9.3813631500000003      5.8850866699999997
   468   1             12.20228588      9.3656860200000001      5.8379661699999996
   469   1      16.191406409999999      9.4182894899999994      5.8644509600000001
   470   1      20.378751770000001              9.39234145      5.9080637300000003
   471   1      24.345200470000002      9.4656432000000006      5.6493632700000003
   472   1             28.33459285      9.3504195499999998      5.6632840499999997
   473   1      2.0494524699999999             12.81332476      5.7948029999999999
   474   1      6.0075730800000002             12.73052641      5.7254830800000001
   475   1              10.1151882             12.84542592              5.69346438
   476   1      14.179764199999999      12.693259510000001      5.8812854400000001
   477   1              18.0373682             12.91548963      5.7377680499999997
   478   1      22.271479360000001             12.82912353      5.8513300199999998
   479   1             26.41181907             12.78453303              5.74185824
   480   1      30.479133050000002             12.89119992      5.6874399799999997
   481   1      32.540254599999997      16.596827869999998      5.7596079099999997
   482   1              4.06551229      16.537856770000001      5.5905012899999997
   483   1      8.0864335500000006      16.272418569999999      5.6581056700000003
   484   1      12.125065060000001      16.507256989999998      5.8981284699999996
   485   1             16.20006338      16.341382320000001      5.9871636199999996
   486   1             20.13865814      16.274409850000001              5.78737236
   487   1             24.28487608      16.300028279999999      5.7812586899999996
   488   1              28.5624167             16.36905617      5.8498740600000003
   489   1      2.1122851900000001      19.886981989999999      5.9377434999999998
   490   1      6.1836819900000002      19.935739890000001      5.6538149899999999
   491   1             10.17383439             19.94585125      5.7373774199999996
   492   1      14.189874209999999             19.99827702      5.8181561999999998
   493   1      18.263121089999999             20.03784602      5.6549542300000004
   494   1      22.260031560000002      19.875213259999999              5.75285476
   495   1             26.32461116      19.838048629999999      5.6823598000000004
   496   1      30.492292339999999      19.967563269999999      5.9140172399999997
   497   1   -0.022206119999999999      23.384004730000001      6.0546380099999997
   498   1      4.1409570999999996      23.310319369999998      5.7052541400000001
   499   1      8.3373132999999999             23.47144913      6.1194036499999998
   500   1             12.12668953              23.4616793      5.9503352500000002
   501   1      16.235414259999999      23.503072700000001      5.8003936100000004
   502   1      20.388622380000001      23.253630609999998      5.6996287499999996
   503   1      24.213920760000001      23.383356509999999              5.67335601
   504   1      28.542901409999999      23.369072419999998      5.8419581200000001
   505   1              1.85393053      27.029822339999999      5.8550351000000003
   506   1      6.0452833899999998      27.000452289999998      5.7038170499999996
   507   1             10.28836042      26.938539479999999      5.7468077700000002
   508   1      14.347770819999999      26.924639410000001      5.8409262899999996
   509   1             18.29457069      27.032439750000002      5.9387808800000004
   510   1             22.07649318      27.008612450000001              5.89891115
   511   1      26.347100770000001      27.025635609999998      5.8138045399999996
   512   1      30.678759280000001             26.94683633      5.9144925099999996
   513   1   -0.028089659999999999             28.19643357      6.7433093800000004
   514   1      3.9102045099999998   -0.023423280000000001      6.5525619700000002
   515   1      8.2507690100000008    -0.14666072999999999      6.5398852300000003
   516   1      12.199592709999999   -0.063417979999999999      6.6713998200000004
   517   1      16.185003080000001   -0.049144420000000001      6.8046352700000003
   518   1      20.180748399999999      28.207447169999998      6.8919730399999999
   519   1      24.339636840000001     0.23080597999999999      6.5059296900000003
   520   1      28.490608949999999              0.00676197      6.6368786499999999
   521   1      2.0329374800000002              3.48785838      6.7493267000000001
   522   1              6.18568564               3.3308825               6.5557067
   523   1      10.200246780000001      3.3573253099999998      6.6302240799999996
   524   1      14.048248770000001      3.5025497799999998      6.5497320400000003
   525   1             18.23074278      3.4228919499999999      6.6489071500000003
   526   1             21.99896111              3.68491306      6.5417248099999998
   527   1      26.195847499999999      3.8072203899999999      6.7512523399999997
   528   1      30.311468210000001      3.5427506900000001      6.8785091700000001
   529   1      32.392586989999998      7.1499305499999997      6.5784759599999996
   530   1      4.0485769300000003      7.0376086799999999      6.6572576699999999
   531   1      8.1715185699999999      6.8586048999999996      6.7570725999999999
   532   1             12.42187139      6.9607518700000002              6.66247115
   533   1      16.124304970000001      7.0545684900000003      6.7001803999999998
   534   1      20.249731329999999              7.19590861      6.8046897499999996
   535   1      24.275112889999999      7.2882299399999999      6.5029387500000002
   536   1      28.176407860000001      7.0916805600000004      6.5831756800000001
   537   1      2.1206902799999998      10.593136790000001      6.5258630200000001
   538   1      5.8565216400000004             10.50297834      6.4360287100000004
   539   1      10.109453589999999             10.44967198      6.5065251200000001
   540   1             14.10737804             10.57186581               6.6649414
   541   1      18.115089229999999             10.69071591      6.6086692600000001
   542   1             22.29923977             10.39129947      6.6861003300000004
   543   1      26.453704380000001             10.50886403      6.4528886999999999
   544   1      30.426413709999999      10.530773679999999      6.6924834000000004
   545   1    0.029149959999999999             14.05723066      6.4573501799999997
   546   1      4.1693508499999998      14.150877319999999      6.4005118899999998
   547   1      8.0302665199999996      14.035891250000001      6.5619946899999997
   548   1             12.09785368      14.045423720000001      6.4792205300000001
   549   1      16.148643109999998      14.002682849999999      6.8106511699999999
   550   1      20.464980659999998      13.903363819999999      6.8051119099999999
   551   1             24.37651323      13.973140239999999      6.6662164099999996
   552   1              28.3550094             14.01049064      6.7796633599999998
   553   1              2.13733591      17.547827900000001      6.5156404200000004
   554   1              6.10781566      17.510378899999999      6.4699152399999997
   555   1      10.282049089999999             17.61379822              6.68862661
   556   1             14.24594666      17.622991679999998      6.5674227900000002
   557   1      18.288606390000002      17.594744680000002      6.6053901000000002
   558   1             22.47680334      17.437058560000001      6.5810445499999997
   559   1      26.476796409999999      17.576814280000001      6.5929228899999996
   560   1      30.512226290000001      17.679469520000001      6.7449889799999996
   561   1              0.11004757      21.124176469999998              6.84349659
   562   1      4.2046652900000003             21.21960906      6.7451744099999997
   563   1      8.2462861400000005      21.145925980000001      6.5676758399999997
   564   1             12.28220844             21.17500115              6.62864963
   565   1      16.252399149999999             21.04845018      6.6624160100000003
   566   1      20.426348709999999             20.85635293      6.7353934100000004
   567   1      24.325549930000001      21.126092159999999      6.5911453399999997
   568   1      28.354041809999998             21.14719981              6.79537821
   569   1              2.10325958      24.710399150000001      6.7957540700000001
   570   1      6.0326615200000004      24.766382119999999      6.4859062700000001
   571   1      10.167585799999999      24.621096049999998      6.7864417100000001
   572   1             14.25331946      24.550855760000001      6.5852469500000002
   573   1      18.400574079999998             24.53340476              6.48248289
   574   1      22.315259130000001      24.790903539999999      6.6293486899999996
   575   1             26.19371778      24.693449879999999      6.5074445799999996
   576   1      30.607022010000001      24.532070879999999      6.7067371800000002
   577   1      1.9904273100000001      1.0863481399999999      7.5545215800000003
   578   1      6.1529997500000002              0.94815388      7.2141536799999999
   579   1             10.08351463     0.97550013000000002      7.6827970399999996
   580   1             14.06506269      1.2493005800000001      7.5720894200000002
   581   1      18.301615649999999              1.22471519      7.5544037900000003
   582   1             22.06386835      1.4333253500000001      7.4473502900000002
   583   1      26.381120540000001      1.2978290100000001      7.3313224200000002
   584   1      30.404852080000001      1.1224310900000001      7.6703104700000004
   585   1             -0.05266759      4.7184769700000002      7.5163937699999996
   586   1      4.0037737699999996      4.5299936000000001      7.4293180699999999
   587   1      8.0886384299999996      4.5111448000000003      7.4575570799999999
   588   1             12.21467223               4.5146872      7.7674233299999997
   589   1             16.30479583      4.3994140399999999      7.6471273999999996
   590   1      19.944189590000001      4.8223203000000003      7.5188454800000004
   591   1             24.29416024      4.9539060800000003      7.4239022400000003
   592   1      28.357232799999998      4.7457081600000004              7.43483831
   593   1      1.7687110399999999      8.2063729100000007      7.6883379500000002
   594   1      6.0920704099999998      7.9498217100000002              7.42202334
   595   1             10.29166056      8.2562083499999996      7.5179665099999999
   596   1             14.22228271      8.2169922900000003      7.5580096799999996
   597   1             18.15903818      8.4073324100000004      7.6050787499999997
   598   1      22.324378859999999      8.1749287600000002      7.8443199300000002
   599   1      26.504668209999998      8.3722757600000008      7.4109129300000003
   600   1      30.380052020000001      8.0769819199999997      7.3135125399999996
   601   1              0.11287875             11.93179082      7.4166105399999998
   602   1      4.0402496699999997             11.70904047      7.4425458000000004
   603   1      8.1245959299999999             11.51904049      7.0794630300000003
   604   1      11.948558439999999             11.81170977      7.1917201400000001
   605   1      18.270060579999999      10.720220380000001      9.5598520899999997
   606   1      20.202471169999999             11.60010799      7.5078900600000003
   607   1      24.196628230000002             11.74346484      7.3413661799999996
   608   1      26.428486589999999      5.9696977899999997      8.3184071700000004
   609   1      1.8953405699999999             15.09180351      7.3018372400000002
   610   1      6.0711867799999997      15.230006879999999              7.64117596
   611   1             10.07026778             15.24064836      7.5526655500000004
   612   1             14.13543406      15.073719029999999      7.4913045499999997
   613   1             18.20189508      15.281649850000001      7.5431071699999999
   614   1      22.448283830000001             15.26708556      7.4855236999999999
   615   1      26.380400290000001             15.31636823      7.6800688399999997
   616   1      30.521778990000001      15.186222770000001      7.3298743699999998
   617   1    0.065082899999999999      18.759048979999999      7.6618006000000003
   618   1              4.16063999      18.713323760000002              7.23632381
   619   1      8.2811838400000006      18.651596019999999      7.5443942499999999
   620   1             12.48482626      18.672118730000001      7.6005168699999999
   621   1             16.31511364             18.76074753      7.5925723400000003
   622   1      20.406392749999998      18.598127349999999      7.4971933499999999
   623   1      24.464723859999999      18.728117350000002      7.3851989199999997
   624   1             28.27380939      18.780323169999999      7.5606713000000001
   625   1      2.1079522499999999      22.373154320000001      7.6654139700000004
   626   1      6.3101923199999996      22.419194560000001      7.4759160299999996
   627   1             10.22552739      22.256895669999999      7.5363963700000003
   628   1      14.280239119999999      22.034776669999999      7.7190321199999996
   629   1             18.37365544             22.20854464      7.4166488800000003
   630   1      22.194994229999999             22.15432165      7.4092754300000001
   631   1      26.189850580000002             22.49739082      7.6122518000000001
   632   1      30.502824270000001      22.199150079999999      7.8119885099999999
   633   1     0.25563507000000002      25.797870029999999              7.64838767
   634   1      4.1761922800000004      25.829696200000001      7.5858472700000004
   635   1      8.1284491400000007      25.779227110000001      7.3747032600000004
   636   1             12.35858537      25.770871369999998      7.4282443000000002
   637   1      16.165221320000001      25.668973059999999      7.4438986600000003
   638   1      20.238889100000002      25.774844519999998              7.46590036
   639   1      24.318556279999999      25.959292940000001      7.4964237499999999
   640   1             28.42267975      25.614547890000001      7.3892728300000003
   641   1      4.0583192700000001      7.0618698799999997      9.1070354299999998
   642   1      1.9332159600000001      3.5706665599999998      9.0522143800000006
   643   1      10.168662019999999      3.3036696700000001      8.9797153099999996
   644   1             12.18333814      2.1603234200000001      8.5693005000000007
   645   1      12.118247309999999      21.129799859999999      8.9543681199999998
   646   1             18.30211018      3.5905149399999998      9.1142485400000002
   647   1      22.195392590000001      5.7951908599999999      8.1847267899999991
   648   1      32.423063489999997      2.3284979899999998      8.1237400199999996
   649   1    -0.19738961999999999      7.0904061299999999      9.0379145300000001
   650   1              2.23967312      26.925505050000002      8.6778471800000005
   651   1      12.013084810000001      27.901748300000001      9.0935955100000001
   652   1             11.97879786              9.49584823      8.5238553400000008
   653   1      22.428275230000001      10.697620669999999      9.1434049000000002
   654   1      4.3383183299999999             26.01546424             10.05508661
   655   1      18.082496590000002      6.1282854699999998      8.4322879499999992
   656   1      6.2163748700000001      8.1245702000000009      9.6634629499999996
   657   1      8.1897364899999996      9.1512213500000001      8.3216329699999996
   658   1             16.36183072      16.401795830000001      8.3397613499999999
   659   1      6.4214296500000003      10.648153990000001      9.2133357799999995
   660   1             10.11921658      5.6623841600000002      7.9630499800000001
   661   1             17.96806733      27.193096929999999      8.3887644600000009
   662   1             24.67161776      9.5189001100000006      8.3006482800000008
   663   1      20.311505990000001      6.9449332000000004      9.2284942399999998
   664   1              4.23004742             11.46840379      9.7656949999999991
   665   1             10.13817587      10.723162260000001      9.0898973000000005
   666   1             10.22445183      17.898466150000001      9.0672239000000001
   667   1             14.50350907             19.81234456      8.4951019399999996
   668   1      16.148600070000001      11.668884309999999      7.5133118300000001
   669   1             24.38156103             14.32627256      8.8564834399999999
   670   1      24.432099959999999      7.1063980300000003      8.9758602599999993
   671   1      2.2485110100000001      17.595835879999999      8.9818415100000006
   672   1      2.1257695000000001             12.82382625      8.5440419999999992
   673   1      7.8104558400000004              14.1429078      9.3639246499999995
   674   1      1.7156477299999999      15.194809660000001      9.6320867000000003
   675   1      18.249308150000001      17.494926419999999      9.2004502299999995
   676   1      10.227381640000001      20.013690059999998      8.2941321299999995
   677   1      14.402057689999999      12.915567599999999      8.3363092099999996
   678   1      21.893951170000001      17.273263790000001      9.3097748399999993
   679   1      26.437417320000002      12.782013600000001      8.1588744599999998
   680   1      28.435043579999999      11.474278180000001              7.49951496
   681   1      2.0488491299999998      1.3582081100000001      9.7991676600000002
   682   1      8.0533518199999996      16.342369179999999      8.2050531400000004
   683   1      6.1481086600000001             27.03762978      8.3569197899999992
   684   1      9.7744651600000001      12.925264990000001      8.3570155199999991
   685   1             22.45115895      19.821612139999999      8.2569064300000008
   686   1      20.287898269999999      21.262043970000001      9.2892922700000007
   687   1             28.83929101             16.38623239      8.3538276400000004
   688   1      30.168227640000001      12.743265600000001      8.2582763900000007
   689   1             24.07702815             21.46981293      9.1847146300000002
   690   1      4.0752152099999996             23.50249814      8.2210160000000005
   691   1      4.1710644099999996              4.53214542      9.7571740899999995
   692   1      14.196744949999999      26.851371440000001      8.3064899000000008
   693   1             18.18639645      19.908313159999999      8.3774575299999992
   694   1      20.259330080000002      16.247358800000001      8.1442098200000004
   695   1      24.001520920000001             23.64531637      8.0153044500000004
   696   1      28.211829340000001             23.40510939      8.3369646100000008
   697   1      4.2062397599999999              2.37859569      8.2769139500000009
   698   1      12.224144069999999      23.541815249999999      8.4304198400000008
   699   1             20.20805571             23.47943493      8.2288914999999996
   700   1      18.242318910000002             24.83475631      9.0710412300000005
   701   1             16.29277299      2.1097567599999998      8.2353667799999997
   702   1             26.44955495      24.606153590000002      9.0551777100000006
   703   1      20.295464840000001      2.4033549600000002      8.4515394599999993
   704   1      32.519399370000002      25.949812990000002      9.9256908500000005
   705   1      2.0494546900000001      5.9615978299999997      8.1914957200000007
   706   1              6.16343044              1.02756443      9.7319987599999997
   707   1      14.134386709999999      5.9184177499999997              8.31959099
   708   1      16.490720840000002             21.22290843              8.98412392
   709   1      22.422030020000001             27.24601341      8.1766843700000003
   710   1      18.346184789999999             22.32668893      9.7552678799999999
   711   1      30.167236899999999      3.2425019599999998      9.3083496700000001
   712   1      2.1418498800000001      24.637793680000001      9.3517943199999998
   713   1      32.510146919999997     0.20491894999999999      9.0112387599999995
   714   1             30.28550791              24.6477273      9.0488675500000006
   715   1      30.363815150000001             27.04535426      8.5058656300000006
   716   1             14.27620016              3.19927436      8.7114126299999999
   717   1             24.75823085              0.01614757      8.7231109100000008
   718   1      26.171160390000001      3.5243356800000001      9.1508846500000001
   719   1      1.9189901899999999      10.228829169999999      9.1141747500000001
   720   1      30.357301209999999      5.9407362099999999      8.6805250100000002
   721   1      4.0840957500000004      9.4039094300000006      8.4347268700000004
   722   1      12.315647370000001      16.320800380000001      8.3708019399999998
   723   1      6.0688449799999997      5.7779035099999998      8.4793622699999993
   724   1      8.3079065199999995      6.7532338599999999      9.1492386400000001
   725   1      12.006503690000001      7.1662475399999996      9.0469664000000005
   726   1              15.9967492      7.1458917499999997      9.1302912200000002
   727   1             16.39510391      23.436967339999999      8.2229188200000003
   728   1              28.5009464      9.0763129300000003      8.2468417400000007
   729   1      5.9770831099999997             17.65484575      8.9600624300000007
   730   1      8.1005158900000005      2.1460027699999999      8.3036140700000001
   731   1             16.16626084      9.3705686099999994      8.3447611899999998
   732   1      18.283563170000001      8.2586776799999999      9.9584586999999996
   733   1      18.191616280000002             12.65214767      8.1255136799999992
   734   1      4.0665943000000002              0.18865419      8.9730101999999992
   735   1      24.318617339999999      2.5399454399999999      8.0715152700000008
   736   1      4.0955133000000004      14.238355070000001      9.0256508800000006
   737   1             30.28689164      19.803580499999999      8.2768534200000001
   738   1             32.13449172      9.5666598199999999      8.0555773599999991
   739   1             12.19340852      13.745129009999999      8.8105525300000007
   740   1      14.189223439999999      10.359834859999999      9.2815242199999997
   741   1      22.160625079999999      13.146970530000001      8.3012339900000001
   742   1      28.331508410000001               2.5115094      8.1048367700000004
   743   1      20.324735010000001      9.6079208999999999      8.6492361599999992
   744   1    -0.19547084000000001             13.94320016      9.0988997499999993
   745   1      2.1953855299999998      20.022870560000001      8.2838737899999995
   746   1      6.0337679299999998             12.81517981      8.2114312500000004
   747   1      9.9008995199999994      15.187997899999999      9.7502567199999994
   748   1      4.1591619800000004      21.143842209999999      9.2372730300000008
   749   1      24.204613980000001             16.56259425      8.5826199299999999
   750   1      26.669623900000001      17.532979650000001      9.1895456000000006
   751   1      24.737672360000001      18.905670130000001      9.8304756500000003
   752   1      4.0270871599999998             16.44084849      8.0764701900000002
   753   1      4.0990998899999997      18.677749339999998      9.6913658599999994
   754   1      8.3301215099999997      23.253169710000002      8.5468315300000004
   755   1      6.3822537800000001      24.684595819999998      9.1021333200000001
   756   1             10.17764772      26.577099329999999      8.1562212400000007
   757   1      8.1535382100000007      20.818666400000001              8.95369803
   758   1      26.700710489999999      26.911923949999998      7.9937895299999999
   759   1      26.354356360000001             20.13367762              8.32120484
   760   1             28.32694936             25.85050433      9.7346976600000001
   761   1      5.9537481799999998      19.889792249999999              8.05249551
   762   1      32.556386850000003      16.423701210000001      8.1167843600000005
   763   1      6.3122256600000002      3.2860572700000001      9.1118909899999991
   764   1      8.2470177899999992      27.913306120000001      8.8349853899999999
   765   1             14.34863105      24.480196410000001      8.9846869500000004
   766   1      22.019791120000001             24.90670356      9.0884484899999993
   767   1      28.409586170000001     0.35645111000000002      9.2172660499999992
   768   1      32.568206429999996             23.55568791      8.4143273599999997
   769   2      7.8291331599999996      12.258731360000001      8.7985156500000006
   770   2      8.2905901499999999      10.741535499999999      9.2211459700000002
