N2-dn2-coord-10bar/300K/snapshots/frame-41700/run-000/../data.lammps (written by ASE) 

770 	 atoms 
2  atom types
0.0      32.470343392086264  xlo xhi
0.0      28.120142247150884  ylo yhi
0.0      31.213473999158239  zlo zhi


Atoms 

     1   1      2.0293964600000001      1.1716090800000001    0.023552650000000001
     2   1      6.0880008999999999              1.17168918              0.02556874
     3   1      10.146952280000001              1.17170328    0.025416459999999998
     4   1      14.205754900000001      1.1716496700000001              0.02501565
     5   1             18.26456816              1.17166478              0.02504435
     6   1             22.32338141      1.1716496700000001              0.02501565
     7   1      26.382184030000001              1.17170328    0.025416459999999998
     8   1      30.441135410000001              1.17168918              0.02556874
     9   1  9.1780000000000006e-05      4.6866847900000002    0.025581599999999999
    10   1      4.0587011400000002      4.6866847900000002    0.025581599999999999
    11   1      8.1174961000000003      4.6866290399999997    0.025584639999999999
    12   1             12.17638011      4.6866852999999997              0.02491202
    13   1             16.23517979      4.6866942700000003    0.025006210000000001
    14   1      20.293956519999998      4.6866942700000003    0.025006210000000001
    15   1      24.352756209999999      4.6866852999999997              0.02491202
    16   1      28.411640219999999      4.6866290399999997    0.025584639999999999
    17   1      2.0293964600000001      8.2016395800000002    0.026613040000000001
    18   1      6.0881071599999999      8.2016314300000008              0.02543782
    19   1             10.14701835               8.2017045    0.025156850000000001
    20   1      14.205766049999999      8.2017080900000003    0.024990459999999999
    21   1             18.26456816      8.2017077599999997    0.025091249999999999
    22   1      22.323370260000001      8.2017080900000003    0.024990459999999999
    23   1      26.382117969999999               8.2017045    0.025156850000000001
    24   1      30.441029149999999      8.2016314300000008              0.02543782
    25   1  9.2789999999999998e-05             11.71671873    0.025573410000000001
    26   1              4.05870014             11.71671873    0.025573410000000001
    27   1      8.1176017700000003             11.71668698              0.02497914
    28   1             12.17637068             11.71673069    0.025001590000000001
    29   1      16.235177310000001      11.716730249999999    0.025074039999999999
    30   1      20.293959009999998      11.716730249999999    0.025074039999999999
    31   1      24.352765640000001             11.71673069    0.025001590000000001
    32   1      28.411534549999999             11.71668698              0.02497914
    33   1      2.0293964600000001             15.23167155              0.02525285
    34   1      6.0881728300000004      15.231678799999999    0.025062859999999999
    35   1             10.14698486      15.231762639999999               0.0250786
    36   1             14.20578841             15.23176782    0.025201990000000001
    37   1             18.26456816              15.2317707    0.025149979999999999
    38   1      22.323347900000002             15.23176782    0.025201990000000001
    39   1      26.382151459999999      15.231762639999999               0.0250786
    40   1      30.440963480000001      15.231678799999999    0.025062859999999999
    41   1      32.470327990000001      18.746748629999999    0.024951939999999999
    42   1      4.0588083299999997      18.746748629999999    0.024951939999999999
    43   1      8.1175770200000006      18.746803499999999    0.025222040000000001
    44   1             12.17637459      18.746799750000001    0.025428470000000002
    45   1      16.235159400000001      18.746805200000001    0.025487360000000001
    46   1      20.293976919999999      18.746805200000001    0.025487360000000001
    47   1      24.352761730000001      18.746799750000001    0.025428470000000002
    48   1             28.41155929      18.746803499999999    0.025222040000000001
    49   1      2.0293964600000001      22.261939099999999    0.025844880000000001
    50   1      6.0881419299999999      22.261841799999999    0.025489439999999999
    51   1             10.14692954             22.26176895              0.02551757
    52   1             14.20573559      22.261804690000002    0.025639160000000001
    53   1             18.26456816             22.26178625    0.025640119999999999
    54   1      22.323400729999999      22.261804690000002    0.025639160000000001
    55   1      26.382206780000001             22.26176895              0.02551757
    56   1             30.44099439      22.261841799999999    0.025489439999999999
    57   1  5.6450000000000003e-05      25.776936450000001              0.02613327
    58   1      4.0587364700000004      25.776936450000001              0.02613327
    59   1      8.1175325399999991              25.7767713    0.024734180000000001
    60   1      12.176376469999999      25.776831090000002              0.02545323
    61   1      16.235145939999999      25.776775220000001    0.025273360000000002
    62   1             20.29399038      25.776775220000001    0.025273360000000002
    63   1      24.352759840000001      25.776831090000002              0.02545323
    64   1      28.411603769999999              25.7767713    0.024734180000000001
    65   1  0.00024266000000000001              2.34304215     0.80166565000000001
    66   1      4.0585502699999996              2.34304215     0.80166565000000001
    67   1      8.1157394600000003              2.34454954     0.80169402000000001
    68   1             12.17601256      2.3433829099999999     0.80116898000000003
    69   1      16.235258170000002      2.3433209100000001     0.80090046999999998
    70   1      20.293878150000001      2.3433209100000001     0.80090046999999998
    71   1      24.353123750000002      2.3433829099999999     0.80116898000000003
    72   1      28.413396859999999              2.34454954     0.80169402000000001
    73   1      2.0293964600000001      5.8582218700000004     0.80119762000000005
    74   1      6.0870566899999998      5.8583336700000004              0.80194851
    75   1             10.14649655              5.85853131     0.80121584000000001
    76   1             14.20597894      5.8582938599999999     0.80086840999999998
    77   1             18.26456816      5.8583798500000004               0.8010794
    78   1      22.323157380000001      5.8582938599999999     0.80086840999999998
    79   1             26.38263976              5.85853131     0.80121584000000001
    80   1      30.442079629999999      5.8583336700000004              0.80194851
    81   1  0.00019438999999999999      9.3717771800000005     0.80082061000000004
    82   1      4.0585985400000002      9.3717771800000005     0.80082061000000004
    83   1      8.1175070500000004      9.3725002699999997     0.80149060999999999
    84   1      12.176590020000001      9.3733583399999993     0.80088261999999999
    85   1             16.23512199      9.3733789200000004              0.80106506
    86   1             20.29401433      9.3733789200000004              0.80106506
    87   1      24.352546289999999      9.3733583399999993     0.80088261999999999
    88   1      28.411629269999999      9.3725002699999997     0.80149060999999999
    89   1      2.0293964600000001             12.88692854     0.80220621000000003
    90   1      6.0883212999999996             12.88743848     0.80138414999999996
    91   1      10.147128609999999             12.88859852     0.80085256000000005
    92   1             14.20571782      12.888558189999999     0.80113791000000001
    93   1             18.26456816      12.888409899999999     0.80109381000000002
    94   1      22.323418490000002      12.888558189999999     0.80113791000000001
    95   1             26.38200771             12.88859852     0.80085256000000005
    96   1      30.440815019999999             12.88743848     0.80138414999999996
    97   1              0.00012365      16.403222639999999     0.80145666999999998
    98   1      4.0586692700000002      16.403222639999999     0.80145666999999998
    99   1      8.1174337899999998      16.403825260000001     0.80097196999999998
   100   1              12.1761021             16.40390721     0.80133072000000005
   101   1             16.23503496      16.403861750000001     0.80140014999999998
   102   1      20.294101359999999      16.403861750000001     0.80140014999999998
   103   1      24.353034220000001             16.40390721     0.80133072000000005
   104   1      28.411702529999999      16.403825260000001     0.80097196999999998
   105   1      2.0293964600000001      19.919205120000001     0.80066369999999998
   106   1              6.08752564             19.91894023     0.80122479000000002
   107   1      10.146078839999999             19.91919038     0.80159137999999996
   108   1      14.204993419999999              19.9192584     0.80178742000000003
   109   1             18.26456816      19.919377350000001     0.80194975999999996
   110   1      22.324142899999998              19.9192584     0.80178742000000003
   111   1      26.383057470000001             19.91919038     0.80159137999999996
   112   1      30.441610669999999             19.91894023     0.80122479000000002
   113   1              0.00142012      23.434536609999999     0.80178442000000005
   114   1      4.0573728100000004      23.434536609999999     0.80178442000000005
   115   1      8.1165862000000004      23.433936769999999     0.80182306000000003
   116   1             12.17555218      23.433996919999998     0.80156656000000004
   117   1             16.23465491      23.434040110000002     0.80170828999999999
   118   1      20.294481409999999      23.434040110000002     0.80170828999999999
   119   1      24.353584130000002      23.433996919999998     0.80156656000000004
   120   1      28.412550110000002      23.433936769999999     0.80182306000000003
   121   1      2.0293964600000001      26.949875330000001              0.80297246
   122   1      6.0858208300000003      26.950066320000001              0.80215291
   123   1             10.14598146      26.949241430000001     0.80165810000000004
   124   1             14.20520604      26.948673230000001     0.80131923999999999
   125   1             18.26456816             26.94858318     0.80108193999999999
   126   1      22.323930279999999      26.948673230000001     0.80131923999999999
   127   1      26.383154860000001      26.949241430000001     0.80165810000000004
   128   1             30.44331549      26.950066320000001              0.80215291
   129   1              0.07436313    0.032049130000000002      1.4708764400000001
   130   1      4.0743189900000001    0.050406369999999999      1.7140635200000001
   131   1      8.0736546300000001     0.14359517999999999              1.40307169
   132   1      12.152934180000001             28.04378848      1.4685657599999999
   133   1      16.243621220000001      28.113818210000002      1.4077627399999999
   134   1      20.326279530000001              0.11944641      1.5204239900000001
   135   1      24.345818120000001    0.030999539999999999              1.43967143
   136   1      28.448697729999999    0.027367409999999998              1.41702974
   137   1              1.91981533      3.4421259700000002              1.52709319
   138   1              6.10015631      3.4733817600000001      1.4692233100000001
   139   1      10.216473329999999      3.5909147199999998              1.40258573
   140   1             14.19192657      3.5633680999999999              1.41133658
   141   1      18.245492580000001      3.5704210399999998              1.46164399
   142   1      22.493578299999999      3.5246533200000001               1.5812662
   143   1             26.30932576      3.5653243200000002      1.5285942800000001
   144   1             30.34622551      3.5757901200000002               1.5446016
   145   1              32.3906724      6.9260310399999998              1.41399692
   146   1      3.9761549999999999              6.94174998              1.53477335
   147   1      7.9966241599999996      6.9183077700000002      1.4762312200000001
   148   1      12.266523279999999      7.0617474800000002      1.5074636400000001
   149   1             16.28344457      6.9998544200000001              1.53610124
   150   1             20.23579127      6.9927529799999997      1.4433099899999999
   151   1      24.312070110000001      7.0910099000000004      1.4013810900000001
   152   1      28.342672530000002      7.0860926400000004              1.36326842
   153   1      2.0104956299999999             10.55184931              1.50345152
   154   1      6.1147866000000004             10.56437556               1.4593246
   155   1      10.147876869999999      10.494365419999999      1.3243965499999999
   156   1      14.220729260000001      10.513181189999999      1.4233910299999999
   157   1      18.394388450000001              10.6472657              1.32226306
   158   1      22.299947889999999      10.507444359999999      1.4759088300000001
   159   1      26.436146180000001      10.493332649999999              1.56699806
   160   1      30.417383860000001             10.55401833      1.4142294900000001
   161   1              0.09594859             14.10801962      1.5490504599999999
   162   1              4.04510112             13.95409179              1.49343442
   163   1      8.1572595000000003              14.1303111      1.5097971699999999
   164   1             12.22386002             13.99200905              1.57391294
   165   1              16.1967915             14.23812184      1.4083304000000001
   166   1      20.389452330000001      14.124640080000001      1.4491246099999999
   167   1      24.389509709999999      13.986847170000001              1.36722966
   168   1      28.449378249999999      14.030269759999999              1.52576493
   169   1               1.9467511      17.589380630000001              1.52014479
   170   1      6.1286784799999996             17.48315551               1.3490453
   171   1      10.159200820000001      17.559191770000002      1.5052350299999999
   172   1             14.22432658      17.556708820000001      1.4905223400000001
   173   1      18.266045099999999      17.526391719999999      1.5439942799999999
   174   1      22.290124550000002             17.62042082              1.39701842
   175   1             26.43479138      17.562209939999999              1.52469516
   176   1             30.40148864      17.582576450000001              1.49141027
   177   1    0.064655509999999999      21.140790339999999      1.4492267599999999
   178   1      4.0358345599999996      21.016388880000001              1.46328529
   179   1      8.1386525400000007      21.078085860000002              1.35850659
   180   1      12.144726070000001      21.066379449999999      1.4342229200000001
   181   1      16.312507230000001      21.146979989999998      1.1542573199999999
   182   1      20.347143119999998      21.181281500000001      1.5038435299999999
   183   1      24.309044879999998      21.073915960000001      1.4529128099999999
   184   1      28.420323700000001              21.0702596      1.6241816200000001
   185   1      2.1278852499999998      24.646281550000001               1.5609925
   186   1      6.0638053899999997             24.63866625              1.51647661
   187   1      10.153477820000001             24.70508066      1.4867702899999999
   188   1             14.18070062      24.671745019999999              1.43957728
   189   1      18.196840049999999      24.600591529999999              1.35906935
   190   1      22.410303200000001      24.684042089999998      1.4800958099999999
   191   1      26.394978699999999      24.667098360000001      1.5241588699999999
   192   1      30.470432899999999      24.603859589999999      1.5155584799999999
   193   1               1.9560312      1.1860091800000001      2.5516063999999998
   194   1              6.09912353              1.27676664      2.4546057399999999
   195   1             10.09356339      1.2902247899999999              2.37862661
   196   1      14.255387710000001              1.18200159              2.29044011
   197   1             18.25128226              1.21077616      2.3306023800000002
   198   1      22.295108290000002      1.1539594099999999      2.3852739700000001
   199   1             26.40752586              1.21762221              2.43445928
   200   1             30.32729548      1.0017496100000001      2.4538149900000001
   201   1             32.39800339      4.6573035899999997              2.34525096
   202   1      4.0087430099999999      4.6981581200000004      2.4715698599999998
   203   1      8.1176255800000003      4.7201836000000004      2.4173559400000002
   204   1             12.16448495      4.6990502699999999      2.4838505500000001
   205   1      16.203336620000002              4.65882825      2.3839326700000001
   206   1      20.283312859999999      4.7286969399999998      2.4086638900000001
   207   1      24.321318959999999      4.6929049699999998      2.4316971399999998
   208   1      28.442753369999998      4.6965582399999999              2.42314725
   209   1      2.0415891500000001      8.2206898899999992      2.4153425099999999
   210   1      6.0464610800000003      8.2456949799999997      2.4416853299999999
   211   1             10.21533992      8.0583638799999999              2.32555384
   212   1             14.39955376      8.1657181100000003               2.3923698
   213   1      18.329233309999999      8.2535233199999993              2.40687009
   214   1      22.234581049999999      8.2715120899999999      2.3682522100000001
   215   1             26.38979071      8.1760618300000001      2.4654860300000001
   216   1      30.401447820000001      8.1995244399999994      2.3962378599999998
   217   1      32.384848689999998      11.624192109999999              2.48262282
   218   1      4.1287906699999999      11.778879760000001      2.3777471800000001
   219   1      8.2320146699999999             11.67218222      2.3176180199999998
   220   1             12.19454771      11.724750800000001      2.4375186599999998
   221   1             16.33459762             11.77839638      2.2522338300000002
   222   1      20.409980650000001      11.771243630000001      2.5377293299999999
   223   1      24.414614019999998             11.79187381      2.3950969500000001
   224   1      28.353616540000001             11.68769122      2.4674821699999998
   225   1      2.0645080999999998             15.17066726      2.4047540600000001
   226   1      6.0893535700000001             15.16537055      2.4146162900000001
   227   1             10.19326526      15.209403890000001      2.4601080500000001
   228   1      14.123234800000001             15.27488136      2.4442246299999999
   229   1             18.26773154      15.219889220000001              2.33239208
   230   1      22.386202010000002      15.386254040000001              2.41933453
   231   1      26.427569160000001             15.13794015      2.3903659300000002
   232   1      30.451933740000001      15.239440200000001              2.46551111
   233   1    0.060637089999999998      18.798784739999999              2.43641803
   234   1      4.2021270399999997      18.718780450000001      2.3823053299999999
   235   1      8.2014868700000001      18.699703750000001      2.4066010200000001
   236   1      12.303808910000001             18.78703432      2.4648530599999998
   237   1      16.179653299999998      18.773572439999999      2.4141935399999999
   238   1             20.28052838      18.663555070000001      2.4415381599999999
   239   1      24.314978279999998             18.79502682      2.4133789600000002
   240   1      28.443265440000001             18.77100016              2.58641261
   241   1      2.1154639300000002      22.251849889999999      2.5584532900000001
   242   1      6.1902870700000001      22.210353789999999      2.3010786799999998
   243   1             10.23166062              22.2850237      2.3563268499999999
   244   1             14.14581772      22.260049380000002      2.3723549799999999
   245   1             18.29964227             22.24507419      2.4247723699999999
   246   1             22.44579298      22.278260700000001              2.46660981
   247   1      26.442620059999999      22.234804789999998      2.3792562899999998
   248   1      30.448116850000002      22.266173200000001              2.48065611
   249   1    0.021373409999999999             25.64844407      2.3607360399999999
   250   1      4.0578342300000001      25.807906070000001              2.41016239
   251   1      8.0659063599999996      25.819675029999999      2.3665277200000001
   252   1             12.27139756      25.830281459999998              2.55591795
   253   1      16.256733329999999             25.83095655      2.3856076599999998
   254   1      20.394417499999999      25.818796339999999      2.3190073600000001
   255   1      24.302051850000002      25.806639109999999      2.4096386000000001
   256   1      28.461558780000001      25.733084869999999      2.4552744099999999
   257   1      32.426315250000002      2.2547532000000001      3.2852767900000002
   258   1      3.9980743400000001      2.4090995199999998      3.2948504000000001
   259   1      8.0763898199999993      2.4913138699999999      3.1782097899999999
   260   1             12.29033488      2.2577484499999998      3.2368931999999999
   261   1             16.20879931      2.3132210299999998      3.2853716300000002
   262   1      20.356014309999999              2.48904573      3.2974421700000001
   263   1      24.357900999999998      2.3162098599999998      3.3702295100000002
   264   1             28.32182607      2.2784607700000001      3.2886361700000002
   265   1      1.9165460999999999      5.9371318000000004      3.3343967399999999
   266   1      6.0442770499999998      5.8785062000000003      3.1933966800000002
   267   1      10.199089499999999      5.7762022000000002      3.3062074300000002
   268   1      14.288123949999999              5.87511809      3.1603798200000002
   269   1      18.323439440000001      5.9047566399999996      3.2278037300000002
   270   1             22.24303695      5.8950889499999999      3.2719653700000002
   271   1      26.312792640000001      5.9169298100000001      3.2343606399999998
   272   1      30.385026700000001              5.82461684      3.2391737300000001
   273   1      32.434437469999999      9.3269633400000007      3.2037725199999998
   274   1      4.0606814199999999      9.3740445500000007      3.1943576299999998
   275   1      8.2164318499999993      9.3071051600000008      3.3015008899999998
   276   1      12.288501419999999      9.3217315700000007      3.1405650299999999
   277   1               16.323736              9.42353168      3.2991480800000001
   278   1              20.3691402      9.3342089099999992      3.2795745799999998
   279   1      24.387937480000002      9.4154988999999993      3.2734234500000001
   280   1      28.382504610000002      9.3043439400000008              3.23425312
   281   1      2.0748905500000001              12.8290924      3.2326022700000001
   282   1      6.2459694900000002      12.794822780000001      3.1943168200000001
   283   1             10.09618555      12.880501819999999      3.3545103200000002
   284   1             14.32610133             12.86340002      3.2231750699999999
   285   1      18.327223350000001             12.96301289      3.2429954400000001
   286   1      22.346083629999999      13.004971980000001      3.1869261099999999
   287   1      26.460885810000001             12.90179361      3.3390833899999999
   288   1             30.38242837             12.85575991      3.2886936200000001
   289   1              0.04051163      16.428543019999999      3.2331499500000001
   290   1      4.0462584599999998      16.420737689999999      3.2616685300000001
   291   1      8.1414960399999998      16.385801789999999      3.3038954299999999
   292   1      12.142153459999999      16.462618490000001      3.2622641300000002
   293   1      16.128530319999999      16.469622189999999      3.2260352600000002
   294   1      20.221746270000001      16.359504399999999      3.2041620900000001
   295   1             24.31215894      16.503474539999999      3.2826568100000002
   296   1      28.457084420000001             16.49157623      3.2904664600000002
   297   1              2.11615127      19.977118610000002      3.2023615699999999
   298   1      6.0723825900000001      19.842254709999999      3.3747921399999998
   299   1      10.183051069999999             19.94204877      3.2570857200000001
   300   1      14.331526520000001      20.014709239999998              3.28260117
   301   1      18.265625249999999      20.019083179999999      3.3060878100000002
   302   1      22.289906439999999      19.979323229999999               3.2068751
   303   1      26.329678850000001             19.89570887      3.2611210900000001
   304   1      30.557767399999999      19.992860180000001      3.2485937200000001
   305   1    0.034301940000000003      23.447992500000002      3.3402321700000002
   306   1      4.0855666099999999             23.52673965      3.2454407500000002
   307   1      8.2456168699999992             23.42887189      3.2505227799999998
   308   1      12.110804679999999      23.435434050000001      3.2957973699999998
   309   1             16.17414368      23.579291189999999      3.2028235600000001
   310   1      20.272785760000001             23.48920961      3.1300099800000001
   311   1      24.360726849999999             23.45516984      3.2205632099999999
   312   1             28.43502939      23.354869570000002      3.2765777100000002
   313   1              1.98592356      26.888767739999999      3.3601254900000002
   314   1               6.0719056      26.950616969999999      3.3385813899999999
   315   1      10.124548450000001      27.063534570000002      3.2430022699999999
   316   1             14.24387228              26.9677446              3.19340191
   317   1      18.377280880000001             27.06649359      3.2214495599999999
   318   1      22.193004569999999      27.065571330000001      3.3332990300000001
   319   1      26.392844199999999      26.879109589999999      3.2609584100000002
   320   1             30.43533231      26.816425509999998      3.1559290099999999
   321   1      32.409559790000003   0.0089578799999999997      4.1153199100000002
   322   1      4.1138012000000002    0.097710099999999994      4.1661283200000003
   323   1      8.0925747799999996     0.15295051000000001      3.9490146799999999
   324   1             12.22217831             28.01430861      4.0843048399999997
   325   1             16.27021963      28.076712860000001      3.9657635199999999
   326   1      20.247458779999999     0.23171180999999999      4.0293082299999998
   327   1      24.426074239999998      28.045301039999998      4.0765946399999997
   328   1             28.44840177    0.040165810000000003      4.1530874000000004
   329   1      2.0819007599999999      3.4597314400000001      4.0522514899999997
   330   1      6.0006321700000003      3.5336676699999998              4.03768466
   331   1      10.230203749999999      3.5192475600000002      4.0380952199999998
   332   1             14.27993399      3.5516851200000001      4.0452952199999999
   333   1      18.272128850000001              3.70060856      4.0973724499999999
   334   1             22.38454539      3.6595089399999998      4.1690751300000004
   335   1      26.390401010000001      3.5464351999999999      4.0914760599999997
   336   1      30.495111699999999      3.5362610999999999      4.0782370600000002
   337   1              0.03014379              7.04777495      4.1858968499999998
   338   1      4.0317566300000003      6.9984798000000001      4.0433776000000003
   339   1      8.1720073899999992      6.9917630600000003      3.9803011000000001
   340   1      12.286609329999999      7.0109571700000002      3.9910713599999998
   341   1      16.295227300000001      7.0327496500000004      4.0827427700000003
   342   1             20.32585692      6.9428228399999998      4.0715862700000001
   343   1      24.309628539999999      7.0817314600000003      4.0634299199999999
   344   1             28.38591255              7.03600958              4.10914278
   345   1      2.0314385399999999             10.47093857      4.1055043900000001
   346   1      6.1397210900000001      10.572800989999999      4.0576002200000003
   347   1      10.262406520000001      10.432080150000001      4.0815018600000004
   348   1      14.286301229999999             10.52859758      4.0156675999999996
   349   1      18.417951949999999      10.472773610000001      4.0083026500000001
   350   1      22.354087230000001             10.60669964      3.9542499499999999
   351   1              26.4743408               10.453813      4.0570548000000004
   352   1             30.41413489      10.467739119999999      3.9837131299999999
   353   1      32.460936459999999             13.93461499      4.1328650700000003
   354   1      4.1734451899999998             14.15120125      3.9686478100000002
   355   1      8.1815276800000003             14.17110652      4.1239690199999997
   356   1              12.2303909             14.02118387      4.0703762499999998
   357   1             16.24500037             14.09390395      3.9204566399999998
   358   1      20.366931319999999      14.025290500000001      4.0278064200000001
   359   1      24.518534330000001      14.044608780000001                4.106071
   360   1               28.341479              14.0181877              4.18520308
   361   1               2.1159634      17.560347530000001      4.0428142999999999
   362   1      6.0769968199999997      17.551077419999999      3.9896799299999999
   363   1      10.078085270000001      17.562040620000001      3.9810455299999998
   364   1      14.126363899999999      17.636263270000001      4.0864870199999999
   365   1      18.215722329999998      17.607125780000001              4.07481749
   366   1      22.236991069999998      17.525687779999998      4.0678266900000004
   367   1      26.296060820000001      17.543810109999999      4.0995694199999999
   368   1      30.433941229999999      17.570759280000001      4.1097891000000004
   369   1    0.043977269999999999      21.098729670000001      4.1114123999999999
   370   1      4.2184922900000004      21.151339249999999              4.17951491
   371   1      8.0313750899999992      21.070557480000002      4.0030768099999996
   372   1             12.19757151      21.050050039999999      4.0707658499999999
   373   1      16.234124059999999             21.23347004      4.1492651900000004
   374   1             20.22515147      21.128273350000001      4.1372701599999999
   375   1              24.3654461      21.182717060000002      4.1231810700000002
   376   1      28.468399959999999      21.082523869999999      4.0864945800000001
   377   1              2.02217526      24.611475769999998      4.1651547300000002
   378   1      6.1034170100000003      24.766057929999999      4.0594474900000002
   379   1             10.19468715             24.74772858      4.0833633599999999
   380   1             14.11803009      24.641821119999999      4.0274747700000004
   381   1      18.227935729999999             24.49430705      3.9533521399999998
   382   1             22.39624594      24.553962640000002              3.96174845
   383   1             26.42722977      24.490295540000002              4.15738845
   384   1      30.448992430000001      24.495902279999999      4.0216209599999999
   385   1      2.0737745300000001      1.1818455800000001      5.1027570500000001
   386   1      6.0499346300000001      1.2543714699999999      4.9951113300000003
   387   1      10.205942240000001      1.1999595700000001      4.8653532100000003
   388   1             14.23348111              1.21589809               4.8735567
   389   1      18.256121180000001      1.2357252400000001      4.7920555299999998
   390   1      22.399361519999999      1.2138936899999999      4.8756560499999999
   391   1      26.351293800000001               1.1775152              4.99500967
   392   1      30.528985729999999              1.18981687      4.9648857900000003
   393   1              0.01030346      4.7360360200000002      4.9308018699999998
   394   1      4.0175207500000001      4.7404843300000001              4.97759223
   395   1      8.1503117500000002      4.7006355800000001      4.9302339999999996
   396   1      12.185176609999999      4.5822760300000001      4.9321767699999999
   397   1      16.217821399999998      4.6943831400000002      4.8752216700000002
   398   1             20.45806297      4.8028803699999996      4.9101881900000004
   399   1      24.324759279999999      4.6586192999999998      4.9949330300000003
   400   1      28.343460749999998      4.7410610399999999      4.8273214199999996
   401   1      2.1099101299999998      8.2169822499999992      5.0454688599999997
   402   1      6.0497542099999997      8.1684524300000003      4.7871997899999998
   403   1             10.18142361      8.1894321100000003      4.9049679099999999
   404   1             14.30950307      8.1742324699999998      4.8776994499999997
   405   1      18.368947389999999      8.1186087600000008      5.0344154200000002
   406   1      22.440337299999999      8.2216851399999999              5.04433094
   407   1      26.385703920000001               8.1563336      4.9699173700000001
   408   1      30.525046710000002      8.1415295200000006      4.8256482800000002
   409   1      32.441303849999997             11.68567193      4.9175976199999996
   410   1      4.1656399000000004      11.775874229999999      4.8956446900000001
   411   1      8.3038893700000003      11.718709459999999      4.9464854100000002
   412   1             12.25891216              11.5582595      4.9422444600000004
   413   1      16.340463629999999      11.700273559999999      4.8316703900000002
   414   1             20.29080085              11.7786969      4.9678684899999999
   415   1      24.373357760000001             11.58698483      4.8852092499999999
   416   1      28.527469889999999             11.63188997      4.9427665999999997
   417   1      2.1035502699999999             15.19059152               4.8615252
   418   1      6.1249473500000002      15.256942049999999      4.9133221899999997
   419   1      10.187911980000001             15.27363209      4.9847721600000003
   420   1      14.163604019999999             15.13794105      4.7979191500000002
   421   1      18.206624529999999      15.210937019999999      4.7564695800000001
   422   1             22.37420199             15.23854264      4.9384604999999997
   423   1      26.462994729999998             15.26421088      5.0035010399999997
   424   1      30.505983019999999      15.194643320000001      5.0690592499999996
   425   1    0.097933740000000005      18.821454450000001      4.9404014900000002
   426   1      4.1313705499999998             18.74574166      4.9242905600000002
   427   1      8.1709023199999997      18.779966399999999      4.9377178900000001
   428   1      12.244074619999999             18.81080682      4.9377213500000003
   429   1      16.258551270000002      18.810854129999999              4.96234734
   430   1      20.202162049999998      18.757259999999999      4.9415712699999998
   431   1      24.255109600000001      18.823196459999998      4.8861477999999998
   432   1             28.34589214      18.731050629999999      5.1381412299999996
   433   1              2.13471783      22.278786050000001      4.9098650700000004
   434   1      6.1312433300000002      22.399938240000001      4.9203107499999996
   435   1             10.13061959      22.215914680000001      4.8158877100000002
   436   1              14.3149719      22.322234949999999      4.9688238299999998
   437   1      18.281738959999998              22.2414597      5.0547338699999997
   438   1             22.16528302      22.297749799999998      4.9056848200000003
   439   1      26.443003300000001      22.245196320000002      4.9141022100000002
   440   1      30.450380209999999      22.287201339999999      4.9313415300000001
   441   1      32.343184440000002      25.643259390000001      4.9838780399999996
   442   1      4.1045263199999997             25.87390521      4.9888353399999996
   443   1      8.1570950900000003      25.795955249999999      4.9285951499999996
   444   1      12.142273810000001      25.775304250000001      4.9766503799999997
   445   1             16.23231938             25.79147875      4.9576936099999998
   446   1      20.313481299999999      25.736289230000001      4.8212739100000004
   447   1      24.357808299999999      25.803715409999999      4.8666305799999998
   448   1      28.377783950000001      25.752404640000002      4.8898435999999998
   449   1      32.443515900000001              2.40523883      5.8638710999999999
   450   1      4.0313304900000002      2.4035504400000001      5.8247742899999997
   451   1      8.1789935600000003      2.4495322700000002      5.7109252000000001
   452   1             12.18505087              2.32772567      5.6719348900000002
   453   1             16.26722449      2.3350362800000002              5.80945482
   454   1      20.350314900000001      2.4934824600000001      5.6364680199999997
   455   1             24.31334433      2.3482153800000001      5.7972088900000003
   456   1      28.455563340000001      2.3705607799999999      5.7502799400000004
   457   1      2.0286418300000002      5.8803157800000001      5.8273806400000003
   458   1      6.1629115499999996      5.8288290399999996              5.59707461
   459   1      10.148609390000001      5.8183568299999999      5.7568999400000003
   460   1      14.260868779999999      5.9446890400000001      5.6908378199999996
   461   1             18.27826073      5.8204349799999999      5.7038154099999998
   462   1      22.361016880000001      5.9371784300000003      5.7345233899999997
   463   1      26.346865739999998      5.7951197199999998      5.6699195700000002
   464   1             30.39570664      5.9512350400000003      5.7445500899999997
   465   1    0.071300420000000003      9.3684852799999998      5.7199553999999999
   466   1      4.0512406199999997      9.5969250899999992      5.6247591200000002
   467   1      8.1767005600000005      9.4006048500000006      5.7957845800000003
   468   1      12.215545390000001      9.2513944299999995              5.61984409
   469   1      16.300828769999999      9.2697817899999997      5.7340376099999997
   470   1      20.339631229999998      9.4503327699999993              5.66318096
   471   1      24.445263650000001      9.2881044700000004      5.8358104300000004
   472   1      28.598703560000001      9.3182188099999994      5.6664533700000002
   473   1      2.1613199700000001             12.90640503      5.7813349399999998
   474   1      6.1763975100000001      12.955535210000001      5.7103721900000002
   475   1             10.27362226             12.90742039      5.7124348100000004
   476   1             14.30906023             12.88474342      5.7261299000000001
   477   1      18.290485539999999             12.92250348      5.6660060300000001
   478   1      22.329229869999999      12.856176619999999      5.8406048799999999
   479   1             26.52322333      12.819317180000001      5.7296068599999996
   480   1      30.423004980000002              12.8829358      5.8141125300000001
   481   1     0.10123070000000001      16.363050860000001      5.6515160099999999
   482   1              4.11846142      16.486772680000001      5.8019290899999998
   483   1      8.1426727700000008      16.440067410000001      5.6870386999999996
   484   1             12.36487157      16.312207130000001      5.7374057399999998
   485   1      16.223639819999999      16.368315030000002      5.5736146399999997
   486   1      20.265163279999999             16.39833411      5.7431906399999999
   487   1      24.389172330000001      16.501746099999998      5.7760467899999997
   488   1      28.548500170000001      16.344735069999999      5.8677920099999996
   489   1              2.17218899      19.904663729999999      5.7240807499999997
   490   1              6.14956324      19.900413159999999      5.8325284499999999
   491   1             10.22568944      19.852437120000001      5.7343033999999999
   492   1             14.27945476      19.901515889999999      5.8059709699999997
   493   1      18.186744340000001             19.91890759      5.8439318800000004
   494   1      22.265278909999999      19.910229009999998      5.7130864600000004
   495   1             26.30397554      19.910712289999999      5.7520103599999999
   496   1               30.367656      20.034750249999998      5.7168603600000001
   497   1     0.14474542000000001             23.32170662      5.7919995000000002
   498   1              4.10446417             23.44708078      5.8244505200000001
   499   1      8.2586898200000007             23.35764575      5.7121911699999997
   500   1             12.11523051      23.444398339999999      5.7396901700000003
   501   1      16.352230509999998      23.456155949999999      5.8131050499999999
   502   1      20.318195670000001      23.491983149999999      5.7339990399999996
   503   1      24.426577160000001      23.405285159999998      5.7384974199999998
   504   1             28.38900014      23.529182909999999      5.7900897799999997
   505   1      2.0980818700000001      26.839386189999999              5.92482124
   506   1      6.1823409399999996      27.029700040000002      5.7402761299999998
   507   1      10.121787940000001             26.95257376      5.6735428399999996
   508   1             14.07018006      26.971859590000001      5.6934449300000001
   509   1             18.27560519      26.866247489999999      5.8035659800000001
   510   1      22.435420059999998             27.03388911      5.7374869999999998
   511   1      26.395130200000001      26.925308709999999      5.8791078299999997
   512   1             30.44013228      27.023063140000001      5.7546201699999999
   513   1              0.02077217             28.05150909      6.6250262600000003
   514   1              4.05676551    0.053948919999999997      6.6505851800000002
   515   1      8.1374302000000007     0.12540525999999999      6.5280829599999999
   516   1             12.10750571     0.11556429999999999      6.5568015500000003
   517   1      16.208499329999999      28.079887970000001      6.4619146900000004
   518   1             20.41171958     0.15091895999999999      6.4950306500000003
   519   1      24.437913269999999    0.078259280000000001      6.5630926499999998
   520   1      28.405334620000001      28.086047820000001      6.6467427299999997
   521   1      2.0226420300000001      3.5772345900000002      6.7688231999999999
   522   1      6.1004957600000003      3.4528391799999998      6.5780059700000004
   523   1             10.13518412      3.5160187000000001      6.6589640000000001
   524   1              14.2183742      3.5648229300000001              6.48876542
   525   1             18.26109391      3.5099002700000002      6.4621030700000004
   526   1      22.281004920000001      3.5058990799999998      6.6217259899999998
   527   1      26.355798010000001      3.5690996799999999      6.4909226200000001
   528   1      30.433323189999999      3.5539891699999999      6.5912414200000002
   529   1      32.439195640000001      7.0048802800000001              6.59716915
   530   1      4.0718617000000004              6.93764337      6.5660736000000002
   531   1      8.2134254700000007      7.0358614599999996      6.4306311200000001
   532   1             12.18630233      6.9061162899999999      6.5589028799999998
   533   1      16.310584049999999      7.0608918599999999      6.4617277499999997
   534   1             20.28770188      7.0022761500000001      6.6137768499999998
   535   1      24.489761519999998      7.0091547600000004      6.4602626499999998
   536   1      28.373748150000001      6.9768864700000002      6.5316092599999998
   537   1      2.0967668800000001      10.636504309999999      6.5837282500000001
   538   1               6.1350311             10.58207232      6.4830862299999996
   539   1      10.266700569999999      10.450832370000001      6.5247140400000001
   540   1             14.34701282             10.64888038      6.5129266399999999
   541   1             18.40768259              10.5918551      6.5212877499999999
   542   1             22.44056599      10.474860290000001      6.5793182300000002
   543   1             26.40345756      10.423410069999999      6.5850803400000002
   544   1      30.510874820000002             10.62055097      6.4874448500000002
   545   1     0.11814587999999999             13.99052972      6.6042059599999998
   546   1      4.1221044500000001      13.998815690000001              6.52995678
   547   1      8.2121455700000006      14.097536099999999      6.6913811699999997
   548   1      12.216421110000001             13.96478482      6.5064806600000002
   549   1      16.334495329999999      14.021077610000001      6.4582995800000003
   550   1      20.333834719999999      14.027879950000001              6.50891851
   551   1             24.40705333             13.98724464      6.6308170200000003
   552   1      28.475276829999999             14.01441369      6.5709755599999999
   553   1               2.0881748      17.550131539999999      6.5911619000000004
   554   1      6.1541902000000004             17.54917197      6.6917811800000004
   555   1             10.31332211      17.414021099999999      6.4600304099999999
   556   1             14.28900471      17.594788569999999      6.5699356699999996
   557   1      18.251482240000001             17.58194061      6.6241472799999999
   558   1      22.407010039999999      17.446898359999999      6.5982068700000003
   559   1             26.44148942      17.621293789999999              6.75458246
   560   1      30.589203869999999             17.66405748      6.5182041399999999
   561   1    0.028009949999999999              21.0393404      6.5002400199999997
   562   1      4.0742407900000002      21.210918599999999      6.6090553200000004
   563   1      8.2501151099999994             21.09279081      6.4210170700000004
   564   1             12.09610756             21.08889258      6.6490769900000002
   565   1             16.28181103      21.187987840000002      6.6146828500000003
   566   1      20.258478539999999      21.070838729999998      6.5778396800000003
   567   1             24.31749984      21.107505329999999      6.5903666599999999
   568   1      28.399025219999999      21.120461420000002      6.6192781700000003
   569   1      2.0070909299999999              24.6165111      6.6144853799999996
   570   1      5.9995459799999997             24.63174441              6.59589464
   571   1             10.09580624      24.605877549999999      6.5604473199999997
   572   1              14.1851518      24.607662479999998      6.5859897700000003
   573   1      18.283760600000001      24.611900519999999      6.6040397999999998
   574   1             22.35700083      24.697044000000002      6.4068629799999997
   575   1             26.34619056      24.538220819999999              6.68276659
   576   1      30.400354490000002             24.57115087      6.4608774799999997
   577   1      1.9845386599999999      1.2017867200000001      7.6901822299999996
   578   1              6.10989966               1.1970235      7.4981394000000003
   579   1             10.14873182              1.19603141      7.4397731900000004
   580   1             14.25091913      1.1800190800000001              7.58475842
   581   1             18.22558089      1.1710525599999999      7.4466553800000002
   582   1      22.294660369999999              1.29117419      7.4527023100000003
   583   1               26.415647      1.2888774700000001      7.4505781400000002
   584   1             30.47281774              1.17730483      7.5506252199999997
   585   1      32.464206740000002              4.70702833      7.6497955700000002
   586   1              4.02651614      4.7777078900000003      7.6113806999999998
   587   1      8.1747723200000006      4.6797448399999997      7.5522374799999996
   588   1             12.25693392      4.7563666500000004      7.5963264800000001
   589   1      16.338644039999998      4.7721014999999998      7.5135005000000001
   590   1             20.27326411      4.7110584900000001      7.5567286300000003
   591   1      24.507189790000002      4.6019289399999996      7.7005511899999997
   592   1      28.382072730000001      4.7669739299999998      7.4381182399999997
   593   1      2.0900691400000002      8.1503942499999997      7.5085121700000004
   594   1      6.0578843999999998      8.1498479600000007              7.41010583
   595   1             10.14566913      8.1545877999999998      7.5886366799999996
   596   1      14.335807040000001      8.2690362799999999      7.3775625900000001
   597   1             18.27725908      8.3742158900000003      7.4557880299999999
   598   1             22.46766642      8.2351162500000008              7.55455846
   599   1      26.416647709999999      8.0703365300000005      7.4839381400000002
   600   1      30.466523899999999      8.2976911199999996      7.2578328299999999
   601   1     0.12243527999999999      11.764240109999999      7.5866597000000002
   602   1      4.2151855999999999             11.62484989      7.3465217999999997
   603   1      8.1558139399999998             11.68126706              7.42487137
   604   1             12.22541816      11.630682419999999      7.5155612700000001
   605   1             16.36477382      11.735835850000001      7.2872229700000002
   606   1             20.34976984             11.75486862              7.65238291
   607   1      24.337233860000001      11.646580070000001      7.5199929799999996
   608   1      28.526064309999999             11.58273148      7.4526711700000003
   609   1              2.19576445      15.209438840000001      7.4820163800000001
   610   1      6.1364993800000001             15.27363289      7.5868440599999998
   611   1             10.27686452             15.31034137      7.6500944500000001
   612   1             14.25147758             15.16408438      7.2856087199999999
   613   1      18.266652669999999      15.214177449999999      7.5016104400000003
   614   1      22.509184309999998             15.12745389      7.5159203100000003
   615   1      26.380382919999999             15.14533438      7.4610696299999999
   616   1      30.529781209999999      15.219212649999999      7.5512394699999996
   617   1     0.11358898000000001      18.734681869999999      7.6021514000000003
   618   1      4.1404431400000004      18.659648900000001      7.5129473200000003
   619   1      8.3025179500000004      18.786797780000001      7.4595842499999998
   620   1             12.25257682      18.701940279999999      7.6143843799999997
   621   1      16.111127679999999             18.74154291      7.5669827700000001
   622   1      20.226853299999998      18.727356790000002      7.5808845600000003
   623   1      24.327019289999999      18.700426490000002      7.4435124799999999
   624   1      28.392968339999999      18.840137070000001      7.6503717699999996
   625   1              2.01539584      22.237834169999999              7.51330776
   626   1      6.1614433999999996             22.32312748      7.5696237799999997
   627   1      10.104818910000001      22.299048290000002      7.4564978499999999
   628   1      14.234523299999999             22.23540393      7.7341987699999999
   629   1             18.37657613      22.258221089999999              7.45643864
   630   1             22.33783326             22.16366339      7.3857116400000002
   631   1      26.338545880000002      22.244367789999998      7.6184258399999996
   632   1      30.437184590000001      22.248234480000001      7.5382686300000001
   633   1    0.019301410000000001      25.756618370000002      7.7047246200000004
   634   1      4.1967514799999996      25.929624570000001      7.5101746399999998
   635   1      8.2883257700000001      25.969142980000001      7.4474016799999996
   636   1      12.173010489999999             25.90755077      7.4416525399999998
   637   1             16.24980699             25.75919786      7.6010130699999996
   638   1             20.32582244             25.85090645      7.3800071699999998
   639   1      24.353557139999999      25.784145179999999      7.5306432000000001
   640   1      28.511304419999998             25.74576776      7.6326226699999999
   641   1      32.360992680000003              2.29661947      8.2396924800000004
   642   1              3.93809867              2.36665415      8.2741745699999996
   643   1      8.0756906599999994              2.46132683      8.1994145199999995
   644   1      12.188084870000001              2.43217325      8.0670688500000001
   645   1             16.27827916      2.3484118999999999      8.3530018899999998
   646   1      20.260192920000001              2.41856867      8.0172747500000003
   647   1      24.235212109999999      2.3191427299999998      8.1346479299999999
   648   1              28.3710165      2.4114335200000001      8.1255981199999994
   649   1                1.899008      5.8175673400000001      8.4418674199999995
   650   1      6.1244902799999998      5.8022381300000001      8.0381487000000007
   651   1      10.167841230000001      5.8163157500000002      8.3207579500000008
   652   1              14.2240936      5.9701160499999997      8.0855251100000007
   653   1      18.262011869999998      5.9798937900000002      8.1297918800000009
   654   1      22.394603159999999      5.8546356299999998      8.3181599100000003
   655   1      26.347211470000001      5.7760615599999996      8.2107419799999999
   656   1      30.266012440000001      5.9753273299999998      8.1159938799999995
   657   1              0.17723537      9.2871239299999999      8.1636509999999998
   658   1      4.0826497399999999      9.3870768800000004      8.0753973999999999
   659   1      8.0640812499999992      9.3171693199999996      8.1490184699999997
   660   1             12.30838644      9.4113311199999998      8.0030248999999998
   661   1      16.306662710000001      9.4754168199999995      8.2963821200000005
   662   1      20.391565910000001      9.3943094699999996              8.03064483
   663   1      24.547404109999999      9.4471515799999999      8.3194108500000006
   664   1             28.41689848      9.2314638599999999      8.2937032399999993
   665   1      2.1269604700000002             12.73727115      8.3411656199999999
   666   1      6.1424461600000004      12.848357719999999              8.10646515
   667   1      10.224715659999999             12.84903153      8.1578423799999999
   668   1             14.33615174      12.805442749999999              8.24877401
   669   1      18.284229530000001             12.94530378      8.1877858400000001
   670   1             22.43599176      12.836409140000001      8.3572909499999994
   671   1             26.50600098      12.727790000000001      8.0865675199999991
   672   1             30.48012834             12.87999303              8.17909972
   673   1     0.17708778999999999      16.381938389999998               8.1211468
   674   1      4.1404405999999998      16.380583529999999      8.2926620900000003
   675   1      8.2731445299999997      16.420530979999999      8.2400842500000007
   676   1      12.416262720000001      16.383185810000001      8.3724042099999991
   677   1      16.267239480000001      16.405122309999999      8.1143826299999997
   678   1      20.373915610000001      16.384201430000001      8.2711743299999991
   679   1      24.468248089999999      16.332243850000001      8.2939442000000003
   680   1      28.423118949999999      16.488199890000001      8.2309885099999995
   681   1              2.17345999             19.82696713      8.1406336499999998
   682   1      6.1109334200000003      20.021646669999999      8.2041036100000007
   683   1             10.25699116      19.947415769999999      8.3339702100000004
   684   1             14.22299941      19.859478190000001      8.4216759299999993
   685   1      18.134301059999999             19.98084674      8.2548271100000008
   686   1      22.323263489999999      19.790390469999998      8.2244442400000004
   687   1      26.206559290000001      19.941204720000002      8.2791630699999992
   688   1      30.484012190000001      19.917169170000001      8.3403134100000003
   689   1   0.0053356999999999996             23.31472441      8.1327725999999991
   690   1      4.1115406200000004             23.60614537      8.2583038999999996
   691   1      8.0889114200000005             23.61013105      8.2517590399999996
   692   1      12.200904209999999             23.41147595      8.0777846600000007
   693   1             16.53943773      23.426435340000001      8.2763001700000007
   694   1      20.448357399999999      23.506515709999999      8.0656363500000001
   695   1      24.348598089999999      23.392985190000001              8.14491722
   696   1      28.412822049999999      23.478666740000001      8.2847834099999993
   697   1      2.0365713300000001      26.815459239999999              8.42729587
   698   1      6.2552415100000003      27.049277369999999      8.1665867799999994
   699   1      10.245094720000001             27.09522024      8.0981493600000007
   700   1      14.215909849999999      26.968023580000001      8.2214035200000009
   701   1      18.329944309999998      27.030384569999999               8.1731441
   702   1      22.293709459999999             27.14513212      8.1150161300000008
   703   1      26.354574060000001             26.96939124      8.1356861400000007
   704   1             30.50039112      26.988041719999998      8.2059756200000002
   705   1              0.10553603      28.060012010000001      9.1367011700000003
   706   1              3.97587541               0.0213291      9.1232370800000009
   707   1      8.2005811699999995               0.1559691      8.8652409900000002
   708   1             12.18312632     0.13545180000000001      8.9105937799999992
   709   1             16.37032795      28.014349750000001      8.8413793300000005
   710   1      20.278503480000001              0.12714865      8.8989226600000002
   711   1      24.455718900000001    0.098365499999999995      9.0197384899999999
   712   1      28.473615909999999    0.053666329999999998      8.9323580200000006
   713   1      1.9045675799999999      3.3494888700000001      9.1316310400000003
   714   1      5.8962627300000001              3.63995186      8.9667897799999992
   715   1             10.22215323      3.4426141800000001      9.1075186099999996
   716   1             14.28503166      3.6711717899999998              8.87387908
   717   1      18.378336170000001              3.65283582      8.9022147900000004
   718   1      22.261072850000001      3.6911821599999999      9.0603960000000008
   719   1      26.330937939999998      3.3671906200000001              8.90415153
   720   1             30.47790183      3.5926584500000001      9.0290103199999994
   721   1      32.335571450000003      7.0615118800000003      8.9514045699999993
   722   1      4.2362426600000003      7.1046092700000001      8.8732389499999993
   723   1      8.1199768100000007      6.9404332799999997              8.89394521
   724   1      12.105460580000001      6.9492277199999997      8.9548993800000005
   725   1      16.263998900000001      7.1594705699999999      8.8499180200000005
   726   1      20.265881230000002      7.1703873900000001      8.9462734400000006
   727   1      24.478374930000001      6.9641514600000001      8.9386007500000009
   728   1      28.055803000000001              6.82816621      9.1632370099999996
   729   1              1.98656575              10.4809041      9.0336858899999992
   730   1      5.9451861700000004      10.572060090000001      9.0472448500000002
   731   1             10.09520627             10.63377989      8.9002833399999997
   732   1             14.12156426             10.42234062      8.8104263100000004
   733   1      18.567753920000001             10.64653328      8.9900660200000004
   734   1             22.34289867             10.47021309      9.0546858700000001
   735   1      26.615060960000001             10.49990249      9.0075085900000005
   736   1      30.478400740000001      10.365356739999999      8.8179068800000007
   737   1    0.097164810000000004      14.176058749999999      8.9724991500000009
   738   1      4.1916433900000003             13.90899428      9.0614475100000007
   739   1      8.2574705300000009             14.05444151      9.0612578399999997
   740   1      12.204071430000001      13.668779239999999      8.9670924599999999
   741   1      16.237156219999999      14.335661699999999      8.9803498800000003
   742   1      20.485564929999999             14.04549325      8.8823121700000005
   743   1      24.516434669999999      13.911961249999999      8.9207915500000006
   744   1      28.352821389999999      14.188748929999999      8.8426588200000005
   745   1      2.0116318500000001      17.507124189999999      8.9183117500000009
   746   1      6.2845541200000001             17.64533226      9.1570481899999994
   747   1      10.407970779999999      17.568826269999999      8.9158645599999993
   748   1             14.54226899      17.647503799999999      9.0782701499999998
   749   1      18.126643739999999      17.685544700000001               9.0596052
   750   1      22.419775080000001      17.494597899999999      8.9953815600000002
   751   1      26.412792540000002      17.720342630000001      9.2237804699999995
   752   1      30.649335350000001      17.564892520000001      8.8124410999999991
   753   1     0.21512840999999999             20.93693343      8.8465585400000002
   754   1      4.1903355299999996      21.201780459999998      8.9179601099999992
   755   1      8.1704980999999997      21.445946150000001      8.7394949000000004
   756   1      12.129049269999999             21.22408072      9.0342850099999996
   757   1      16.188059679999999      21.028293170000001      9.0844412299999995
   758   1      20.350482299999999      20.941486690000001      8.8336330099999998
   759   1      24.211946359999999      21.126975380000001      9.0068360300000005
   760   1      28.327646699999999      21.042953650000001              8.93022092
   761   1              1.97351184      24.479657710000001      9.0903177399999997
   762   1      6.3919534699999998      24.782641779999999      9.0292438399999995
   763   1      9.9679586199999992      24.780202750000001      9.0173678600000002
   764   1             14.32216377      24.561350740000002               8.9652943
   765   1      18.401575040000001             24.72160697      8.9698546300000004
   766   1      22.318357460000001             24.80266675      8.9038515199999999
   767   1      26.340449899999999      24.655292559999999      9.0671897999999995
   768   1      30.582433890000001             24.51441106      8.9464630199999995
   769   2      29.622787500000001      7.9369751199999996      8.9319032600000003
   770   2      31.182557280000001              8.60097573      9.1078372600000002
