N2-dn2-coord-10bar/700K/snapshots/frame-137519/run-000/../data.lammps (written by ASE) 

770 	 atoms 
2  atom types
0.0      32.470343392086264  xlo xhi
0.0      28.120142247150884  ylo yhi
0.0      31.213473999158239  zlo zhi


Atoms 

     1   1      2.0293964600000001      1.1716090800000001    0.023552650000000001
     2   1      6.0880008999999999              1.17168918              0.02556874
     3   1      10.146952280000001              1.17170328    0.025416459999999998
     4   1      14.205754900000001      1.1716496700000001              0.02501565
     5   1             18.26456816              1.17166478              0.02504435
     6   1             22.32338141      1.1716496700000001              0.02501565
     7   1      26.382184030000001              1.17170328    0.025416459999999998
     8   1      30.441135410000001              1.17168918              0.02556874
     9   1  9.1780000000000006e-05      4.6866847900000002    0.025581599999999999
    10   1      4.0587011400000002      4.6866847900000002    0.025581599999999999
    11   1      8.1174961000000003      4.6866290399999997    0.025584639999999999
    12   1             12.17638011      4.6866852999999997              0.02491202
    13   1             16.23517979      4.6866942700000003    0.025006210000000001
    14   1      20.293956519999998      4.6866942700000003    0.025006210000000001
    15   1      24.352756209999999      4.6866852999999997              0.02491202
    16   1      28.411640219999999      4.6866290399999997    0.025584639999999999
    17   1      2.0293964600000001      8.2016395800000002    0.026613040000000001
    18   1      6.0881071599999999      8.2016314300000008              0.02543782
    19   1             10.14701835               8.2017045    0.025156850000000001
    20   1      14.205766049999999      8.2017080900000003    0.024990459999999999
    21   1             18.26456816      8.2017077599999997    0.025091249999999999
    22   1      22.323370260000001      8.2017080900000003    0.024990459999999999
    23   1      26.382117969999999               8.2017045    0.025156850000000001
    24   1      30.441029149999999      8.2016314300000008              0.02543782
    25   1  9.2789999999999998e-05             11.71671873    0.025573410000000001
    26   1              4.05870014             11.71671873    0.025573410000000001
    27   1      8.1176017700000003             11.71668698              0.02497914
    28   1             12.17637068             11.71673069    0.025001590000000001
    29   1      16.235177310000001      11.716730249999999    0.025074039999999999
    30   1      20.293959009999998      11.716730249999999    0.025074039999999999
    31   1      24.352765640000001             11.71673069    0.025001590000000001
    32   1      28.411534549999999             11.71668698              0.02497914
    33   1      2.0293964600000001             15.23167155              0.02525285
    34   1      6.0881728300000004      15.231678799999999    0.025062859999999999
    35   1             10.14698486      15.231762639999999               0.0250786
    36   1             14.20578841             15.23176782    0.025201990000000001
    37   1             18.26456816              15.2317707    0.025149979999999999
    38   1      22.323347900000002             15.23176782    0.025201990000000001
    39   1      26.382151459999999      15.231762639999999               0.0250786
    40   1      30.440963480000001      15.231678799999999    0.025062859999999999
    41   1      32.470327990000001      18.746748629999999    0.024951939999999999
    42   1      4.0588083299999997      18.746748629999999    0.024951939999999999
    43   1      8.1175770200000006      18.746803499999999    0.025222040000000001
    44   1             12.17637459      18.746799750000001    0.025428470000000002
    45   1      16.235159400000001      18.746805200000001    0.025487360000000001
    46   1      20.293976919999999      18.746805200000001    0.025487360000000001
    47   1      24.352761730000001      18.746799750000001    0.025428470000000002
    48   1             28.41155929      18.746803499999999    0.025222040000000001
    49   1      2.0293964600000001      22.261939099999999    0.025844880000000001
    50   1      6.0881419299999999      22.261841799999999    0.025489439999999999
    51   1             10.14692954             22.26176895              0.02551757
    52   1             14.20573559      22.261804690000002    0.025639160000000001
    53   1             18.26456816             22.26178625    0.025640119999999999
    54   1      22.323400729999999      22.261804690000002    0.025639160000000001
    55   1      26.382206780000001             22.26176895              0.02551757
    56   1             30.44099439      22.261841799999999    0.025489439999999999
    57   1  5.6450000000000003e-05      25.776936450000001              0.02613327
    58   1      4.0587364700000004      25.776936450000001              0.02613327
    59   1      8.1175325399999991              25.7767713    0.024734180000000001
    60   1      12.176376469999999      25.776831090000002              0.02545323
    61   1      16.235145939999999      25.776775220000001    0.025273360000000002
    62   1             20.29399038      25.776775220000001    0.025273360000000002
    63   1      24.352759840000001      25.776831090000002              0.02545323
    64   1      28.411603769999999              25.7767713    0.024734180000000001
    65   1  0.00024266000000000001              2.34304215     0.80166565000000001
    66   1      4.0585502699999996              2.34304215     0.80166565000000001
    67   1      8.1157394600000003              2.34454954     0.80169402000000001
    68   1             12.17601256      2.3433829099999999     0.80116898000000003
    69   1      16.235258170000002      2.3433209100000001     0.80090046999999998
    70   1      20.293878150000001      2.3433209100000001     0.80090046999999998
    71   1      24.353123750000002      2.3433829099999999     0.80116898000000003
    72   1      28.413396859999999              2.34454954     0.80169402000000001
    73   1      2.0293964600000001      5.8582218700000004     0.80119762000000005
    74   1      6.0870566899999998      5.8583336700000004              0.80194851
    75   1             10.14649655              5.85853131     0.80121584000000001
    76   1             14.20597894      5.8582938599999999     0.80086840999999998
    77   1             18.26456816      5.8583798500000004               0.8010794
    78   1      22.323157380000001      5.8582938599999999     0.80086840999999998
    79   1             26.38263976              5.85853131     0.80121584000000001
    80   1      30.442079629999999      5.8583336700000004              0.80194851
    81   1  0.00019438999999999999      9.3717771800000005     0.80082061000000004
    82   1      4.0585985400000002      9.3717771800000005     0.80082061000000004
    83   1      8.1175070500000004      9.3725002699999997     0.80149060999999999
    84   1      12.176590020000001      9.3733583399999993     0.80088261999999999
    85   1             16.23512199      9.3733789200000004              0.80106506
    86   1             20.29401433      9.3733789200000004              0.80106506
    87   1      24.352546289999999      9.3733583399999993     0.80088261999999999
    88   1      28.411629269999999      9.3725002699999997     0.80149060999999999
    89   1      2.0293964600000001             12.88692854     0.80220621000000003
    90   1      6.0883212999999996             12.88743848     0.80138414999999996
    91   1      10.147128609999999             12.88859852     0.80085256000000005
    92   1             14.20571782      12.888558189999999     0.80113791000000001
    93   1             18.26456816      12.888409899999999     0.80109381000000002
    94   1      22.323418490000002      12.888558189999999     0.80113791000000001
    95   1             26.38200771             12.88859852     0.80085256000000005
    96   1      30.440815019999999             12.88743848     0.80138414999999996
    97   1              0.00012365      16.403222639999999     0.80145666999999998
    98   1      4.0586692700000002      16.403222639999999     0.80145666999999998
    99   1      8.1174337899999998      16.403825260000001     0.80097196999999998
   100   1              12.1761021             16.40390721     0.80133072000000005
   101   1             16.23503496      16.403861750000001     0.80140014999999998
   102   1      20.294101359999999      16.403861750000001     0.80140014999999998
   103   1      24.353034220000001             16.40390721     0.80133072000000005
   104   1      28.411702529999999      16.403825260000001     0.80097196999999998
   105   1      2.0293964600000001      19.919205120000001     0.80066369999999998
   106   1              6.08752564             19.91894023     0.80122479000000002
   107   1      10.146078839999999             19.91919038     0.80159137999999996
   108   1      14.204993419999999              19.9192584     0.80178742000000003
   109   1             18.26456816      19.919377350000001     0.80194975999999996
   110   1      22.324142899999998              19.9192584     0.80178742000000003
   111   1      26.383057470000001             19.91919038     0.80159137999999996
   112   1      30.441610669999999             19.91894023     0.80122479000000002
   113   1              0.00142012      23.434536609999999     0.80178442000000005
   114   1      4.0573728100000004      23.434536609999999     0.80178442000000005
   115   1      8.1165862000000004      23.433936769999999     0.80182306000000003
   116   1             12.17555218      23.433996919999998     0.80156656000000004
   117   1             16.23465491      23.434040110000002     0.80170828999999999
   118   1      20.294481409999999      23.434040110000002     0.80170828999999999
   119   1      24.353584130000002      23.433996919999998     0.80156656000000004
   120   1      28.412550110000002      23.433936769999999     0.80182306000000003
   121   1      2.0293964600000001      26.949875330000001              0.80297246
   122   1      6.0858208300000003      26.950066320000001              0.80215291
   123   1             10.14598146      26.949241430000001     0.80165810000000004
   124   1             14.20520604      26.948673230000001     0.80131923999999999
   125   1             18.26456816             26.94858318     0.80108193999999999
   126   1      22.323930279999999      26.948673230000001     0.80131923999999999
   127   1      26.383154860000001      26.949241430000001     0.80165810000000004
   128   1             30.44331549      26.950066320000001              0.80215291
   129   1    0.069904980000000005      28.103291309999999              1.34057114
   130   1      4.4314376500000003             28.20039285              1.65569031
   131   1      8.1467748800000006   -0.055485340000000001      1.2696043800000001
   132   1             12.16054761      28.064433910000002      1.4127807800000001
   133   1      16.303660910000001      28.129829650000001      1.2286901299999999
   134   1      20.319017670000001              -0.0187452              1.46699026
   135   1      24.527495989999998   -0.053171219999999998              1.36855226
   136   1      28.504004349999999             28.09161417      1.5247873300000001
   137   1              1.96688138      3.3446834700000001              1.55618031
   138   1      5.9079590900000003              3.56889433      1.2686336199999999
   139   1             10.08887412              3.50760988      1.3947053199999999
   140   1      14.276515720000001      3.5674948500000001               1.2194749
   141   1             18.20453912      3.6347857399999999      1.5318650700000001
   142   1      22.499154749999999      3.3723703199999999      1.4045159199999999
   143   1      26.557703709999998      3.4790642300000001      1.4065471199999999
   144   1      30.460952169999999      3.4780423900000002      1.3997087399999999
   145   1   -0.086303779999999997      7.0006513699999999      1.7529119500000001
   146   1      4.0308883900000003      6.9895983099999999      1.6450150400000001
   147   1      7.9906498600000004              7.10298359      1.2885531699999999
   148   1             12.24202026              7.30493653      1.6457864200000001
   149   1      16.279381239999999      7.0075241999999998      1.4315735199999999
   150   1             20.25448287      7.0549641200000002      1.3343476599999999
   151   1             24.47317056      7.0324682200000002      1.3573345999999999
   152   1             28.35821765      6.9671068099999998              1.64427663
   153   1      2.0335888600000001             10.49651809      1.2810469099999999
   154   1      6.2116558900000003      10.405603490000001      1.5149612699999999
   155   1             10.15938798      10.387214030000001              1.36226409
   156   1             14.27875553      10.588391809999999      1.5714723399999999
   157   1             18.28949179             10.59307886              1.40117143
   158   1      22.289502049999999             10.45872142              1.45487784
   159   1      26.356527410000002             10.62163221      1.4473571000000001
   160   1      30.408162470000001             10.56606569      1.2789012099999999
   161   1    0.074780159999999998             14.09587689      1.4681687000000001
   162   1      4.1447214800000003             14.11031708      1.1164913599999999
   163   1      8.2695268100000003             14.08702345      1.5964621800000001
   164   1      12.136678979999999               14.094033      1.5628875799999999
   165   1      16.372311069999999      14.082499090000001              1.24158703
   166   1      20.379959750000001             14.05837109      1.4820101400000001
   167   1      24.283472010000001             14.08637856              1.35176524
   168   1      28.406872979999999      14.070851210000001              1.64131995
   169   1      1.8470568999999999      17.551928140000001      1.4549344900000001
   170   1      6.0619667100000001      17.583392079999999              1.08643764
   171   1             10.09067793      17.608519050000002      1.5506889100000001
   172   1              14.2599825      17.443605489999999              1.45634482
   173   1      18.299484849999999      17.612433249999999      1.5052178599999999
   174   1      22.231144069999999      17.449248440000002              1.46713648
   175   1      26.182301469999999             17.53823804              1.56364429
   176   1             30.47238574             17.60989326      1.5565855799999999
   177   1      32.602038409999999      20.917446900000002               1.5762117
   178   1      4.1390913600000001      21.079844250000001      1.3792544799999999
   179   1      8.0790767799999994      20.997532379999999              1.35368876
   180   1             12.20543387             21.01481648              1.44566007
   181   1      16.331049050000001             20.99976603              1.27059291
   182   1      20.111557959999999      21.056198630000001              1.42962671
   183   1      24.221604330000002      21.188942430000001              1.59321844
   184   1      28.495339420000001             21.04742177      1.5604527100000001
   185   1      2.0594409800000002      24.652006350000001      1.3878960600000001
   186   1      6.2746058700000003             24.60086523              1.44743424
   187   1             10.12195344             24.51942219              1.42972185
   188   1      14.216823789999999      24.691394710000001              1.47373602
   189   1      18.344725230000002             24.48831753               1.5609773
   190   1             22.26714595      24.489696739999999      1.2662223699999999
   191   1      26.343620640000001      24.491330340000001      1.5315260399999999
   192   1      30.529998769999999      24.595920939999999      1.2623598599999999
   193   1      2.1915602199999999      1.0340547200000001      2.5037660399999999
   194   1      6.2889855299999997              1.41105752      2.3836461600000001
   195   1             10.10907209              1.02944576               2.6263036
   196   1      14.173462320000001      1.2589763599999999      2.4457426500000001
   197   1             18.43402742      1.2053008000000001      2.3513809999999999
   198   1      22.377481540000002              1.27185284      2.4298348000000001
   199   1      26.390383180000001      1.2541296200000001      2.2561158400000001
   200   1      30.602748040000002      1.1086490600000001      2.4262945500000002
   201   1    0.017568609999999998              4.62871407      2.4518686600000001
   202   1      3.8955011000000002      4.6279321299999996      2.4909935600000002
   203   1      8.2580208600000002      4.7927584100000002      2.3236336500000001
   204   1             12.11497473      4.5571703699999997      2.2079580299999999
   205   1              16.2489563      4.7087160600000004      2.3830223199999998
   206   1      20.415838279999999      4.6096402999999997      2.3992375099999999
   207   1      24.261208209999999              4.79711892              2.37204178
   208   1      28.438427130000001      4.7627792900000001      2.5324835399999999
   209   1      2.0470201100000001      8.2476743900000002      2.4166534899999998
   210   1      6.0925078499999996      8.3728749800000006      2.7141698399999998
   211   1      10.128739850000001      8.1189146799999996      2.4939604399999999
   212   1      14.374564400000001      8.1712352799999994      2.4398203299999999
   213   1             18.22547119      8.2985388100000002      2.4124353200000002
   214   1             22.30125439      8.2421645300000002      2.3912408100000002
   215   1             26.61344175      8.2569456399999996              2.39159809
   216   1             30.50467768      8.1567087899999997      2.5108841900000001
   217   1      32.415851799999999      11.700913849999999      2.5381256099999998
   218   1      4.0851164999999998      11.581437360000001              2.30508902
   219   1      8.1101723799999998      11.696559389999999      2.2214159000000002
   220   1      12.184254989999999             11.60082631      2.3998694600000001
   221   1      16.197438569999999             11.89427031      2.4685411300000002
   222   1      20.308563620000001             11.85816457      2.5523301300000001
   223   1      24.222751290000001      11.642814359999999      2.4488620700000001
   224   1      28.265836879999998      11.687181020000001              2.40722857
   225   1      2.1085210399999998             15.29319437      2.3657105999999999
   226   1      6.0750651400000004      15.362354549999999      2.5049807799999999
   227   1             10.22919182             15.27307038              2.64473052
   228   1      14.142124730000001             15.23299374      2.3412316400000002
   229   1             18.29204223             15.37867071               2.4210029
   230   1      22.138119549999999             15.21437308      2.5000657500000001
   231   1      26.435060669999999      15.182088780000001      2.5597160900000002
   232   1      30.356148829999999             15.15477025      2.5854162000000001
   233   1      32.443293670000003      18.717565990000001      2.3343679800000001
   234   1      3.9193158700000001      18.796580460000001      2.3657813299999999
   235   1      8.0919276100000008      18.562293889999999      2.4333362300000001
   236   1      12.170560589999999      18.729202220000001      2.1970856400000001
   237   1      16.100491219999999      18.702723120000002      2.3037939500000002
   238   1             20.27423946             18.64020052      2.4593953100000001
   239   1      24.285502510000001      18.702254809999999              2.42715229
   240   1      28.433127649999999      18.666386079999999      2.3636310599999999
   241   1      2.2365514700000002             22.24073916      2.3655875399999999
   242   1      6.0506430599999996             22.06189084      2.5175702000000002
   243   1      10.273467849999999      22.140390159999999      2.3521305699999999
   244   1             14.28049824             22.25594504      2.4215880300000001
   245   1             18.27399857      22.241665860000001      2.5148763700000001
   246   1             22.21611588      22.179261449999998              2.32887595
   247   1      26.347453460000001      22.165925300000001              2.43670762
   248   1             30.56257124             22.16855528      2.3520995299999998
   249   1      32.437638079999999      25.603972639999999      2.4315761899999999
   250   1      4.2319884300000004      25.907172240000001      2.4262113200000002
   251   1      8.2484834899999999      25.887295649999999              2.27471479
   252   1             12.14516014      25.606427490000002              2.43516157
   253   1             16.17925065             25.67502885      2.4034167499999999
   254   1      20.245024690000001             25.72699338              2.38897914
   255   1      24.221233009999999      25.785099519999999      2.3921504800000002
   256   1             28.49476168      25.569449639999998      2.3668614099999998
   257   1    0.046501760000000003      2.2875915999999998      3.3076773300000002
   258   1      4.1019047899999999      2.3770435999999999      3.3431282900000001
   259   1              8.25686286      2.3770281299999998      3.1671819800000001
   260   1              12.2682486      2.1036008499999999      3.2890864400000002
   261   1      16.252379430000001      2.3746920299999998      3.4018709899999999
   262   1      20.275404850000001      2.3299326100000002      3.2838217900000002
   263   1      24.283012830000001               2.5468373      3.2745981199999998
   264   1             28.44496904      2.2957914100000001      3.2615390999999998
   265   1              1.99926585      5.8619860700000004      3.3554922899999999
   266   1      6.1584361799999998      5.8025623800000004      3.1377655799999999
   267   1             10.16424585      5.7001805799999996      3.3662786699999998
   268   1      14.142506409999999              5.78612897      3.1434870300000002
   269   1      18.282918689999999      5.6782884100000004      3.3329113700000002
   270   1             22.25497352      6.1399197399999998      3.3829597599999999
   271   1             26.39561943      5.9645323499999998      3.2886327999999998
   272   1      30.443589859999999      5.9165453399999999      3.2763929900000002
   273   1    0.063979149999999999      9.4180429799999992      3.4526993899999998
   274   1      4.1869867799999998      9.2986342999999998      3.0566986799999998
   275   1      8.2216660000000008      9.3353867000000008      3.3171720599999999
   276   1             12.18773764      9.2729902200000005      3.2595477599999998
   277   1      16.218681360000001      9.4389957800000008      3.1340336899999999
   278   1             20.26791673      9.3107524500000007      3.2877052500000001
   279   1             24.43720939      9.4356073200000008      3.4053738500000001
   280   1      28.490088320000002      9.5602751599999998              3.36370295
   281   1              2.21210927      13.015738580000001              3.28462626
   282   1      6.2391893400000003             12.94293457      3.4054184599999999
   283   1             10.09833394             12.83866136      3.3127309999999999
   284   1              14.2445033             12.97190486      3.2686190399999999
   285   1      18.329133049999999      13.198693049999999      3.4192467500000001
   286   1      22.359501689999998             12.95126327      3.3799084000000001
   287   1      26.376807249999999      12.756093140000001              3.17810455
   288   1      30.342412639999999      12.901801389999999      3.4270946000000002
   289   1    0.079871310000000001      16.467984399999999      3.4725392199999998
   290   1      4.0963274500000004      16.666389519999999      3.1477207200000001
   291   1      8.0424207200000009      16.317240120000001      3.3051611900000002
   292   1             12.11505813      16.448278210000002      3.2761100700000001
   293   1      16.098936810000001      16.544234150000001      3.4457356699999999
   294   1             20.26798045      16.257262999999998      3.2357468800000002
   295   1             24.19877645      16.276631080000001      3.3888699500000001
   296   1      28.380501809999998      16.322339469999999      3.3705125100000002
   297   1              2.07760576             19.97958036      3.2401604499999999
   298   1      6.0117739600000002      19.828274189999998      3.2498518199999999
   299   1             10.21513888      19.864339659999999      3.2378469299999999
   300   1             14.07506893              19.9446181      3.2717211800000001
   301   1      18.182694550000001      19.999826120000002      3.2366561900000002
   302   1      22.275023900000001             19.94394248      3.2569482000000001
   303   1      26.461530320000001             19.80295048              3.23003331
   304   1      30.365988229999999             19.90626176      3.2867251799999999
   305   1   -0.050805790000000003             23.33787032      3.2291953000000002
   306   1      4.2249924099999996      23.440936130000001      3.2643783000000002
   307   1      8.0357390500000001      23.387830879999999               3.3258337
   308   1             12.35407983      23.274052560000001      3.3067721799999998
   309   1      16.224626310000001      23.202052909999999      3.4288976899999999
   310   1      20.358706909999999      23.383638300000001      3.3553336800000002
   311   1      24.286935799999998      23.304354799999999      3.1443204499999999
   312   1      28.419916140000002      23.306450259999998      3.1923123100000002
   313   1      2.1671112400000001      26.895016779999999      3.2428477400000002
   314   1      6.2173433899999999      26.967033570000002      3.3532865699999999
   315   1             10.30101627             26.80983397      3.4544649500000002
   316   1      14.190722129999999             26.90907125      3.2337800200000002
   317   1      18.301907960000001      26.762633399999999              3.17522254
   318   1              22.2541148      26.964610789999998              3.10282386
   319   1      26.510002589999999      27.059193619999999              3.20306924
   320   1      30.436277530000002      26.797279249999999      3.2176389400000001
   321   1              0.15550611   -0.080369549999999998      3.9723209000000002
   322   1      4.1325786899999999              0.13498489      4.0573626899999997
   323   1      8.2439195699999992   -0.077199569999999995      3.9553858100000001
   324   1      12.360349319999999      27.978208200000001      4.2224000500000001
   325   1      16.053480489999998      28.106287250000001      4.0560124200000001
   326   1             20.34352402      28.094501640000001      4.1577574300000002
   327   1      24.279814210000001             28.28569607      3.9565610900000001
   328   1      28.464313820000001             28.12669228      4.0805981500000001
   329   1              1.93367303               3.5362201      4.0812709900000002
   330   1      6.1642581600000002      3.5948148899999999      4.0841004500000002
   331   1             10.03431752              3.43230674      4.2471242299999998
   332   1             14.29518756              3.52353213      3.8875089900000002
   333   1      18.361688560000001      3.4309422299999999      4.1226430000000001
   334   1             22.23114314      3.6197760899999998      4.0784208099999999
   335   1      26.291148410000002      3.5374903199999999      4.2591128200000004
   336   1             30.63416003      3.5525296900000001      4.0514030200000004
   337   1      32.488056970000002      6.9640808600000002      4.3691612700000002
   338   1      4.0101916600000003      6.9305005199999998      4.1784281600000002
   339   1      8.0660260000000008      6.9879043599999999              3.94086757
   340   1             12.13466693      6.8926730000000003      4.1615922100000002
   341   1             16.19228304      6.9701828700000004      3.9811525300000001
   342   1      20.307632430000002      7.0216368500000002      4.1321148900000004
   343   1      24.251265530000001      7.1137225800000001              4.34720263
   344   1      28.470490040000001      7.0155388900000002      4.0896268100000004
   345   1      2.2393391899999999      10.581040720000001      4.1457122200000001
   346   1               6.2197936      10.651866010000001      4.2167838099999999
   347   1      10.293032269999999      10.445178090000001              4.04988466
   348   1             14.22948323              10.6007275      4.1278042099999999
   349   1             18.34767553             10.45825836      3.7964266699999998
   350   1              22.2242411      10.578207689999999      4.3276902000000002
   351   1      26.305304509999999      10.629587799999999              4.36918586
   352   1      30.511119140000002             10.56826115      4.2482354000000004
   353   1      32.551418550000001      13.722167689999999      4.2899300900000004
   354   1              4.17443016             14.21760344      4.0446511999999997
   355   1      8.1675092300000003      13.925987539999999      4.1687739600000002
   356   1             12.21780064      14.168247040000001      4.2691210899999996
   357   1              16.1305081             14.37825939      4.2955612700000003
   358   1      20.361931859999999             14.17154674      4.1593818799999998
   359   1      24.418136279999999      13.978265439999999      4.1378832699999997
   360   1      28.318467210000001      13.940422480000001              4.19762228
   361   1      2.0374855599999999      17.754461880000001      4.0966454299999997
   362   1      6.0980119200000003      17.607899629999999      4.0060819399999996
   363   1             10.02597458      17.503722329999999      4.1559575799999999
   364   1      14.146053390000001             17.61135861      4.2641623700000002
   365   1      18.398540870000001      17.637955340000001      4.0121593400000002
   366   1             22.20053205      17.394158229999999      4.0857172200000003
   367   1      26.301861150000001      17.587484060000001      3.9707923799999998
   368   1      30.499795349999999      17.554214170000002      4.2123430700000002
   369   1      32.516460240000001      21.041247590000001              4.25747272
   370   1      4.1142563000000001      21.023289649999999      3.9543316000000002
   371   1      8.0565101400000003      20.890781310000001      4.0072225299999999
   372   1      12.153274980000001      21.150317139999999      4.2144325900000004
   373   1      16.203040229999999             20.98107602      4.0752491500000003
   374   1      20.222961290000001      20.938718439999999      4.0268393500000004
   375   1      24.344212550000002      21.062852339999999      4.3615857599999996
   376   1      28.315451079999999      21.044398130000001      4.1399850799999998
   377   1      1.9623858000000001      24.613135920000001      3.7133477899999998
   378   1      6.0581386200000003      24.568976150000001      4.0810266400000001
   379   1      10.068596749999999             24.54681626              4.12555725
   380   1      14.196027880000001             24.39255442      4.2402265400000001
   381   1      18.240467689999999      24.450993369999999      4.2014723500000004
   382   1      22.293670179999999      24.663674319999998      3.8369469399999998
   383   1      26.257726730000002             24.58639398      4.0170733500000004
   384   1      30.456761499999999      24.501860789999999               3.9442428
   385   1      2.0815323000000001      1.1979002700000001      4.9836793000000004
   386   1      6.3226337099999999      1.1578091100000001      5.0759936300000001
   387   1      10.104984610000001     0.91142953999999998      4.8892299000000001
   388   1             14.26541692              1.09767243      4.9246938099999999
   389   1      18.186100490000001              1.13251897      4.8314670900000003
   390   1      22.121417260000001              1.22612766      4.9732896100000001
   391   1      26.283092419999999              1.11241181               4.8625387
   392   1      30.531650559999999      1.1417434099999999      4.8277048999999996
   393   1      32.497362610000003      4.5597338900000004      5.0686076699999996
   394   1      4.1450423799999996      4.5941820399999997      4.9098926399999998
   395   1      8.1147545799999996      4.6494580900000004              4.85848441
   396   1             12.12513352      4.5824771100000001      4.7588359000000002
   397   1             16.21517068      4.5513573699999998      4.8836009799999998
   398   1      20.229967250000001      4.6318590100000003      4.9927910100000004
   399   1      24.129009719999999      4.6889393699999999      5.0887616500000004
   400   1      28.372166010000001              4.61809578      5.0127817800000001
   401   1      1.9798501100000001      8.0513180999999996              4.96574955
   402   1      6.0524729900000001      8.1396232099999999      4.9649327400000001
   403   1              10.1719443      8.1423852799999992      4.9930367899999997
   404   1      14.133663589999999      8.2353951500000004      4.7929404399999997
   405   1             18.23966725      8.2373879599999995      4.8877650099999999
   406   1      22.323963670000001      8.2645484400000004      4.9429004599999997
   407   1      26.436759930000001      8.2014382599999998      4.9367416999999998
   408   1      30.289569709999999      8.1131574900000007      5.0534777000000002
   409   1      32.574814879999998             11.53863441              5.15603722
   410   1      4.1846910499999996      11.728546890000001      4.9592972499999997
   411   1      8.2912791499999994             11.68701594      4.8731919799999996
   412   1      12.396866190000001      11.677442770000001      5.0224736300000004
   413   1      16.284940880000001             11.55703029      4.7551890700000001
   414   1      20.166729419999999      11.655044699999999      4.9668651700000002
   415   1             24.37773997      11.598346940000001      4.9015873799999996
   416   1      28.365227520000001      11.630848970000001      5.0279648699999999
   417   1      2.1375456800000001      15.276473429999999      4.8853399900000003
   418   1              6.05275944             15.17808982      4.9719820800000001
   419   1      10.118145289999999      15.207590079999999      5.0373933400000004
   420   1             14.16142814             15.30982176      5.0390095199999996
   421   1             18.32016299      15.188014470000001      4.7326993899999996
   422   1             22.31377707             15.10607602      5.0447659299999996
   423   1             26.36658126             15.06401685      4.9801219300000001
   424   1      30.553693970000001      15.015977980000001      4.9308901799999996
   425   1   -0.015720029999999999      18.706070359999998      4.9871035700000004
   426   1              4.22713801      18.809564730000002      4.8647606699999999
   427   1      8.2178132000000002      18.714096319999999      5.1276204400000003
   428   1             11.99754574      18.717262470000001      4.9555612199999999
   429   1      16.442623319999999      18.891226440000001      4.9917240300000003
   430   1      20.374315289999998      18.738855040000001      4.8934092700000003
   431   1             24.39296517             18.75635763      4.8569615199999996
   432   1      28.551724459999999             18.79560923      4.8211424000000003
   433   1      1.9838560599999999      22.184602859999998      4.7638168299999997
   434   1      6.0529370299999998             22.22754291      4.8792036699999999
   435   1             10.02482496             22.23998967      5.0424501499999996
   436   1              14.3555084      22.163608400000001      5.1321033399999996
   437   1      18.333509970000001      22.115548919999998      4.9427471499999998
   438   1      22.161904759999999      22.233997800000001      4.9068909300000003
   439   1      26.314985960000001             22.27354862      5.0365321400000003
   440   1      30.404959359999999      22.060695200000001      5.0512729600000004
   441   1   -0.071600330000000004      25.654271699999999      4.9103710899999999
   442   1      4.0423218299999997             25.72397599      4.8360569199999999
   443   1      8.0772180999999996             25.69315975      4.8334186900000002
   444   1      12.327222389999999      25.559262440000001      4.9666856099999999
   445   1             16.28511292             25.63738455      5.0560427199999998
   446   1      20.355912270000001             25.71334293      5.0723660700000002
   447   1             24.28670185      25.735735219999999              4.92053853
   448   1      28.222716040000002      25.747937889999999      4.7921244600000001
   449   1   -0.061625190000000003      2.1382534299999998      5.7856730599999997
   450   1      4.1900270800000001              2.33205996      5.8528205299999998
   451   1      8.3310972599999999      2.3807614400000001      6.0076459900000003
   452   1      12.122197979999999              2.07879777      5.6770893200000003
   453   1      16.196074360000001      2.3457293199999998      5.7494748099999997
   454   1      20.106251390000001      2.2684146799999998      5.9730166000000002
   455   1             24.20399952      2.3030782699999999      5.7547855099999996
   456   1      28.273537709999999      2.2530972199999999      5.6566923100000004
   457   1              1.89563141      5.8395258600000002      5.8493674000000002
   458   1      6.1474465299999999      5.6991140800000002      5.6438777499999997
   459   1      10.050765330000001      5.7045920600000004      5.8678112799999997
   460   1      14.140138609999999              5.50267894      5.6976465999999997
   461   1      18.193471039999999              5.86735703      5.7651178200000004
   462   1      22.218146059999999      5.9683348399999998      5.9539732399999998
   463   1      26.336939130000001      5.9259899899999997      5.7656504799999997
   464   1      30.332390520000001      5.6649216999999998      5.7751830899999996
   465   1   -0.030524590000000001      9.4631161200000005      5.9844948000000002
   466   1      4.0749546600000004      9.5011658200000007      5.7390701100000001
   467   1      8.1033306500000002      9.3433203099999993      5.7414123000000004
   468   1      12.302578430000001      9.1607074799999992      5.6691393799999998
   469   1      16.251748320000001      9.2562156400000006      5.7893475299999997
   470   1      20.182069810000002      9.1140913799999996              5.75722618
   471   1      24.320363530000002      9.3151441699999999      6.0082702599999998
   472   1      28.311546549999999      9.2951913000000008      5.8446168099999998
   473   1      2.2448311599999999             12.89658642              5.93347917
   474   1      6.1038665500000002      12.928756870000001      6.0022096500000002
   475   1             10.26607407             12.85914736      5.8078181999999998
   476   1             14.34869385      12.829033559999999              5.62483325
   477   1      18.346192970000001      12.891847800000001      5.7940124700000002
   478   1             22.25954527             12.73573637      5.8650040700000003
   479   1      26.456817690000001             12.81807953      5.6347946899999997
   480   1      30.352282670000001      12.776842009999999      5.9284172599999998
   481   1   -0.034028549999999998      16.254978510000001      5.7407270600000002
   482   1      4.1503855700000001      16.429940169999998              5.70598034
   483   1      8.0310415000000006      16.196719940000001      5.8618374099999997
   484   1             12.11755597      16.604796319999998      5.8378077199999998
   485   1             16.27348198             16.52175746      5.8208886399999997
   486   1      20.185694980000001      16.521802579999999      5.8503184299999997
   487   1             24.44905962      16.337566249999998      6.0317016399999996
   488   1      28.504909909999999             16.20548522      5.8067931100000001
   489   1      2.0894309600000001      19.891347339999999      5.8306517199999996
   490   1      6.0912883799999999             19.82274031      5.8644998599999996
   491   1             10.15127865      19.916597769999999              5.86971928
   492   1      14.005789869999999             19.82838267      5.8017957999999998
   493   1      18.412893149999999             19.83005429      5.8572083800000003
   494   1             22.27862253      19.952673229999998      5.7355004100000002
   495   1      26.338016490000001             19.80129406      5.5452663400000004
   496   1             30.51387145      19.837217590000002      5.8797570300000004
   497   1             -0.13508243      23.492597740000001      5.5979413300000003
   498   1      4.1392948199999999             23.32383656      5.6561541200000001
   499   1      8.1604220600000001      23.526890420000001      5.8337750599999998
   500   1      12.173122510000001      23.407194149999999      5.7854691300000001
   501   1             16.29962257             23.39251887      5.9886755100000002
   502   1      20.285399250000001      23.522928220000001      5.8369546000000003
   503   1             24.22630097      23.398018889999999      5.7494358600000002
   504   1      28.257492750000001             23.49271212              5.69125105
   505   1      2.1330117500000001              26.9579056      5.6159416999999996
   506   1      6.2017593099999999      26.904134190000001      5.8448012199999999
   507   1      10.261500610000001             26.67497917      5.7716247999999997
   508   1      14.252382150000001      26.803320809999999              5.76717981
   509   1             18.13344412              26.9587173               5.6361295
   510   1             22.21559895      26.880912970000001      5.8359683599999999
   511   1             26.43449991             26.83863667      5.6058202699999997
   512   1      30.592466559999998             27.07714168      5.8439396800000001
   513   1   -0.029729140000000001             28.06066023      6.7562610999999997
   514   1      4.2402872800000004              0.03939111      6.4913384499999998
   515   1      8.1576181600000002      28.250900430000002      6.6350575799999998
   516   1      12.243965770000001             27.88864603      6.7412843999999996
   517   1             16.12624486    -0.16428056999999999      6.5666785499999998
   518   1      20.222992170000001    -0.18946107000000001      6.7988586099999999
   519   1      24.412009699999999      28.035864320000002               6.5443441
   520   1      28.503321960000001      28.083594949999998      6.4216980899999996
   521   1              2.12725418      3.4157648799999998              6.67095708
   522   1              6.19905244      3.5846575999999999      6.7381675799999998
   523   1      10.140374720000001              3.45240802      6.6621105099999998
   524   1             14.16850599              3.23627515      6.5516592899999999
   525   1      18.316028360000001      3.5001428099999998      6.7949762900000001
   526   1      22.086254749999998              3.54852027      6.5989492900000002
   527   1             26.21802301              3.52280769      6.5725963800000002
   528   1             30.45611542      3.4311777299999999      6.6980298500000002
   529   1             -0.22662552      6.9698209100000001      6.7759850200000002
   530   1      4.0277023300000003      7.1112535000000001      6.7126331300000004
   531   1      8.0247874499999998      6.9651515000000002              6.67611241
   532   1             12.18110122      6.8684631500000002      6.6891210599999997
   533   1      16.159082439999999      6.9713722799999998      6.5185076200000003
   534   1      20.273827149999999      6.9906138999999996      6.6372409899999996
   535   1      24.334203370000001              6.95811723      6.8462015300000001
   536   1             28.45307979      7.0720519900000003      6.5928542500000002
   537   1      2.0591513199999998      10.487053380000001      6.6503963800000001
   538   1      6.1525477899999998             10.51579828      6.4976038300000001
   539   1             10.50581291      10.543967049999999      6.4933902400000001
   540   1      14.307091099999999             10.51925486              6.52838165
   541   1             18.30735271             10.48180782      6.5824854000000004
   542   1             22.19458242      10.536150510000001      6.7158727300000001
   543   1      26.328212539999999      10.699322629999999      6.6926786900000002
   544   1             30.39699117             10.31726677              6.61634162
   545   1    -0.16434339000000001      13.999310169999999      6.7723035700000001
   546   1      4.2050755999999998             14.12315931      6.5790047999999999
   547   1      8.2279874300000007      14.071274710000001      6.8578094199999997
   548   1      12.329305829999999      13.958654299999999              6.71642999
   549   1      16.248964229999999              14.2731958      6.8440439900000003
   550   1      20.175116249999999      13.975164019999999      6.4754532999999999
   551   1      24.357945480000001             13.99154379      6.6965547499999998
   552   1             28.57551093             14.01147682      6.5897530499999997
   553   1      2.0185368100000001      17.472857900000001      6.7168944499999998
   554   1      6.2142014699999999      17.490779669999998      6.5570981399999999
   555   1      9.8497426899999994             17.67084796      6.8261912599999999
   556   1             14.21930759      17.577419030000001      7.0656328200000003
   557   1      18.134267869999999      17.622414370000001      6.6388600499999999
   558   1      22.545895699999999             17.51661563      6.4829104099999997
   559   1             26.57133412             17.56622479      6.5961342099999998
   560   1      30.541066860000001      17.488753599999999      6.6500381500000003
   561   1      32.496821799999999      20.968515310000001      6.6496293499999997
   562   1      4.1559787899999998      21.075926580000001      6.5715076799999999
   563   1      8.0495968799999993             21.15776679               6.6693368
   564   1             12.23928386      21.004076980000001      6.8725638699999996
   565   1             16.30376837      21.021868640000001      6.4257293300000002
   566   1      20.288755219999999      21.002259630000001      6.8093730800000003
   567   1              24.3052794      21.043156270000001      6.8560151400000002
   568   1             28.39720449      21.094838790000001      6.6363481499999999
   569   1              1.91429753      24.552571759999999      6.5099436199999996
   570   1      6.1088148000000002      24.748680920000002      6.6281326900000002
   571   1             10.14868897              24.6561588      6.5748710800000003
   572   1      14.182080640000001      24.566160350000001      6.8333004400000004
   573   1      18.197605079999999             24.70971613      6.6477979999999999
   574   1             22.30967914      24.676739919999999      6.7202981099999999
   575   1      26.317256440000001             24.47675697      6.4798950800000004
   576   1      30.426179990000001      24.493512760000002      6.5531924100000003
   577   1      2.0449500700000001              1.19600737              7.47628409
   578   1      6.2875573400000002      1.2388949199999999      7.6478437899999996
   579   1      10.397787900000001      1.1297690899999999      7.5961056600000001
   580   1             14.18157428     0.91924037000000003      7.5148839900000004
   581   1             18.04099823      1.0224991000000001      7.4153592499999998
   582   1      22.174419669999999     0.91408489999999998              7.37622468
   583   1             26.42903343      1.0823889499999999      7.3531059000000001
   584   1      30.352235109999999      1.2848095799999999      7.3403391999999998
   585   1             32.47467065      4.5980523399999997      7.5985530199999998
   586   1      3.9921062300000001      4.8350986799999998      7.6302732400000002
   587   1              8.06618089              4.65737091      7.6244480299999999
   588   1      18.434439189999999     0.99350499000000003      9.8181480899999993
   589   1      16.138315970000001      4.6592502900000001      7.2618132700000002
   590   1      20.251352539999999              4.64156821      7.6306002599999996
   591   1             24.16339885      4.5786482800000003      7.6297164300000002
   592   1      28.434755580000001      4.6285101199999996      7.4119020600000001
   593   1              2.04974064      8.0565202100000004      7.3574762700000003
   594   1              6.18263798      8.2639348899999998      7.5052022699999998
   595   1             10.26027069      8.0964578399999994      7.5807638400000004
   596   1             14.29088501              7.93512284      7.3342561699999997
   597   1      18.156100240000001      8.1556851399999992      7.5642062399999999
   598   1      22.247141859999999              8.30962639              7.35934869
   599   1      26.500262070000002      8.2846792399999991      7.4818480300000001
   600   1      30.372302000000001      8.0292539299999994      7.5968344099999996
   601   1      32.483147090000003             11.65537084      7.9656409500000001
   602   1      4.1165513799999998             11.80044925      7.5216153600000002
   603   1      8.4017368999999995             11.56167357      7.3485610299999999
   604   1             12.44045238      11.740100780000001      7.6689440600000003
   605   1      20.009170650000002      9.2542209199999999      8.3171716500000006
   606   1      20.181974360000002      11.582054210000001              7.76729775
   607   1      24.309605139999999             11.66218304      7.6702460400000003
   608   1      24.281579300000001      9.2860477400000008      8.3940756499999996
   609   1              2.08369209             14.97340133      7.5004129199999996
   610   1      6.1139577300000001      15.185094469999999      7.4372872699999997
   611   1             12.01630213      16.682705219999999      8.4157217200000005
   612   1             14.20916295              15.4450555      7.8283855000000004
   613   1      18.421290379999999             15.21249473      7.5805766200000004
   614   1             22.47490797             15.22745001      7.4265442000000004
   615   1             26.42548159              15.2555093              7.35834308
   616   1              30.5974726             15.26528946              7.75169307
   617   1     0.14302471999999999      18.593444250000001      7.6230313199999999
   618   1      4.2016258100000003      18.717765199999999              7.23981604
   619   1              7.87207817             18.83080095      7.6950189199999999
   620   1             12.05437169      18.942748040000001      7.6855678899999997
   621   1      16.235126220000001      18.850763539999999      7.5057872699999999
   622   1      20.180055169999999      18.454270770000001      7.7603670999999999
   623   1      24.447218230000001      18.847982519999999      7.6345144400000002
   624   1      28.530513429999999      18.864382670000001      7.5473098700000003
   625   1      2.0335972400000002      22.220394089999999      7.1647691299999998
   626   1      6.1375246099999998      22.278934599999999      7.3532106700000002
   627   1             14.16499977              19.6484685      8.3325043099999991
   628   1             14.26439328      22.155526179999999      7.4291900499999999
   629   1      18.262515830000002      22.264960469999998      7.4590628900000002
   630   1             22.24252366      22.221402080000001      7.2188672699999996
   631   1      26.156848629999999      22.282274569999998      7.6636850000000001
   632   1      30.424949720000001             22.33739327      7.4178956100000004
   633   1             -0.14862939      25.612254499999999      7.7036948199999999
   634   1      4.0026341600000004      25.779819719999999      7.1690972300000002
   635   1      8.2397145799999993      25.929636250000001      7.4920331400000002
   636   1             12.07392574      25.510950340000001      7.4276915800000003
   637   1      16.276267690000001      25.889816419999999      7.5879113499999997
   638   1      20.283594709999999             25.66765938      7.6779210600000001
   639   1      24.642103779999999      25.680381830000002      7.5802761399999996
   640   1      28.494444829999999      25.810397479999999              7.11255711
   641   1      4.0656303999999999               7.2112745      9.1335906500000004
   642   1      2.0950651900000001      3.7709457400000002      9.1448731900000002
   643   1      6.3375441300000004      10.858048760000001      9.0749441500000003
   644   1              14.1959538      26.588979940000002      8.3818586800000006
   645   1      10.276159809999999             22.51811326              7.42983277
   646   1      28.054057449999998      26.092666860000001      9.7680887100000007
   647   1      22.173837540000001              5.98674806      8.4587070999999998
   648   1      8.2826817899999998      2.2979565700000002      8.3754745100000001
   649   1              3.94952017      16.451585779999998      8.0752371699999994
   650   1      6.0815734900000002      27.021626220000002      8.2249014299999992
   651   1      22.416351089999999      19.875515149999998      8.1436434099999992
   652   1      18.071977910000001      5.8381388699999999      8.1744340199999996
   653   1      22.260385580000001             12.83209302      8.3681592800000004
   654   1      5.8881259200000002      24.770885270000001      8.7581402300000004
   655   1      24.633826819999999      27.993328649999999      8.9268164599999995
   656   1      8.0932546300000006      23.630366739999999      8.3909394600000002
   657   1             10.26823194             10.23636267      8.9938825799999993
   658   1      16.339294249999998             16.56161238      8.3569454699999994
   659   1      30.716204220000002              10.2917781              9.10091216
   660   1      16.073968570000002      6.6928963599999998      8.9138894499999992
   661   1      28.127982299999999    0.060134050000000001      8.9572903999999998
   662   1      28.481049370000001      2.3831509199999998      8.1793645099999992
   663   1      20.316134980000001      27.757048640000001      9.1653493400000006
   664   1               2.1660846      12.883812499999999      8.4250840100000008
   665   1      10.330233700000001             12.71859246      8.3826396499999998
   666   1      16.245500539999998             21.29292701      8.7702862899999996
   667   1              5.90203743             17.56790668      8.9537281400000008
   668   1      16.263218049999999             11.40615595              7.46718159
   669   1      4.0114541099999999             11.63804934      9.7788301700000009
   670   1      28.300329649999998      6.8611122699999996              9.07236859
   671   1      1.8718273999999999             10.36337516      9.1482126699999995
   672   1      2.4477871499999999      19.987191670000001      8.2081029999999995
   673   1              1.89216239      27.039128900000001      8.0281506199999999
   674   1      2.1977705799999998             17.81646984      9.0795176899999994
   675   1      26.732617000000001      17.834856800000001      8.9575151300000009
   676   1             12.32757653             27.84235189      9.0479497700000007
   677   1      19.996741839999999      6.5298102099999999      9.1248417400000008
   678   1      22.313845130000001      17.723060920000002      9.0076846899999996
   679   1      28.282608239999998      4.5470766300000003      9.6918797800000007
   680   1      28.495508350000001      11.619487530000001      7.5395360599999997
   681   1      1.9807126100000001      5.8114915600000003      8.2956527399999995
   682   1      10.392575880000001      15.264900320000001      7.6784953099999997
   683   1              3.99554484             27.82389878      8.9217904099999998
   684   1      14.306254210000001             10.75778549      9.0080481700000004
   685   1             24.45836877      16.440279270000001      8.4514853599999995
   686   1      18.082613630000001             12.89334352      7.9962255600000001
   687   1             14.50554648             12.91431315      8.1837534200000004
   688   1      22.400957850000001             15.10424658      9.7450228699999997
   689   1      24.381820250000001      21.276560570000001      9.1824546100000006
   690   1              0.32690891      16.348341269999999      8.1812363399999999
   691   1      30.357957389999999      5.8264742099999998      8.3076159199999999
   692   1      16.307221080000001      2.2766170899999998      8.1943162300000001
   693   1      16.238916799999998             14.28153359      9.3624305299999993
   694   1      21.997960460000002      10.273468279999999      9.2780062599999997
   695   1      22.405666629999999      26.862770640000001      8.2328291900000004
   696   1               4.0188419      13.948680489999999      9.3296614499999997
   697   1      8.1602898400000008      7.0359869100000001      9.0402711900000003
   698   1      18.206791519999999      26.893888359999998      8.0727446199999999
   699   1      20.190039890000001      2.0580379999999998      8.4646326999999992
   700   1              16.1527855    0.044568129999999997      9.1592381899999999
   701   1             14.06685888              5.49989566      8.2334321300000006
   702   1             23.89189489              23.5642751      8.3258187100000001
   703   1      22.326824890000001      3.5394391500000002      8.9515900500000001
   704   1      26.501166430000001             20.06619405      8.3611202200000001
   705   1      4.2018320200000003      2.3839913400000001      8.3188348699999999
   706   1      6.3812604999999998      3.7418076199999999      9.1551072500000004
   707   1      12.440063930000001                23.28201      8.3782327799999994
   708   1      20.304657509999998      16.294100709999999      8.3046507999999992
   709   1      22.220417860000001     0.85241856000000005              9.53873864
   710   1      18.471349159999999      20.038189679999999      8.4693835400000008
   711   1      32.608749879999998      8.6694040300000008      8.5125066700000005
   712   1      2.0610633300000001              24.6163463              8.99589061
   713   1             30.34256117              1.08596801      9.7711006200000003
   714   1      4.0894494400000001      23.076664009999998      8.1336506400000008
   715   1    0.048833380000000003      2.1372787899999999      8.3621609699999997
   716   1             10.15860756             19.96440179      8.2328395800000003
   717   1      26.194058120000001      24.493071220000001      9.1202670500000007
   718   1             30.43992222             12.83644224      8.2779189100000004
   719   1      28.190376390000001             13.86512999      8.9850353199999997
   720   1             30.45411442      3.6104562699999998      9.0072544699999995
   721   1      3.8475514799999999      9.5100579700000001      8.0344031200000003
   722   1              10.2822253      24.583065099999999      8.8692385500000004
   723   1              8.16258646      9.3806500800000006      8.0482685600000003
   724   1      8.3438018500000002      12.014138790000001      9.6808740699999998
   725   1      10.563019819999999      5.7041121600000002      8.1494540600000001
   726   1      16.079442369999999      9.0824975600000002      8.5462264799999996
   727   1      16.041565609999999      23.541751550000001      8.2449811299999993
   728   1             26.43042698             12.88516714      8.1086162599999998
   729   1      8.6907148200000002             14.57429855      9.4756853799999998
   730   1      12.205947549999999      4.4517098900000001      7.2131047099999996
   731   1             12.43291857      9.0288165899999999      8.1909653599999999
   732   1      18.236912610000001      10.776873889999999      9.2112654599999999
   733   1      18.307840179999999      17.305334760000001      9.0839976999999994
   734   1             30.47039616      24.683116689999999      8.8514904600000008
   735   1             24.22964941      2.1337060499999998      8.0775702200000001
   736   1      8.0261611300000002      16.201423080000001      8.2042595400000007
   737   1              32.6950669      23.253696479999999      8.3711439399999996
   738   1             28.41948507      9.3391360199999998      8.3712986899999997
   739   1      12.417620790000001             14.15662536              9.01359055
   740   1      26.393168639999999      5.7378026499999999      8.1602054099999997
   741   1      24.475277439999999             13.94133635      9.2968776500000008
   742   1      26.329635320000001      3.0105730500000001      9.0028030399999999
   743   1             17.98797351      8.0719785500000008      9.8467516400000008
   744   1      32.769149929999998      14.005559999999999      9.2591357199999997
   745   1      30.716191769999998      17.592034680000001      9.0341306800000005
   746   1      6.0185693100000002      13.114269159999999      8.4323595400000002
   747   1      9.6908954099999995      17.528549160000001      9.1804366300000009
   748   1      8.0188712800000008      21.077454500000002      8.9131635899999999
   749   1             20.37423368      13.898028740000001              9.04608116
   750   1      26.438816129999999             15.23738848      9.6582100200000003
   751   1      28.580808709999999      21.218362620000001      8.9965023500000001
   752   1      5.9655059899999996             15.18118482      9.8202397099999992
   753   1      5.7037866399999997             19.97808058      8.3045154300000004
   754   1      8.1423012099999994    -0.12678972999999999      9.0459542699999993
   755   1      5.9782696399999997      5.9676299799999999      8.3074101500000008
   756   1      10.243623210000001      27.043510699999999      8.2095184299999993
   757   1             -0.20448964      27.966836690000001      9.1304318000000002
   758   1      26.505860139999999      26.977089500000002      8.0531978800000008
   759   1      28.421471669999999             16.35272548      8.3025916800000008
   760   1      28.276336950000001             23.40072674      8.2373099399999994
   761   1      18.196514730000001      24.633019090000001      8.9035379300000006
   762   1             26.52390381      10.868890540000001      8.9716470800000003
   763   1      10.482534709999999      3.3292063199999999      9.1318216499999991
   764   1      12.557038220000001               2.3189332      8.2695807600000002
   765   1      18.223831929999999      3.6127109900000001      9.1557515600000006
   766   1      20.506973550000001      23.439403339999998      8.3662317900000005
   767   1      30.665506369999999             20.13005257      8.2391138500000007
   768   1      30.177949680000001      27.031065600000002               8.4003885
   769   2              2.97259991      26.375784700000001      9.4340274999999991
   770   2      3.9574901599999999      25.002174400000001      9.0856509299999999
