N2-dn2-coord-10bar/700K/snapshots/frame-66042/run-000/../data.lammps (written by ASE) 

770 	 atoms 
2  atom types
0.0      32.470343392086264  xlo xhi
0.0      28.120142247150884  ylo yhi
0.0      31.213473999158239  zlo zhi


Atoms 

     1   1      2.0293964600000001      1.1716090800000001    0.023552650000000001
     2   1      6.0880008999999999              1.17168918              0.02556874
     3   1      10.146952280000001              1.17170328    0.025416459999999998
     4   1      14.205754900000001      1.1716496700000001              0.02501565
     5   1             18.26456816              1.17166478              0.02504435
     6   1             22.32338141      1.1716496700000001              0.02501565
     7   1      26.382184030000001              1.17170328    0.025416459999999998
     8   1      30.441135410000001              1.17168918              0.02556874
     9   1  9.1780000000000006e-05      4.6866847900000002    0.025581599999999999
    10   1      4.0587011400000002      4.6866847900000002    0.025581599999999999
    11   1      8.1174961000000003      4.6866290399999997    0.025584639999999999
    12   1             12.17638011      4.6866852999999997              0.02491202
    13   1             16.23517979      4.6866942700000003    0.025006210000000001
    14   1      20.293956519999998      4.6866942700000003    0.025006210000000001
    15   1      24.352756209999999      4.6866852999999997              0.02491202
    16   1      28.411640219999999      4.6866290399999997    0.025584639999999999
    17   1      2.0293964600000001      8.2016395800000002    0.026613040000000001
    18   1      6.0881071599999999      8.2016314300000008              0.02543782
    19   1             10.14701835               8.2017045    0.025156850000000001
    20   1      14.205766049999999      8.2017080900000003    0.024990459999999999
    21   1             18.26456816      8.2017077599999997    0.025091249999999999
    22   1      22.323370260000001      8.2017080900000003    0.024990459999999999
    23   1      26.382117969999999               8.2017045    0.025156850000000001
    24   1      30.441029149999999      8.2016314300000008              0.02543782
    25   1  9.2789999999999998e-05             11.71671873    0.025573410000000001
    26   1              4.05870014             11.71671873    0.025573410000000001
    27   1      8.1176017700000003             11.71668698              0.02497914
    28   1             12.17637068             11.71673069    0.025001590000000001
    29   1      16.235177310000001      11.716730249999999    0.025074039999999999
    30   1      20.293959009999998      11.716730249999999    0.025074039999999999
    31   1      24.352765640000001             11.71673069    0.025001590000000001
    32   1      28.411534549999999             11.71668698              0.02497914
    33   1      2.0293964600000001             15.23167155              0.02525285
    34   1      6.0881728300000004      15.231678799999999    0.025062859999999999
    35   1             10.14698486      15.231762639999999               0.0250786
    36   1             14.20578841             15.23176782    0.025201990000000001
    37   1             18.26456816              15.2317707    0.025149979999999999
    38   1      22.323347900000002             15.23176782    0.025201990000000001
    39   1      26.382151459999999      15.231762639999999               0.0250786
    40   1      30.440963480000001      15.231678799999999    0.025062859999999999
    41   1      32.470327990000001      18.746748629999999    0.024951939999999999
    42   1      4.0588083299999997      18.746748629999999    0.024951939999999999
    43   1      8.1175770200000006      18.746803499999999    0.025222040000000001
    44   1             12.17637459      18.746799750000001    0.025428470000000002
    45   1      16.235159400000001      18.746805200000001    0.025487360000000001
    46   1      20.293976919999999      18.746805200000001    0.025487360000000001
    47   1      24.352761730000001      18.746799750000001    0.025428470000000002
    48   1             28.41155929      18.746803499999999    0.025222040000000001
    49   1      2.0293964600000001      22.261939099999999    0.025844880000000001
    50   1      6.0881419299999999      22.261841799999999    0.025489439999999999
    51   1             10.14692954             22.26176895              0.02551757
    52   1             14.20573559      22.261804690000002    0.025639160000000001
    53   1             18.26456816             22.26178625    0.025640119999999999
    54   1      22.323400729999999      22.261804690000002    0.025639160000000001
    55   1      26.382206780000001             22.26176895              0.02551757
    56   1             30.44099439      22.261841799999999    0.025489439999999999
    57   1  5.6450000000000003e-05      25.776936450000001              0.02613327
    58   1      4.0587364700000004      25.776936450000001              0.02613327
    59   1      8.1175325399999991              25.7767713    0.024734180000000001
    60   1      12.176376469999999      25.776831090000002              0.02545323
    61   1      16.235145939999999      25.776775220000001    0.025273360000000002
    62   1             20.29399038      25.776775220000001    0.025273360000000002
    63   1      24.352759840000001      25.776831090000002              0.02545323
    64   1      28.411603769999999              25.7767713    0.024734180000000001
    65   1  0.00024266000000000001              2.34304215     0.80166565000000001
    66   1      4.0585502699999996              2.34304215     0.80166565000000001
    67   1      8.1157394600000003              2.34454954     0.80169402000000001
    68   1             12.17601256      2.3433829099999999     0.80116898000000003
    69   1      16.235258170000002      2.3433209100000001     0.80090046999999998
    70   1      20.293878150000001      2.3433209100000001     0.80090046999999998
    71   1      24.353123750000002      2.3433829099999999     0.80116898000000003
    72   1      28.413396859999999              2.34454954     0.80169402000000001
    73   1      2.0293964600000001      5.8582218700000004     0.80119762000000005
    74   1      6.0870566899999998      5.8583336700000004              0.80194851
    75   1             10.14649655              5.85853131     0.80121584000000001
    76   1             14.20597894      5.8582938599999999     0.80086840999999998
    77   1             18.26456816      5.8583798500000004               0.8010794
    78   1      22.323157380000001      5.8582938599999999     0.80086840999999998
    79   1             26.38263976              5.85853131     0.80121584000000001
    80   1      30.442079629999999      5.8583336700000004              0.80194851
    81   1  0.00019438999999999999      9.3717771800000005     0.80082061000000004
    82   1      4.0585985400000002      9.3717771800000005     0.80082061000000004
    83   1      8.1175070500000004      9.3725002699999997     0.80149060999999999
    84   1      12.176590020000001      9.3733583399999993     0.80088261999999999
    85   1             16.23512199      9.3733789200000004              0.80106506
    86   1             20.29401433      9.3733789200000004              0.80106506
    87   1      24.352546289999999      9.3733583399999993     0.80088261999999999
    88   1      28.411629269999999      9.3725002699999997     0.80149060999999999
    89   1      2.0293964600000001             12.88692854     0.80220621000000003
    90   1      6.0883212999999996             12.88743848     0.80138414999999996
    91   1      10.147128609999999             12.88859852     0.80085256000000005
    92   1             14.20571782      12.888558189999999     0.80113791000000001
    93   1             18.26456816      12.888409899999999     0.80109381000000002
    94   1      22.323418490000002      12.888558189999999     0.80113791000000001
    95   1             26.38200771             12.88859852     0.80085256000000005
    96   1      30.440815019999999             12.88743848     0.80138414999999996
    97   1              0.00012365      16.403222639999999     0.80145666999999998
    98   1      4.0586692700000002      16.403222639999999     0.80145666999999998
    99   1      8.1174337899999998      16.403825260000001     0.80097196999999998
   100   1              12.1761021             16.40390721     0.80133072000000005
   101   1             16.23503496      16.403861750000001     0.80140014999999998
   102   1      20.294101359999999      16.403861750000001     0.80140014999999998
   103   1      24.353034220000001             16.40390721     0.80133072000000005
   104   1      28.411702529999999      16.403825260000001     0.80097196999999998
   105   1      2.0293964600000001      19.919205120000001     0.80066369999999998
   106   1              6.08752564             19.91894023     0.80122479000000002
   107   1      10.146078839999999             19.91919038     0.80159137999999996
   108   1      14.204993419999999              19.9192584     0.80178742000000003
   109   1             18.26456816      19.919377350000001     0.80194975999999996
   110   1      22.324142899999998              19.9192584     0.80178742000000003
   111   1      26.383057470000001             19.91919038     0.80159137999999996
   112   1      30.441610669999999             19.91894023     0.80122479000000002
   113   1              0.00142012      23.434536609999999     0.80178442000000005
   114   1      4.0573728100000004      23.434536609999999     0.80178442000000005
   115   1      8.1165862000000004      23.433936769999999     0.80182306000000003
   116   1             12.17555218      23.433996919999998     0.80156656000000004
   117   1             16.23465491      23.434040110000002     0.80170828999999999
   118   1      20.294481409999999      23.434040110000002     0.80170828999999999
   119   1      24.353584130000002      23.433996919999998     0.80156656000000004
   120   1      28.412550110000002      23.433936769999999     0.80182306000000003
   121   1      2.0293964600000001      26.949875330000001              0.80297246
   122   1      6.0858208300000003      26.950066320000001              0.80215291
   123   1             10.14598146      26.949241430000001     0.80165810000000004
   124   1             14.20520604      26.948673230000001     0.80131923999999999
   125   1             18.26456816             26.94858318     0.80108193999999999
   126   1      22.323930279999999      26.948673230000001     0.80131923999999999
   127   1      26.383154860000001      26.949241430000001     0.80165810000000004
   128   1             30.44331549      26.950066320000001              0.80215291
   129   1      32.390327980000002      27.971989969999999              1.62318981
   130   1      4.1020834800000001               0.1034998      1.4952909999999999
   131   1      8.1586265699999991             -0.01538962      1.5380214999999999
   132   1      12.105071929999999      28.226401859999999              1.31549542
   133   1      16.130981129999999      28.036422529999999      1.4241042699999999
   134   1      20.405806590000001   -0.024476100000000001              1.44493681
   135   1      24.367024870000002      28.200302489999999      1.5869392600000001
   136   1             28.52315703  -0.0056055100000000002      1.5289108199999999
   137   1      2.0704688400000002      3.4779033799999999      1.4579702400000001
   138   1              6.20835034      3.5132592800000002              1.47661383
   139   1             10.17602467      3.5230001299999998      1.3927686699999999
   140   1      14.224929550000001      3.4641516399999999      1.6395738399999999
   141   1             18.19529258      3.4893247399999998              1.40847155
   142   1      22.120834160000001      3.4765072799999999      1.6083750999999999
   143   1             26.27308622      3.5930576599999999      1.2960566200000001
   144   1      30.394071719999999              3.53066076              1.55457622
   145   1  -0.0093085600000000004      6.9984108200000001               1.7615661
   146   1      4.0354357900000002      7.1453663199999999      1.3928277899999999
   147   1      8.0873413200000002      7.1259078799999997      1.5183722200000001
   148   1      12.289701409999999      7.0073669000000001      1.5439949900000001
   149   1      16.244880729999998      7.0302563600000001      1.4924724899999999
   150   1      20.194340440000001      7.1923307799999998      1.5037934500000001
   151   1      24.421290890000002              7.09914427      1.5412604599999999
   152   1      28.467865150000002      6.9676601700000003      1.3470530599999999
   153   1      1.8827624199999999      10.573489540000001      1.3987028399999999
   154   1      6.0205887100000002      10.488144289999999      1.2934419399999999
   155   1             10.13859581             10.44645081      1.4656372200000001
   156   1             14.19021837      10.453571459999999              1.36874144
   157   1             18.18954201      10.648185809999999              1.59333704
   158   1      22.428432059999999      10.470806400000001      1.5923663400000001
   159   1      26.449750999999999      10.635063600000001              1.46124648
   160   1      30.381337609999999      10.597931880000001              1.46868737
   161   1             32.53440372      14.002565450000001      1.4361271900000001
   162   1              4.11647534             14.22534931              1.65547154
   163   1      8.1289587900000004             14.10679635      1.5163147800000001
   164   1             12.42014782      14.258690420000001              1.58955074
   165   1      16.243846609999999      14.143818469999999      1.4298367599999999
   166   1      20.196893230000001             13.84076527      1.3984925399999999
   167   1      24.440309280000001             14.09731844              1.34404429
   168   1             28.37681336      14.051866860000001              1.32467709
   169   1      2.0859159599999999      17.460723999999999      1.6169664800000001
   170   1      6.0464007100000003             17.44920797      1.5165089700000001
   171   1      10.330099629999999      17.619906520000001      1.5358830699999999
   172   1      14.300695879999999      17.620852530000001      1.5160984799999999
   173   1      18.339840550000002      17.719461549999998              1.56721925
   174   1      22.315212769999999      17.490887799999999      1.5876579399999999
   175   1      26.526688870000001      17.501877319999998      1.2819130999999999
   176   1      30.426137959999998             17.53888718              1.43675514
   177   1      32.525702150000001      21.063111679999999      1.6464002600000001
   178   1      4.1188439800000003      20.971250130000001      1.3957821699999999
   179   1      8.1449038199999997      21.023396099999999              1.52087828
   180   1             12.24741377      21.178855949999999      1.4456403200000001
   181   1             16.34726702      21.100069690000002              1.59494913
   182   1             20.36192239             20.94934606              1.40732719
   183   1             24.37290338      21.010877579999999      1.4769565499999999
   184   1      28.422157080000002      21.072816840000002              1.49456945
   185   1               1.9596654      24.607313919999999      1.5335521299999999
   186   1              6.23883002      24.662603539999999      1.3808779600000001
   187   1      10.220545449999999      24.557503860000001      1.5283299400000001
   188   1      14.280881150000001      24.467884900000001              1.31600932
   189   1             18.32279698      24.710419389999998              1.28561975
   190   1      22.357721810000001      24.712767190000001              1.37873928
   191   1      26.343557010000001      24.755020099999999      1.2602450599999999
   192   1             30.40396303             24.63910873               1.1412996
   193   1      1.9927054200000001      1.1516830199999999              2.39506723
   194   1      6.0893584399999998              1.25261972      2.3469091899999999
   195   1      10.039539830000001              1.14561179      2.4725981699999999
   196   1             14.28227734      1.2595298500000001      2.2562926399999998
   197   1      18.229766569999999              1.26261774      2.3727200499999999
   198   1      22.424766999999999              1.31457709      2.5460007899999999
   199   1      26.530955609999999      1.2589296699999999              2.29592463
   200   1      30.398556209999999              1.19023787      2.4483222599999999
   201   1             -0.02265095      4.6589317499999998              2.38445463
   202   1              3.88562881      4.8010010000000003      2.5194706400000002
   203   1      8.1430071799999997      4.5446964799999998      2.2575638499999999
   204   1      12.179598629999999      4.7483631400000004      2.3208144499999999
   205   1      16.324878389999999      4.5630207299999999              2.52637555
   206   1      20.384170430000001      4.7768271000000002      2.5524741500000001
   207   1      24.285092859999999      4.6753313199999997      2.2548964599999999
   208   1      28.309359260000001      4.7841562399999997      2.3194804100000002
   209   1              1.93147387      8.4100516899999995      2.4100313500000001
   210   1      6.0594331600000002      8.3576913600000005              2.38855051
   211   1      10.053839549999999      8.3665868400000001      2.5091236700000001
   212   1             14.26447701              8.18828946      2.3923186900000002
   213   1             18.24508926      8.3943557700000007      2.3433516399999998
   214   1      22.307065569999999      8.2465419900000008      2.3820434000000001
   215   1      26.557880229999999      8.2609065099999999      2.3084366599999999
   216   1      30.330043450000002      8.1090624400000006      2.4870950199999999
   217   1    -0.10680431999999999      11.607291910000001      2.3879113799999998
   218   1      3.9759281999999998      11.831334330000001      2.4913271400000001
   219   1      8.0571653100000002             11.84975332      2.3480730900000002
   220   1      12.266044600000001      11.860273530000001      2.3565196099999999
   221   1      16.249063069999998      11.670302769999999      2.3236716099999999
   222   1      20.171995880000001             11.64617037      2.5085771100000001
   223   1      24.446953579999999             11.56789169      2.4447178100000002
   224   1      28.482067870000002              11.8218326      2.2609427200000001
   225   1              2.09903248             15.04193283      2.6206536699999998
   226   1      6.2849063899999997             15.18589493      2.5795512600000001
   227   1             10.19248084             15.35977617      2.5294115100000001
   228   1             14.32983539             15.37729979      2.4595041399999999
   229   1      18.375623350000001      15.370898390000001              2.46141437
   230   1      22.163531379999998      15.218817509999999      2.3063207100000001
   231   1      26.386204360000001      15.302000120000001              2.47464795
   232   1      30.490103879999999             15.20202379              2.30881581
   233   1      32.311884890000002      18.626262220000001      2.3902547699999999
   234   1      3.8434327800000001              18.6946318      2.4418529800000002
   235   1      8.0970675100000005             18.74101138      2.3186403000000002
   236   1      12.295283319999999      18.762717240000001      2.4351998799999999
   237   1      16.335904299999999      18.748515749999999      2.6790584200000001
   238   1             20.42437314      18.698372289999998      2.4267039600000002
   239   1      24.535871709999999      18.870262270000001      2.6299212500000002
   240   1      28.456713489999999      18.594140339999999              2.35875601
   241   1      2.2925247500000001      22.287427610000002      2.4275814100000002
   242   1      6.1212695699999999             22.27675215      2.4584204299999999
   243   1      10.271336099999999      22.124558050000001      2.5297078100000001
   244   1             14.22478613      22.350549959999999      2.4458589100000001
   245   1      18.219526699999999      22.382759449999998      2.4369499499999998
   246   1      22.251071750000001      22.166256350000001              2.28350776
   247   1      26.367356059999999      22.215431689999999      2.4737334099999999
   248   1      30.367337469999999             22.28033302              2.25742653
   249   1             -0.23043675      25.702013059999999      2.5141177699999999
   250   1      4.0425488999999999             25.86778296      2.2633968100000001
   251   1      8.1799456300000006      25.843748089999998      2.5418394100000001
   252   1             12.31771232      25.814781190000001              2.27246499
   253   1      15.962516020000001      25.783007009999999              2.35587459
   254   1      20.417197550000001      25.685803159999999      2.4371136799999999
   255   1      24.401428889999998      25.700592279999999      2.3308072100000001
   256   1             28.54789783      25.718408230000001      2.3960328500000001
   257   1    -0.14402685000000001      2.4603060700000001      3.1080698199999999
   258   1      4.2564331800000001      2.3100665199999999      3.1975906699999999
   259   1      8.0428729200000006              2.45041822      3.3568466199999998
   260   1             12.18226604      2.3975480199999999      3.1980833099999999
   261   1             16.13970063              2.43443517      3.2224001699999998
   262   1      20.294578990000002      2.3010998100000002      3.2933146400000002
   263   1             24.46660778      2.4828525099999998      3.2388125900000002
   264   1      28.388755339999999              2.53155573      3.3417092799999999
   265   1              1.98095131      5.9550542699999998      3.2996826399999999
   266   1      6.0928877899999998      5.8689284600000002      3.2959659499999998
   267   1             10.12578678      5.9188522900000002      3.1423913099999998
   268   1             14.29785893      5.7426061199999996      3.2921542100000001
   269   1      18.316171659999998      5.9418057800000001      3.3223992299999998
   270   1      22.464573189999999      5.8761252700000002              3.30575778
   271   1             26.33626005      6.0556247900000004      3.0530315899999998
   272   1             30.42573612      5.7405115999999996      3.3280566700000001
   273   1              0.05284084      9.3124807399999998      3.3080568399999999
   274   1      4.0838695999999999      9.5072164699999995      3.2670121700000001
   275   1      7.9996059099999997      9.4323561100000006      3.1730732599999998
   276   1      12.014150880000001      9.4686520400000003      3.3513532700000002
   277   1             16.14099015              9.26725727      3.2674260400000001
   278   1      20.281464100000001      9.2635766299999993      3.2553950500000002
   279   1      24.368473569999999      9.4302938199999993      3.3956407099999999
   280   1      28.506423959999999      9.6408737900000006      3.3549605800000002
   281   1              1.89868678      12.716184309999999              3.32374619
   282   1      6.1786620000000001             12.93418552      3.3872368399999999
   283   1             10.22400378      12.970577799999999              3.20016897
   284   1             14.20765203              12.7999118      3.2419887200000002
   285   1      18.208929260000001      12.995002850000001      3.3281120400000002
   286   1      22.314021319999998      12.862277020000001      3.0915176099999999
   287   1      26.377823230000001      12.971170770000001      3.2468629600000001
   288   1             30.40378844      12.889806760000001      3.2369320799999999
   289   1      32.558817189999999      16.379043509999999      3.3189449199999999
   290   1      4.0555224599999997      16.523515979999999      3.4152244500000002
   291   1      8.1886608800000005      16.505156469999999              3.35593824
   292   1      12.238366360000001      16.474465930000001              3.47376123
   293   1      16.293933320000001      16.435877900000001      3.3319679999999998
   294   1      20.406963340000001      16.598050740000001      3.4236238000000001
   295   1      24.349073919999999      16.244115109999999              3.19442578
   296   1      28.471561640000001             16.23313976      3.2253775400000002
   297   1               1.8578915             19.90224512      3.2993820600000001
   298   1      5.8462265499999999             19.86807864      3.3254320800000001
   299   1      10.073690750000001      19.844009419999999      3.3400039700000002
   300   1             14.15255455      20.003820180000002      3.2789378899999999
   301   1      18.353063939999998      19.879044560000001      3.3558751299999998
   302   1      22.448255540000002      20.002905649999999      3.4617971700000001
   303   1      26.444055580000001      19.919852460000001      3.2865302999999999
   304   1             30.54145089      19.816026109999999      3.3003212400000002
   305   1      32.557360930000002      23.390055050000001      3.1792368199999999
   306   1      4.0788108999999997      23.553422040000001      3.3321520499999999
   307   1      8.2230212799999993             23.48381831      3.1725973999999999
   308   1             12.16361886      23.399130719999999      3.0991948599999999
   309   1      16.134501929999999      23.482839769999998              3.40920427
   310   1      20.395657010000001      23.379086879999999      3.1777730200000001
   311   1      24.399469180000001      23.527907450000001              3.05073953
   312   1      28.334999920000001      23.477195800000001              3.32286657
   313   1              1.97183847      26.858310490000001      3.1843172599999998
   314   1              6.11359794      27.028958660000001      3.2625842299999999
   315   1      10.202695670000001      27.019276059999999      3.1630270199999999
   316   1      14.200661739999999      27.195621209999999      3.1177200799999998
   317   1      18.347057960000001             27.08386277      3.1931708300000001
   318   1      22.342625219999999             27.14187313              3.19806554
   319   1      26.458574729999999              27.1437028      3.3467943600000001
   320   1      30.317207310000001             26.98476123      3.3478419599999998
   321   1    0.089383809999999994    0.087652949999999993              3.98782302
   322   1      4.0851252899999997  -0.0090341799999999993      3.8607566200000001
   323   1      8.0753913700000002              0.16943849      4.2975118200000004
   324   1             12.26730132      28.233922150000001      3.9914960599999998
   325   1      16.295630389999999    -0.16086700000000001      4.0153102399999998
   326   1      20.459015690000001      28.290050770000001      4.1764064100000002
   327   1      24.293711559999998              0.20005655      4.0837744599999999
   328   1             28.42897396             28.22132131              4.16002092
   329   1      2.0640227200000001              3.35474921      3.9659281399999999
   330   1      6.0318815499999996      3.6513403100000001      4.1969084199999998
   331   1             10.14319367      3.5357483200000002              4.02609393
   332   1      14.115889040000001      3.5652944899999999      4.1899408600000001
   333   1             18.35379193      3.5133319699999999              4.06241378
   334   1      22.333860649999998      3.5024936599999998      4.1381457900000003
   335   1      26.259968709999999              3.52779372      4.1873335100000002
   336   1      30.450444869999998      3.5928497699999999      4.2982497100000003
   337   1             -0.01476907      7.1590974000000003               4.1104661
   338   1              4.16503245      7.0482245700000004      4.0905417899999996
   339   1      8.1646293100000005      7.1151633900000002      4.0760038200000004
   340   1             12.21226616      6.9773880200000002      4.0674743400000004
   341   1      16.415683059999999      6.9759467099999997      4.1646070999999996
   342   1             20.49839832      7.0596784299999999      4.2050432500000001
   343   1      24.210227570000001      7.1739636000000004      4.1347627100000004
   344   1      28.625468099999999      7.0985462300000002      4.0392151700000003
   345   1      2.1076155600000002      10.566432219999999      4.0415421900000004
   346   1      6.0908014000000001                10.56457      4.0567694899999998
   347   1      9.8918093099999993      10.543571869999999      3.9964437400000001
   348   1              14.2632355             10.52867522      4.0734004099999996
   349   1             18.18864533             10.53108362              4.09998167
   350   1      22.247667490000001      10.603460979999999      4.1237605100000003
   351   1             26.40952837             10.63973324               3.9886819
   352   1      30.527216289999998             10.58558946      4.0424915500000003
   353   1      32.417597600000001             14.12319658      4.2204239100000001
   354   1      3.9977128099999999      13.998396290000001      4.2950207300000001
   355   1      8.1912603900000001             14.14154207      4.0146123899999999
   356   1             12.05816547             14.15361128      4.0737298900000001
   357   1      16.253147859999999      14.290990860000001      4.1018099499999998
   358   1      20.366561839999999      13.939191449999999      3.9752895700000002
   359   1      24.339354350000001             14.08209254      4.0630057300000004
   360   1      28.281196120000001      14.174681440000001      4.2016303500000003
   361   1      2.0822650500000002      17.631933660000001      4.2349693400000001
   362   1      6.0630197600000004      17.471068549999998      4.1331736799999996
   363   1             10.09726004      17.705458050000001      4.1491461100000002
   364   1             14.40720196      17.848407890000001      4.1137324399999997
   365   1      18.309883070000001             17.62773228      4.2913537599999998
   366   1      22.490103430000001      17.501780159999999              3.97009056
   367   1      26.506719029999999      17.581923570000001      4.0739149100000001
   368   1      30.481616850000002      17.531987189999999      4.0060819399999996
   369   1      32.375438260000003      21.171572650000002      4.2590773500000001
   370   1      3.8885831300000002              21.0481181      4.1672250100000001
   371   1      7.9393146899999998             21.11140928      4.1152079199999996
   372   1      12.241832369999999      21.286855389999999              4.11268235
   373   1      16.177787049999999             21.10014576      4.0401195599999999
   374   1      20.364467099999999             21.05485577      4.1295366500000004
   375   1      24.397418519999999      21.078899140000001              4.15347343
   376   1      28.447097490000001      21.014303349999999      4.0263133900000003
   377   1      1.9793014799999999             24.59532806      3.9691671999999998
   378   1      6.0942175199999999             24.81662463      4.0893801099999996
   379   1      10.193839970000001             24.52996942      3.8120921299999999
   380   1             14.17128318      24.671655250000001      4.1238112899999999
   381   1             18.35952292             24.69749565      3.8859937900000001
   382   1      22.523753129999999      24.521352480000001      3.9114320999999999
   383   1      26.316986570000001             24.64217185      3.7846556100000002
   384   1             30.30994961      24.529423099999999              4.03825141
   385   1      2.0805806800000002              1.07442729      4.8862462100000004
   386   1      5.9404706300000001              1.23224585      4.9585198000000004
   387   1             10.12266998              1.40412921      5.1329944599999999
   388   1             14.27555622      1.1657681499999999      4.8752671300000001
   389   1      18.213959620000001              1.31661809      5.0236538199999998
   390   1             22.33670876      1.1722195399999999      5.1839424999999997
   391   1      26.482929349999999              1.22825816      5.0591653699999997
   392   1      30.596026559999999                 1.09867              4.86547617
   393   1              -0.0378386      4.6195794499999998      4.7087344399999997
   394   1      3.9536371899999998      4.7320260899999997      4.9405074899999999
   395   1      8.1519765799999995      4.6398510799999997      4.9193368299999998
   396   1             12.07101355      4.7616114600000001              4.85283526
   397   1      16.294800200000001      4.8013759199999999      5.0101592300000002
   398   1      20.344739969999999      4.6472300400000002      5.0781403100000002
   399   1      24.199101580000001      4.7104050600000003      4.8798649799999998
   400   1      28.493576439999998      4.8601656499999999      4.8288797299999997
   401   1      2.0337512499999999              8.18504817      4.7517767400000004
   402   1      5.8934130700000003      8.2237510500000006              4.83682721
   403   1      9.9759398099999999      8.3403663100000003      5.0195929399999999
   404   1      14.190859619999999      8.1979732300000006      4.9654427500000002
   405   1      18.243945190000002      8.1339641599999997      4.9669391100000002
   406   1             22.26935624      8.1944553100000004               4.9162982
   407   1      26.290216350000001      8.3403163199999995      4.8175312200000002
   408   1      30.459932380000001      8.2413150999999996      4.9787269199999997
   409   1      32.293509929999999             11.75095037      5.2049708199999998
   410   1      4.0787642200000001      11.651192679999999              5.10063814
   411   1      7.9963097999999997              11.7923635      4.9952603299999998
   412   1      12.147685579999999             11.73318737      4.9927872500000001
   413   1             16.15777065      11.901944889999999      4.8118185599999999
   414   1             20.39342087      11.729200029999999              4.94393393
   415   1      24.357806010000001             11.82778306      4.8936988799999996
   416   1      28.473645269999999             11.65588075      5.0242106399999997
   417   1      1.9495413699999999               15.197367      4.9650343899999996
   418   1      5.9569776000000001             15.28864224      5.1741382500000004
   419   1      9.8867901000000007      15.210470279999999      5.0326410600000004
   420   1             14.24453795      15.237070279999999      5.0816549499999999
   421   1      18.388224510000001             15.05962658      4.9306898700000001
   422   1             22.16685575      15.117856939999999              4.81217746
   423   1      26.410354819999998      15.303590359999999      4.8204722799999997
   424   1      30.254596320000001             15.24525019      4.9013201300000002
   425   1      32.625310990000003      18.707476889999999      4.8880630600000003
   426   1              4.11696273      18.852329999999998      5.0925779999999996
   427   1      7.8994407000000004             18.85075488      4.9040699700000001
   428   1             12.32980644      18.889272219999999      4.9726950099999998
   429   1             16.39071101      18.856220449999999      5.0766366500000002
   430   1      20.365523469999999             18.66651688      5.0376828199999997
   431   1      24.307035490000001             18.74119108      4.9961559700000002
   432   1      28.443051659999998      18.664355499999999      4.9599232500000001
   433   1      1.9322623000000001      22.337536369999999              5.00230774
   434   1      5.8923377500000003             22.34765866      4.8467558100000003
   435   1      9.9593570899999992             22.46957643      5.0029192099999999
   436   1             14.31853153      22.434640439999999              5.06240326
   437   1             18.23733601      22.347842320000002      4.9339867599999998
   438   1      22.340702910000001             22.20877072      5.0406242600000004
   439   1             26.34984759              22.2757291      4.8971884000000001
   440   1      30.345080100000001      22.179755950000001      4.8764122099999998
   441   1      32.437899710000003      25.720066070000001      4.9861215400000001
   442   1              3.95271236             25.91056451      4.8698721899999997
   443   1      8.1928885900000008             25.79202489      4.9554261100000003
   444   1             12.19694224               25.830914      4.7084375500000002
   445   1      16.398172590000001             25.79635189      4.8975806899999998
   446   1      20.537790789999999              25.7166505              4.99186686
   447   1      24.455332970000001      25.801094599999999      4.7895070899999999
   448   1      28.491865270000002      25.679435550000001      4.9091717900000003
   449   1    0.088209709999999997      2.3926002899999999      5.8906620399999996
   450   1              4.08047307      2.4444728200000001      5.8577765499999996
   451   1              7.98949277              2.25704532      5.7834181999999998
   452   1      12.268369440000001      2.6021056699999998              5.80153418
   453   1             16.22064915      2.3585107999999999      5.9780254700000004
   454   1      20.443346290000001      2.2801489300000002      5.9166291099999997
   455   1      24.361698690000001      2.2783709999999999      5.7443871900000003
   456   1      28.556929319999998      2.1975710199999998      5.7903002099999998
   457   1              1.86241334      5.8067869200000004      5.7975375900000001
   458   1      6.0857132099999998      5.9031818200000004      5.7030657099999997
   459   1      10.055780739999999      5.8928154599999996      5.6936272800000003
   460   1             14.10280199      5.8801623799999998      5.8823919599999996
   461   1      18.322322310000001              5.69270443              5.86084374
   462   1      22.398225679999999      5.7395767600000003      6.0026417600000004
   463   1      26.448518740000001      5.9899297000000002      5.6150415699999998
   464   1      30.670620719999999      5.9518104300000001      5.7301662999999996
   465   1             32.60296906      9.4702329299999999      5.9743985000000004
   466   1      3.8822515100000001      9.3542804499999992      5.7608870400000001
   467   1      7.9498601000000004      9.5258176500000005      5.7834569499999997
   468   1              11.9884469      9.4446604599999997      5.9279403200000003
   469   1      16.188567249999998      9.2984427299999997      5.8699758400000004
   470   1      20.258646779999999      9.3821948200000005      5.8114190299999997
   471   1             24.35646886      9.5409598100000004      5.6416577400000003
   472   1             28.47557621      9.4738536599999996      5.7620330800000001
   473   1      1.9730959299999999              12.8238793      5.8405964700000004
   474   1      5.9604219699999996             12.95937486      5.8463167299999999
   475   1      10.090377849999999             12.85545095      5.8595356499999998
   476   1      14.150397359999999             12.96548512      5.7127235499999998
   477   1             18.25127402      12.750052999999999              5.96840993
   478   1      22.424916549999999      12.918074730000001      5.6129390800000003
   479   1      26.334102380000001             13.00214435      5.7427321999999998
   480   1             30.45219573             13.07094363              5.95693056
   481   1      32.474349519999997      16.428548760000002      5.7162265300000001
   482   1      3.9367257499999999             16.50428509      5.9765323300000004
   483   1      8.0472096999999998             16.48254236      5.9026179900000004
   484   1              12.0164449      16.542840200000001      5.8916744899999998
   485   1      16.442634739999999             16.37024452      5.8753275699999996
   486   1      20.442864950000001             16.32622215      6.0515166000000002
   487   1              24.3538009             16.28528013      5.7922288899999996
   488   1             28.39460094      16.343385130000001      5.8132880699999996
   489   1      2.0546702099999998      20.073171240000001      5.9384345200000004
   490   1      6.0214490999999999             20.00582691      5.6827471799999998
   491   1             10.06693812      20.064482940000001      5.6495334499999998
   492   1             14.43103924             19.91962281      5.8140723599999999
   493   1      18.430477929999999      20.028879539999998      5.7165602299999998
   494   1      22.325189389999998      19.864728400000001      5.7917806599999997
   495   1             26.29283899      19.881831770000002      5.7679714200000003
   496   1      30.607313170000001      20.063502849999999      5.7197455899999996
   497   1              -0.1458508             23.47062841      5.8531298400000003
   498   1      4.0307758600000003              23.7424325      5.7083755500000004
   499   1      7.9184852599999997             23.46932108      5.7242189400000001
   500   1      12.212996970000001      23.645243870000002      5.7178797299999999
   501   1             16.23606186             23.52956884      5.7556636499999998
   502   1      20.426258409999999      23.479277490000001              5.58500204
   503   1      24.370789420000001      23.511103890000001      5.6871909199999999
   504   1             28.45801179      23.356707700000001      5.9494260299999997
   505   1      2.0983192399999999      26.786868299999998      5.8367034499999999
   506   1      6.0548743800000002      27.020341389999999      5.8996245099999998
   507   1              10.1486625      27.088229800000001      5.7756446199999996
   508   1             14.16645958      27.138347960000001      5.5490437999999997
   509   1      18.399756320000002             26.99345701      5.7128058199999998
   510   1      22.441136910000001      27.072451019999999      5.9006336800000003
   511   1             26.42769367      27.259740579999999      5.8131412999999998
   512   1      30.627117859999998             27.01936195      5.9317974299999996
   513   1      32.532418700000001      27.969323939999999      6.5777455600000003
   514   1      4.0579354800000003              0.11896646      6.4454038999999996
   515   1      8.0863165000000006   -0.070354920000000001      6.8291722200000002
   516   1      11.979821680000001             28.37643186      6.6536002600000002
   517   1             16.23602155              0.01921527      6.8181657800000002
   518   1      20.398445639999998   -0.075221759999999999      6.7145433900000002
   519   1             24.45203536    0.018420659999999998      6.5835280000000003
   520   1             28.42882444      28.322273970000001      6.7810294400000002
   521   1               2.0750492      3.3642273600000001      6.4514149200000004
   522   1      6.0349528899999996      3.6163043899999998      6.6281782900000001
   523   1      10.235191309999999      3.6151802000000002      6.5303788999999997
   524   1      14.235767190000001      3.6981391700000001      6.7811453999999998
   525   1      18.426141040000001      3.4043043599999998      6.8289016499999997
   526   1             22.38344609              3.33891597      6.5541642700000002
   527   1      26.419032829999999      3.7188320099999999      6.6043054200000002
   528   1      30.641120999999998      3.4184775900000002      6.6871623400000004
   529   1      32.460190040000001              7.02516943      6.5702079400000004
   530   1      3.8547458699999999      6.8803725699999996              6.75400432
   531   1      8.0989354099999993               7.0747076      6.6867534500000003
   532   1             11.89128187      6.9526251500000003      6.4679866099999996
   533   1      16.126889540000001      7.0203509799999999              6.90757523
   534   1      20.219046760000001      7.0018730900000001              6.62410619
   535   1      24.437357639999998      7.2295845200000004      6.6467613800000001
   536   1      28.430057590000001      6.9449827099999997      6.8213217999999998
   537   1              2.25942949             10.54350013      6.6613488199999997
   538   1              5.93992377             10.47569354      6.5731727900000001
   539   1             10.01254924      10.645734539999999      6.6533902300000003
   540   1             14.09429954      10.476801419999999      6.6301972200000003
   541   1             18.00957081              10.4411705      6.7656310099999999
   542   1      22.343255889999998             10.43995327      6.5421654699999996
   543   1              26.4119995             10.53954148      6.6457358099999997
   544   1      30.379230870000001      10.683279300000001      6.6920643000000002
   545   1   -0.070597450000000006      14.120204449999999      6.6367669500000002
   546   1      4.1119475300000001      14.159462319999999      6.8092512899999997
   547   1      7.8967469899999996      13.994428149999999              6.58070836
   548   1             11.98563504             14.18364414      6.7038353600000002
   549   1      16.181945989999999             13.96994432      6.5233277200000002
   550   1      20.341040339999999              13.9522908      6.5841122800000003
   551   1      24.244313290000001      14.141721950000001      6.5989107300000001
   552   1             28.29820333             14.18093672      6.5710010499999996
   553   1      1.8701770200000001      17.750444330000001      6.6033271899999999
   554   1      5.9707613300000002      17.667046450000001      6.6044369600000001
   555   1             10.19597899      17.719601000000001               6.6580404
   556   1             14.19080499      17.597247200000002      6.7242494300000004
   557   1             18.38219497      17.385687369999999      6.7528377600000002
   558   1      22.244902150000001             17.59407551      6.8097466899999999
   559   1      26.489100069999999      17.590386479999999      6.7805426600000001
   560   1             30.49418073      17.387760279999998      6.6271457099999997
   561   1      32.444330659999999             21.18769601      6.7625293900000001
   562   1      4.2288055299999998              21.0988787      6.6091283900000004
   563   1      8.0768890100000004             21.29459288      6.5846492400000001
   564   1      12.229629109999999      21.364690509999999      6.5393246700000001
   565   1      16.567920990000001      21.111946069999998      6.7515941599999998
   566   1             20.35132935      21.180324219999999      6.6352457999999999
   567   1      24.328294499999998      21.085475089999999              6.63157715
   568   1             28.44472846      20.928260089999998      6.6733893000000002
   569   1      2.0000027199999999      24.562850390000001              6.82462225
   570   1      6.2118253799999996      24.702102539999998      6.5280036800000003
   571   1             10.07219585             24.75680367      6.3738024700000002
   572   1             14.21268083      24.877551629999999      6.5111650599999997
   573   1      18.241341259999999             24.83778195      6.7325273499999998
   574   1      22.434810500000001      24.529614339999998      6.4223877800000002
   575   1      26.493528640000001      24.617699869999999      6.3592352200000004
   576   1      30.426982500000001      24.743932480000002      6.8023233000000003
   577   1      2.1943585200000002              1.09380634      7.4018760300000004
   578   1      5.9993448799999998      1.1263162799999999      7.4396203700000001
   579   1      10.278984080000001      1.5460363399999999      7.4965878200000002
   580   1      14.069605960000001      1.2019631799999999      7.3175504299999998
   581   1      18.348215249999999      1.2011816200000001      7.6244069799999998
   582   1              22.5023579              1.26749544      7.5426301899999997
   583   1      26.506881310000001              1.30439459      7.3795931000000001
   584   1      30.466829359999998      1.1754127400000001      7.5690848600000002
   585   1    0.054666190000000003      4.6859593799999999      7.3162746500000004
   586   1      4.0067897300000004      4.6352154700000003      7.3506924800000002
   587   1      8.2160565099999996      4.5516798200000004      7.5883793900000001
   588   1      12.415243569999999      4.7815571300000004      7.5811649900000004
   589   1      16.376941080000002              4.55323031      7.5315586300000001
   590   1      20.563716280000001      4.6445696099999996      7.6351287499999998
   591   1      24.512821599999999      4.6718500499999998      7.3406172099999996
   592   1      28.670526160000001      4.6193054299999998      7.5732103999999998
   593   1      1.9018213500000001      8.3718552200000005      7.7829173000000003
   594   1      5.9904720500000002      8.0653178800000003      7.3905901700000003
   595   1      10.084198020000001      8.3051704199999996      7.4916410100000004
   596   1             13.80474639      7.9284057299999997      7.3979815000000002
   597   1             18.19480596      8.1411980899999996      7.5819379400000004
   598   1      22.168946930000001      8.2702656999999995      7.5806807899999997
   599   1      26.670801300000001      8.2236931999999996                7.340827
   600   1      30.432497909999999      8.0970298700000001      7.4154263599999997
   601   1      32.600347980000002      11.635302490000001      7.4957489700000002
   602   1               4.0834769             11.63970672      7.5178825299999996
   603   1      7.9866801599999997             11.71710438              7.58795807
   604   1      12.207410380000001             11.71913893      7.3678627299999997
   605   1             18.18390995      12.780005879999999      8.1813626500000005
   606   1      20.290489560000001      11.668872260000001      7.3207867000000002
   607   1             24.28610789             11.72028708      7.3126568299999999
   608   1      28.237127189999999             11.77638125      7.3455595499999999
   609   1              2.06104596             15.29720792      7.5454966299999997
   610   1      6.1435216500000003      15.283386950000001      7.7413398899999999
   611   1             10.18012785             15.24714473      7.4026158500000001
   612   1             14.34307441             15.30623741               7.4396027
   613   1      18.317268949999999      15.049699990000001      7.6052755899999998
   614   1             22.29435063              14.9815547      7.3677560499999997
   615   1              26.3601797      15.184585050000001      7.3394662400000001
   616   1      30.329506110000001             15.22931635      7.6121466199999999
   617   1    0.056777080000000001             18.93253352      7.3251172699999998
   618   1      3.9390997099999998      18.713937399999999               7.5296949
   619   1      8.0212192000000009             18.93917115      7.5100783499999997
   620   1             12.28112512      18.886953550000001      7.8539689499999996
   621   1      16.353304789999999      18.550836409999999      7.6898755200000002
   622   1             20.06018061             18.85231404      7.3504716800000001
   623   1      24.390248320000001      18.636846290000001      7.4819347799999996
   624   1      28.324409509999999      18.657051150000001      7.5615966500000003
   625   1      1.9426190000000001      22.224214069999999      7.5902896899999996
   626   1      6.0086550799999996      22.187140899999999      7.4576968600000004
   627   1      10.139133599999999      22.478863270000002      7.4920682799999998
   628   1             14.47985628             22.42780308      7.4560279600000001
   629   1      18.407700179999999      22.377923859999999      7.6244011599999997
   630   1      22.149567430000001             22.39426349      7.5807761500000002
   631   1      26.361199150000001             22.29094512      7.3522070800000003
   632   1      30.327042819999999      22.106503199999999               7.6190916
   633   1      32.493561769999999      25.725808279999999      7.5422768400000004
   634   1               4.1794851      25.768971730000001      7.5264423599999999
   635   1              8.14942061             25.77413009      7.6961165500000002
   636   1             12.03738171      26.085500669999998      7.2552359400000004
   637   1      16.289415470000002      25.899371070000001              7.21214114
   638   1             20.49210231      25.649584010000002      7.5887346400000002
   639   1      24.412106250000001      25.806295970000001      7.2143693999999998
   640   1      28.297381470000001      25.967554920000001              7.50989372
   641   1      32.656669620000002      7.0778165199999998      8.9422510800000001
   642   1              1.84659262      1.0222034099999999      9.9377527899999993
   643   1             10.20744009              3.71873649      9.0167242200000004
   644   1             12.26673707              2.42894671      8.3648456400000004
   645   1             10.25674536              1.46267966      9.8525086000000002
   646   1      16.408305760000001      2.1428622000000002      8.4841029300000006
   647   1      23.251172189999998      6.1852121499999999      8.6816210999999992
   648   1      30.314697890000001              3.68884116      9.1787482100000002
   649   1      2.1054290600000001      3.4199130700000002      9.2143817800000001
   650   1      2.1070446899999999      26.792195209999999      8.3218802200000006
   651   1      14.183409620000001              1.18662321      9.4605144899999996
   652   1      12.115358390000001      9.3963449200000007      8.2653188199999992
   653   1      24.377088690000001      9.0136143799999999      8.1188563499999997
   654   1      3.9807450900000001   -0.076742400000000002      9.0353799200000005
   655   1      18.280938800000001              3.64627049      9.2424246700000001
   656   1              3.98075176      6.9313678899999998      9.1176470500000004
   657   1      7.8944100600000002      9.2523197499999998      8.4963390000000008
   658   1             14.38495094      17.740317520000001      9.0808111399999998
   659   1      6.2152767899999999      8.2419486800000001      9.8403919500000008
   660   1      10.261782699999999      5.8392099399999999      7.9829972700000003
   661   1      16.510291330000001      23.693331929999999      8.4592194000000003
   662   1      28.642251649999999      9.2062405100000007      8.3674740100000005
   663   1      20.773787970000001      6.7155119399999998      9.0250343599999994
   664   1      1.8125354499999999             10.46621805      9.1457215099999996
   665   1      10.239563929999999             10.63800975      9.1349486100000004
   666   1              6.17837499      17.526532799999998      9.0429089499999993
   667   1      12.146767730000001      21.004650730000002      8.9183795099999994
   668   1      16.012710559999999             11.67080936              7.12083858
   669   1      20.319422719999999      13.854032050000001      8.9352008400000003
   670   1      26.394396690000001      10.414602739999999      8.9357803800000006
   671   1      32.523054340000002      16.595369139999999      8.2672833699999995
   672   1      2.1652423299999999             13.01409516      8.1089761899999999
   673   1      3.9714088599999999      16.420281070000001      8.3792364799999994
   674   1               3.9851893      14.038562499999999      9.2761452500000008
   675   1              8.31972208      18.698975059999999      9.6428038899999997
   676   1      10.144687210000001      20.045951639999998      8.0870427100000004
   677   1             14.39307612      20.132923999999999      8.2011904199999996
   678   1      20.298532959999999             16.51091078      8.2351561499999999
   679   1      26.269897440000001      13.001698040000001      8.1383285799999996
   680   1      28.634950580000002             14.20166822      8.8841302399999993
   681   1      3.8469019200000001      25.705881229999999      9.8888792900000002
   682   1      8.2645339100000008             16.39479146      8.2732926599999992
   683   1      6.1230100299999997      26.983548389999999      8.5349832200000009
   684   1      8.1044836399999998      14.064215819999999      8.8123424400000001
   685   1      22.267790519999998             19.86609851      8.1448102700000007
   686   1             22.26984508      24.575375860000001      8.7646541500000001
   687   1      30.433582220000002             12.54289445      8.3703521199999997
   688   1      30.371598599999999      19.647298490000001      8.4534830500000009
   689   1      23.902260139999999      21.352073099999998      8.9788879300000008
   690   1      4.2309798699999996             23.41362569      8.1204090499999992
   691   1      4.2682501899999998      4.4397651600000003      9.8719282499999998
   692   1      11.907412860000001   -0.051567429999999997      9.1099366899999996
   693   1             18.22223954             19.92924459      8.2593676200000008
   694   1             18.19621201              17.4908304      9.2110608599999999
   695   1             24.41544438      23.447995079999998      7.9857174400000002
   696   1      28.634143649999999      23.581392279999999      8.2790892300000003
   697   1      4.1180527500000004      2.2404067400000001      8.4294492099999996
   698   1      8.0530579400000004      25.726563500000001      10.003643500000001
   699   1      20.206352039999999      23.513035680000002      8.5713733100000002
   700   1      14.541420159999999      24.923400959999999      8.7420475599999996
   701   1      16.167101540000001    -0.18347390999999999              9.05271224
   702   1      22.284925300000001      27.081229700000002      8.2052002099999992
   703   1             28.62185934      2.2102437400000001      8.5387188700000003
   704   1      30.582223190000001              0.96644816             10.07678673
   705   1      2.0460477099999999              5.64956338      8.2838755299999995
   706   1      5.9744010100000002      1.0719969600000001      9.8792165300000008
   707   1             14.62688421      5.8763561199999996              8.55886836
   708   1      16.483991670000002      21.400479470000001      9.1732864099999993
   709   1             18.39363024             26.79281615      8.2489121700000005
   710   1      20.109820670000001      21.283055149999999      9.0996951300000006
   711   1      26.522474280000001      5.9603413600000001      8.1838047100000004
   712   1      1.8875900000000001             24.40235083      9.3101839200000001
   713   1             -0.04333418              2.30075824      8.7154973299999998
   714   1      32.260736629999997      23.467849040000001      8.3347184199999997
   715   1      30.525130310000002      26.836707229999998      8.3930013500000005
   716   1      14.660328829999999      3.4298889799999999      9.1495985300000005
   717   1             28.49466769   -0.065834599999999993      9.3510604100000005
   718   1             24.59373192      2.2593034799999998      8.3179997700000001
   719   1     0.11874034999999999      4.7034560000000001      9.7362070099999993
   720   1      30.676157849999999      5.9118262499999998      8.4445429099999991
   721   1      4.0135182399999998      9.2373794199999999      8.1251995899999994
   722   1             12.33740469             16.34678224      8.3912849600000001
   723   1              5.91830531      5.8143316299999999      8.3111423099999993
   724   1      8.2575763999999996      6.6349047299999997      8.9969858499999997
   725   1             12.12099356      6.8993797900000002      8.8389362499999997
   726   1      18.194440610000001      5.9592337899999999      8.4627313500000003
   727   1      14.079551179999999             27.08751088      8.1457818399999997
   728   1      32.647887269999998             14.22227623      8.8889869000000008
   729   1              4.26910071      18.985118780000001      9.8156409500000006
   730   1      8.1209583700000003      2.2315597999999999      8.2487361499999992
   731   1             14.04921714      13.114218449999999              8.14696614
   732   1      15.661547410000001      9.2507952899999992      8.2426999799999994
   733   1      16.406918399999999      16.275631430000001      8.2919066899999994
   734   1      32.507511890000004      27.958297810000001      9.1056579800000002
   735   1      22.605803030000001               3.7679065      9.1647343899999996
   736   1      5.7677749800000004             10.50532273      8.9393037399999997
   737   1             28.31495275      21.239817500000001      9.3153556300000009
   738   1      32.093028339999996      9.5254369899999993      8.1730490099999997
   739   1      10.387087429999999             12.92537576      8.2349920099999991
   740   1      16.021837470000001      13.867743689999999      8.9604818900000005
   741   1      22.557062049999999      10.557579049999999      8.9156829799999997
   742   1      28.509075559999999      6.9557059199999998      9.3455473500000004
   743   1      20.291884079999999              9.28834026      8.4089615700000007
   744   1      1.9129008599999999             17.65582423      9.2600665400000004
   745   1      1.8897372400000001      19.853278360000001      8.3341562600000003
   746   1      5.9770490299999999             13.11590812      8.2979058400000003
   747   1             10.32206079      17.552276970000001      9.0656582799999992
   748   1      8.4061087699999995      21.290705249999998      9.0013373699999999
   749   1      22.253934489999999              12.7020857      8.3351599299999997
   750   1      27.988218629999999             16.46373908      8.3194415799999994
   751   1      24.242730359999999      16.329687660000001      8.3087751999999995
   752   1      32.241247430000001             18.72046529      9.7254146200000005
   753   1              3.98457054             21.35882449      8.9361776499999994
   754   1      7.9938410199999996             23.37327398      8.0428039299999998
   755   1      6.1158529399999999      24.645734999999998      9.0436892800000006
   756   1      9.9617749700000005      27.188737849999999      8.1446823699999999
   757   1             12.31111394      23.529757759999999      8.4364089799999995
   758   1              26.3027233             27.11101266      8.5073008100000003
   759   1      26.286580489999999      20.028861370000001      8.3769887700000005
   760   1             26.04569017             22.32504467      9.6698778799999996
   761   1      6.2281143400000003      20.004009119999999              8.59122086
   762   1             30.45335227      17.192789659999999      9.0742474400000006
   763   1      6.3391202900000003              3.57549245      9.1975717600000007
   764   1      8.1155891199999992    0.021306950000000002      9.2565066900000001
   765   1      10.127811729999999             24.49760534      8.8560227200000003
   766   1      20.520916400000001      2.2188409999999998      8.6216664999999999
   767   1             26.28658124      24.695171779999999      8.8263882500000008
   768   1    -0.26014379999999998      21.107912949999999      9.0115760100000006
   769   2      21.127670129999998      5.1020743599999996              9.63529795
   770   2             20.03875837      3.7073658200000001      9.6774746100000009
