N2-dn2-coord-10bar/700K/snapshots/frame-149503/run-000/../data.lammps (written by ASE) 

770 	 atoms 
2  atom types
0.0      32.470343392086264  xlo xhi
0.0      28.120142247150884  ylo yhi
0.0      31.213473999158239  zlo zhi


Atoms 

     1   1      2.0293964600000001      1.1716090800000001    0.023552650000000001
     2   1      6.0880008999999999              1.17168918              0.02556874
     3   1      10.146952280000001              1.17170328    0.025416459999999998
     4   1      14.205754900000001      1.1716496700000001              0.02501565
     5   1             18.26456816              1.17166478              0.02504435
     6   1             22.32338141      1.1716496700000001              0.02501565
     7   1      26.382184030000001              1.17170328    0.025416459999999998
     8   1      30.441135410000001              1.17168918              0.02556874
     9   1  9.1780000000000006e-05      4.6866847900000002    0.025581599999999999
    10   1      4.0587011400000002      4.6866847900000002    0.025581599999999999
    11   1      8.1174961000000003      4.6866290399999997    0.025584639999999999
    12   1             12.17638011      4.6866852999999997              0.02491202
    13   1             16.23517979      4.6866942700000003    0.025006210000000001
    14   1      20.293956519999998      4.6866942700000003    0.025006210000000001
    15   1      24.352756209999999      4.6866852999999997              0.02491202
    16   1      28.411640219999999      4.6866290399999997    0.025584639999999999
    17   1      2.0293964600000001      8.2016395800000002    0.026613040000000001
    18   1      6.0881071599999999      8.2016314300000008              0.02543782
    19   1             10.14701835               8.2017045    0.025156850000000001
    20   1      14.205766049999999      8.2017080900000003    0.024990459999999999
    21   1             18.26456816      8.2017077599999997    0.025091249999999999
    22   1      22.323370260000001      8.2017080900000003    0.024990459999999999
    23   1      26.382117969999999               8.2017045    0.025156850000000001
    24   1      30.441029149999999      8.2016314300000008              0.02543782
    25   1  9.2789999999999998e-05             11.71671873    0.025573410000000001
    26   1              4.05870014             11.71671873    0.025573410000000001
    27   1      8.1176017700000003             11.71668698              0.02497914
    28   1             12.17637068             11.71673069    0.025001590000000001
    29   1      16.235177310000001      11.716730249999999    0.025074039999999999
    30   1      20.293959009999998      11.716730249999999    0.025074039999999999
    31   1      24.352765640000001             11.71673069    0.025001590000000001
    32   1      28.411534549999999             11.71668698              0.02497914
    33   1      2.0293964600000001             15.23167155              0.02525285
    34   1      6.0881728300000004      15.231678799999999    0.025062859999999999
    35   1             10.14698486      15.231762639999999               0.0250786
    36   1             14.20578841             15.23176782    0.025201990000000001
    37   1             18.26456816              15.2317707    0.025149979999999999
    38   1      22.323347900000002             15.23176782    0.025201990000000001
    39   1      26.382151459999999      15.231762639999999               0.0250786
    40   1      30.440963480000001      15.231678799999999    0.025062859999999999
    41   1      32.470327990000001      18.746748629999999    0.024951939999999999
    42   1      4.0588083299999997      18.746748629999999    0.024951939999999999
    43   1      8.1175770200000006      18.746803499999999    0.025222040000000001
    44   1             12.17637459      18.746799750000001    0.025428470000000002
    45   1      16.235159400000001      18.746805200000001    0.025487360000000001
    46   1      20.293976919999999      18.746805200000001    0.025487360000000001
    47   1      24.352761730000001      18.746799750000001    0.025428470000000002
    48   1             28.41155929      18.746803499999999    0.025222040000000001
    49   1      2.0293964600000001      22.261939099999999    0.025844880000000001
    50   1      6.0881419299999999      22.261841799999999    0.025489439999999999
    51   1             10.14692954             22.26176895              0.02551757
    52   1             14.20573559      22.261804690000002    0.025639160000000001
    53   1             18.26456816             22.26178625    0.025640119999999999
    54   1      22.323400729999999      22.261804690000002    0.025639160000000001
    55   1      26.382206780000001             22.26176895              0.02551757
    56   1             30.44099439      22.261841799999999    0.025489439999999999
    57   1  5.6450000000000003e-05      25.776936450000001              0.02613327
    58   1      4.0587364700000004      25.776936450000001              0.02613327
    59   1      8.1175325399999991              25.7767713    0.024734180000000001
    60   1      12.176376469999999      25.776831090000002              0.02545323
    61   1      16.235145939999999      25.776775220000001    0.025273360000000002
    62   1             20.29399038      25.776775220000001    0.025273360000000002
    63   1      24.352759840000001      25.776831090000002              0.02545323
    64   1      28.411603769999999              25.7767713    0.024734180000000001
    65   1  0.00024266000000000001              2.34304215     0.80166565000000001
    66   1      4.0585502699999996              2.34304215     0.80166565000000001
    67   1      8.1157394600000003              2.34454954     0.80169402000000001
    68   1             12.17601256      2.3433829099999999     0.80116898000000003
    69   1      16.235258170000002      2.3433209100000001     0.80090046999999998
    70   1      20.293878150000001      2.3433209100000001     0.80090046999999998
    71   1      24.353123750000002      2.3433829099999999     0.80116898000000003
    72   1      28.413396859999999              2.34454954     0.80169402000000001
    73   1      2.0293964600000001      5.8582218700000004     0.80119762000000005
    74   1      6.0870566899999998      5.8583336700000004              0.80194851
    75   1             10.14649655              5.85853131     0.80121584000000001
    76   1             14.20597894      5.8582938599999999     0.80086840999999998
    77   1             18.26456816      5.8583798500000004               0.8010794
    78   1      22.323157380000001      5.8582938599999999     0.80086840999999998
    79   1             26.38263976              5.85853131     0.80121584000000001
    80   1      30.442079629999999      5.8583336700000004              0.80194851
    81   1  0.00019438999999999999      9.3717771800000005     0.80082061000000004
    82   1      4.0585985400000002      9.3717771800000005     0.80082061000000004
    83   1      8.1175070500000004      9.3725002699999997     0.80149060999999999
    84   1      12.176590020000001      9.3733583399999993     0.80088261999999999
    85   1             16.23512199      9.3733789200000004              0.80106506
    86   1             20.29401433      9.3733789200000004              0.80106506
    87   1      24.352546289999999      9.3733583399999993     0.80088261999999999
    88   1      28.411629269999999      9.3725002699999997     0.80149060999999999
    89   1      2.0293964600000001             12.88692854     0.80220621000000003
    90   1      6.0883212999999996             12.88743848     0.80138414999999996
    91   1      10.147128609999999             12.88859852     0.80085256000000005
    92   1             14.20571782      12.888558189999999     0.80113791000000001
    93   1             18.26456816      12.888409899999999     0.80109381000000002
    94   1      22.323418490000002      12.888558189999999     0.80113791000000001
    95   1             26.38200771             12.88859852     0.80085256000000005
    96   1      30.440815019999999             12.88743848     0.80138414999999996
    97   1              0.00012365      16.403222639999999     0.80145666999999998
    98   1      4.0586692700000002      16.403222639999999     0.80145666999999998
    99   1      8.1174337899999998      16.403825260000001     0.80097196999999998
   100   1              12.1761021             16.40390721     0.80133072000000005
   101   1             16.23503496      16.403861750000001     0.80140014999999998
   102   1      20.294101359999999      16.403861750000001     0.80140014999999998
   103   1      24.353034220000001             16.40390721     0.80133072000000005
   104   1      28.411702529999999      16.403825260000001     0.80097196999999998
   105   1      2.0293964600000001      19.919205120000001     0.80066369999999998
   106   1              6.08752564             19.91894023     0.80122479000000002
   107   1      10.146078839999999             19.91919038     0.80159137999999996
   108   1      14.204993419999999              19.9192584     0.80178742000000003
   109   1             18.26456816      19.919377350000001     0.80194975999999996
   110   1      22.324142899999998              19.9192584     0.80178742000000003
   111   1      26.383057470000001             19.91919038     0.80159137999999996
   112   1      30.441610669999999             19.91894023     0.80122479000000002
   113   1              0.00142012      23.434536609999999     0.80178442000000005
   114   1      4.0573728100000004      23.434536609999999     0.80178442000000005
   115   1      8.1165862000000004      23.433936769999999     0.80182306000000003
   116   1             12.17555218      23.433996919999998     0.80156656000000004
   117   1             16.23465491      23.434040110000002     0.80170828999999999
   118   1      20.294481409999999      23.434040110000002     0.80170828999999999
   119   1      24.353584130000002      23.433996919999998     0.80156656000000004
   120   1      28.412550110000002      23.433936769999999     0.80182306000000003
   121   1      2.0293964600000001      26.949875330000001              0.80297246
   122   1      6.0858208300000003      26.950066320000001              0.80215291
   123   1             10.14598146      26.949241430000001     0.80165810000000004
   124   1             14.20520604      26.948673230000001     0.80131923999999999
   125   1             18.26456816             26.94858318     0.80108193999999999
   126   1      22.323930279999999      26.948673230000001     0.80131923999999999
   127   1      26.383154860000001      26.949241430000001     0.80165810000000004
   128   1             30.44331549      26.950066320000001              0.80215291
   129   1      32.491862939999997   -0.032595899999999997               1.3876449
   130   1      4.1056790799999998   0.0077048799999999999              1.44281255
   131   1      8.2048347699999997      28.311220540000001      1.5153348900000001
   132   1      12.142384910000001   -0.081980410000000004              1.44220926
   133   1      16.192263690000001   -0.086390159999999994      1.2301885699999999
   134   1      20.327648119999999              -0.1082688              1.43140869
   135   1      24.361404950000001   -0.069104650000000004               1.4079271
   136   1      28.424315239999999    -0.22186573000000001      1.4530884399999999
   137   1              1.99290726      3.4399931499999998      1.5516456999999999
   138   1      5.9329553400000004      3.5822957799999999              1.43505664
   139   1      10.056470790000001      3.4562885200000002              1.13212102
   140   1      14.202917129999999      3.4033586900000001      1.4618754700000001
   141   1              18.2335122      3.4458266200000001              1.41652709
   142   1      22.401250839999999      3.5749057799999999      1.4062038299999999
   143   1      26.240256219999999      3.6173632200000001      1.2674523200000001
   144   1             30.38238028      3.3651574900000001              1.52748255
   145   1             32.46245296      7.0737045199999997      1.4771164699999999
   146   1      4.2125925300000002      7.1312439799999998              1.47512771
   147   1      8.2233394099999995      7.1080239699999996              1.50195283
   148   1             12.21040857      6.9712952100000001      1.5304155500000001
   149   1      16.223977980000001      6.9859417500000003              1.03411385
   150   1             20.35409237      7.0799790199999997      1.5322617000000001
   151   1             24.18052874      6.9955361399999996      1.4602704799999999
   152   1      28.535596689999998      6.9582297999999998      1.4825816700000001
   153   1      1.9780133499999999      10.349864930000001      1.3246777000000001
   154   1      6.2963546099999999             10.56113715              1.57812464
   155   1             10.19116884               10.625767              1.41594928
   156   1             14.21408463      10.498944939999999              1.22816423
   157   1             18.27909872             10.66463364              1.70099164
   158   1             22.33297147             10.64165816              1.39437218
   159   1      26.276489720000001             10.62281557      1.5171304400000001
   160   1      30.466536309999999      10.426410349999999      1.3784464000000001
   161   1      32.538192039999998      14.092332649999999              1.45250564
   162   1      4.0969084000000002             14.11723609              1.26873517
   163   1              8.08418949             14.00044205      1.5566817100000001
   164   1             12.26570465      14.009206750000001              1.42680304
   165   1      16.445028560000001             14.03589421              1.65797774
   166   1             20.35239258      14.006308410000001      1.3446194199999999
   167   1             24.32527284             14.00217252      1.3224594999999999
   168   1             28.51052421             14.11660301      1.4921566399999999
   169   1      2.1153432300000001      17.559939270000001              1.37568194
   170   1      5.9982913900000003             17.52283521              1.45158571
   171   1      10.108787299999999      17.573088009999999      1.4934304700000001
   172   1             14.08545399             17.60449401      1.2972735900000001
   173   1             18.15356491      17.458101289999998      1.4566155199999999
   174   1      22.285626669999999      17.543374360000001              1.46272647
   175   1      26.372262370000001             17.53803031      1.5753327699999999
   176   1              30.4269225      17.545710060000001      1.4426752899999999
   177   1      32.572816549999999      21.121765190000001      1.5363988900000001
   178   1      4.0823785900000003      20.999240010000001              1.36090489
   179   1      8.0481579399999994      21.076345589999999              1.38701483
   180   1             12.09916664             21.08935322      1.5305040999999999
   181   1      16.194369160000001      21.375461869999999              1.50479626
   182   1      20.459650610000001      20.987857170000002              1.31844502
   183   1             24.43883834      21.131847319999999      1.5912944600000001
   184   1             28.21423583      21.171524680000001      1.5003754600000001
   185   1              1.99156266      24.678618320000002      1.5473170999999999
   186   1      6.0370969600000004             24.60423815              1.46789799
   187   1             10.08572893      24.550668559999998      1.4798778800000001
   188   1             14.20817111      24.461955840000002      1.6150143100000001
   189   1      18.275388769999999      24.597397440000002              1.47536822
   190   1      22.551225899999999      24.568641270000001              1.67761206
   191   1      26.368834119999999      24.570152700000001              1.41142094
   192   1      30.429705550000001      24.566555189999999              1.55361339
   193   1              2.06164668      1.0566679400000001      2.4857004900000002
   194   1      5.9260488899999997              1.23985937      2.4004221600000002
   195   1             10.20574105      1.2366317499999999              2.27196599
   196   1             14.12333512              1.11491001              2.34588091
   197   1      18.104298589999999      1.0753965000000001      2.4085727000000001
   198   1             22.21970284      1.0029429599999999      2.2866813399999999
   199   1             26.42799222      1.2757725900000001      2.3795074600000001
   200   1             30.42158023              1.00088398      2.4097326799999998
   201   1   -0.092293970000000003      4.7061025699999997      2.3249320099999999
   202   1      4.0345550899999996      4.7012373700000003      2.3208641399999999
   203   1      8.1474731899999995      4.6967240600000002              2.39190054
   204   1      12.181264029999999      4.7594589100000002      2.4627368999999999
   205   1      16.080449439999999      4.7168783300000001              2.26121295
   206   1      20.441770810000001      4.5912984899999998              2.39930523
   207   1      24.324919959999999      4.8765682899999998      2.4669890400000001
   208   1             28.43271322      4.7411092899999998      2.2642216500000001
   209   1      2.0692829599999998      8.1679174200000002      2.5507365499999999
   210   1      6.0559953699999998      8.1215719600000007      2.3647015699999998
   211   1             10.12824812      8.1747387400000004      2.4097635300000002
   212   1      14.290658240000001      8.3922428599999996      2.3748705800000001
   213   1      18.321349040000001      8.2466558699999997      2.4296810199999999
   214   1             22.20074267      8.3473538499999993      2.4770766100000001
   215   1              26.6812319      8.1222496399999997      2.3673294199999999
   216   1      30.512065679999999      7.9721704000000004              2.53378104
   217   1      32.522094420000002      11.661414300000001              2.51478761
   218   1      4.0193920800000003             11.79199961              2.44165192
   219   1      8.1688559600000001      11.760065600000001      2.4113310600000002
   220   1             12.33297007      11.575860840000001               2.5048271
   221   1      16.203802369999998      11.711999430000001      2.3031842299999998
   222   1              20.1671753             11.98135549      2.3541866100000002
   223   1             24.24363065             11.84864814              2.30371886
   224   1      28.461527400000001             11.69763086      2.2858498799999998
   225   1      2.2009750100000001      15.401546939999999      2.3913607200000002
   226   1      6.0406201299999998             15.18551192      2.5080823799999998
   227   1      10.335772009999999             15.30458881      2.3255062799999999
   228   1      14.384337759999999             15.34350998      2.4207933399999999
   229   1      18.236438029999999      15.147960919999999      2.5373005200000001
   230   1              22.2202956             15.13349653      2.4140001500000001
   231   1             26.43342548             15.19191052               2.4155929
   232   1      30.341963639999999             15.22926197              2.40578695
   233   1    0.024327519999999998      18.499388920000001      2.3773426199999999
   234   1      4.0838471500000004      18.822464010000001      2.3636379700000001
   235   1      8.2063386099999995      18.664963279999998              2.26760034
   236   1      12.101859729999999             18.52020821      2.4894451599999998
   237   1             16.36674799      18.898873080000001              2.48857404
   238   1             20.30690603      18.680107240000002      2.3208884300000001
   239   1      24.263852740000001      18.695419569999999      2.3486379899999998
   240   1      28.331280100000001             18.65014858      2.5105777100000002
   241   1      2.0877727799999999             22.27513519      2.4990637000000002
   242   1      5.9926696699999997      22.195024740000001      2.4217676899999998
   243   1      9.9906504999999992             22.15644382              2.42151279
   244   1      14.257586099999999             22.14288024      2.5050392399999999
   245   1      18.309052779999998      22.286671869999999      2.4550825999999999
   246   1      22.447958400000001             22.24276394      2.3764422000000001
   247   1             26.38468245             22.36236997      2.4182464299999999
   248   1      30.358901500000002      22.042562709999999      2.4078519100000002
   249   1   -0.058915000000000002             25.88944502              2.44545843
   250   1      4.0772254700000001      25.925084500000001      2.5208128699999999
   251   1      8.1473261800000003             25.85669953      2.3863079599999999
   252   1      12.176489220000001      25.687131619999999      2.3051388500000001
   253   1      16.324791449999999             25.81943102      2.3333293500000001
   254   1      20.466125819999998      25.647981909999999      2.4066619299999998
   255   1      24.379368270000001             25.92166679      2.5158548600000001
   256   1      28.318180219999999      25.671167570000001      2.6237678999999998
   257   1      32.552979899999997              2.27370465      3.1746813600000001
   258   1      4.0330716100000004              2.50562262      3.3412620500000001
   259   1      8.0336610400000001      2.3250572100000002      3.1643046500000001
   260   1             12.26584377      2.2993831600000001      3.1636646499999999
   261   1      16.319779830000002               2.3248278      3.1991306399999999
   262   1      20.103975429999998      2.4453428800000001      3.1508782900000001
   263   1             24.53166057               2.5482494      3.2014304299999998
   264   1      28.525914950000001      2.2322195800000002      3.2728729799999998
   265   1              1.93884127      5.7435259800000003      3.3776916300000002
   266   1      6.0637944900000003              5.75467204      3.2336376100000002
   267   1      9.9928311700000005      5.8699127200000003      3.4889815099999999
   268   1      14.377647570000001              5.99049283              3.27476901
   269   1      18.200615519999999      5.8234849400000002              3.27798429
   270   1      22.228954519999998      6.0864400500000002      3.1574130999999999
   271   1      26.517752120000001      5.7642707700000004      3.2129392000000001
   272   1      30.341852400000001      5.7367779199999998      3.1414472099999999
   273   1    -0.12234572000000001              9.33054396      3.1395800999999999
   274   1      4.1623742999999997      9.4484056400000007      3.3322508700000002
   275   1      8.3292917800000001      9.5483903399999992              3.15046187
   276   1             12.23047935      9.3072399699999995      3.1596633299999999
   277   1      16.223255290000001      9.3679576900000008      3.3565087899999999
   278   1      20.264987260000002      9.5159997500000006      3.4155285599999998
   279   1      24.273779659999999      9.3370031999999998      3.2521776400000002
   280   1             28.50882867      9.3151633999999994      3.1377417799999998
   281   1              1.97846568             12.92876465      3.2672404400000001
   282   1      6.0660575999999997      12.787454840000001      3.3257383699999998
   283   1      10.408401339999999      12.895715300000001      3.1140212100000002
   284   1      14.330611660000001      12.925317509999999      3.3894296599999998
   285   1      18.135186390000001             12.84436358      3.4215701300000001
   286   1             22.40831507             12.84888896      3.1186321000000001
   287   1      26.494613470000001      12.961327450000001      3.2744942300000002
   288   1      30.291123549999998             12.89176228      3.2278793000000001
   289   1   -0.068558900000000006      16.303776490000001               3.3009871
   290   1      4.1891798600000003      16.563094320000001              3.26004893
   291   1      8.1904304200000002      16.465358680000001      3.3683850199999998
   292   1             12.21477213      16.303098500000001      3.3152982600000001
   293   1               16.316979      16.471842890000001      3.3119960900000001
   294   1      20.243220969999999             16.36117746      3.2043103400000001
   295   1      24.343860209999999      16.358221910000001              3.31608671
   296   1      28.539635690000001      16.567586429999999              3.29981203
   297   1      1.9847479400000001             19.84046403      3.2834664999999998
   298   1      6.1127667600000004             19.96831379              3.45657199
   299   1             10.15205351      19.846434800000001      3.1991662399999998
   300   1             14.16242585             19.86938456      3.3755216699999999
   301   1      18.302632800000001             19.85661619      3.2791257800000002
   302   1      22.290934190000002      20.006935800000001      3.1956266800000002
   303   1      26.334015539999999      19.984254849999999      3.3038773400000001
   304   1      30.431979699999999             19.87353367      3.2114274599999999
   305   1    -0.22583930999999999              23.3643079      3.2355413199999998
   306   1      3.8443139500000001             23.43655673      3.2266561999999999
   307   1      8.0759411700000001      23.464387840000001      3.1610254499999999
   308   1             12.16447189      23.505984170000001              3.39080205
   309   1      16.310635619999999      23.490597940000001      3.1834845899999999
   310   1      20.400653689999999             23.17995668      3.3719354400000001
   311   1      24.269524029999999             23.48131111              3.24391469
   312   1             28.44931914      23.334571270000001              3.25574238
   313   1      2.0188806600000002      26.996369210000001              3.26689768
   314   1      6.1738045399999999                26.93608      3.2509259199999998
   315   1              10.0492405              27.0562121      3.3341740600000001
   316   1             14.04322333      26.915647150000002      3.2501721099999998
   317   1             18.36377134             26.79399313      3.3406604199999999
   318   1      22.389987770000001             26.96240551      3.4685801999999999
   319   1      26.414439890000001      26.929042450000001      3.3588039900000002
   320   1      30.312834720000001      27.035983089999998      3.4959154799999999
   321   1      32.562881410000003      28.249773050000002      3.9740536500000001
   322   1      4.0788216400000001             28.22842808      4.1531977500000004
   323   1      8.0615943699999999      28.179231210000001      4.2661274200000001
   324   1      12.089857930000001   0.0046009400000000004      3.9355080600000001
   325   1             16.31722765   -0.049920600000000002      3.9321293000000002
   326   1             20.25102145             28.19635804      4.1745389900000003
   327   1             24.32462799             28.26442256      4.0382913699999996
   328   1      28.323277950000001    0.043397350000000001      4.2261005200000001
   329   1      2.0351938700000001      3.6497819599999999      4.0784752400000004
   330   1      6.1246482599999998              3.40290121      3.9928655700000002
   331   1             10.05469856      3.3249187999999998      4.1037922800000004
   332   1      14.277119389999999      3.6740739200000001      3.9485284300000001
   333   1      18.287743670000001      3.6032399499999999      4.0770658199999996
   334   1             22.24846617      3.7351384599999999      3.9289395900000001
   335   1      26.528004330000002      3.5643590299999999      4.0512055599999997
   336   1      30.422103719999999      3.3847468100000002      4.1457898599999998
   337   1    -0.13136532000000001      6.8502212199999999      4.0583176099999996
   338   1      3.9713468299999999      6.9251108300000004      3.9868716399999999
   339   1      7.9443954000000003              7.04702362      4.0335547099999998
   340   1             12.19544565      7.0705067000000001      4.0933704300000002
   341   1      16.174901729999998      7.0992667200000001      4.0630118499999996
   342   1      20.361843499999999      7.1586377700000003      4.0741347299999999
   343   1      24.354919890000001              6.98046042      3.9693517599999999
   344   1      28.487414059999999              7.09014845      3.9904185299999999
   345   1      2.0511419399999999             10.33100533              4.15378369
   346   1      6.2408027300000004             10.68138405              4.11630597
   347   1      10.336192629999999      10.461491000000001              3.97856553
   348   1      14.126409519999999      10.502348980000001      4.1372646399999997
   349   1      18.056093539999999      10.700744930000001      4.2289699000000001
   350   1      22.323516640000001             10.56616472      4.0362262099999997
   351   1      26.280854340000001             10.53611349      3.9648319399999998
   352   1      30.281729439999999      10.519190650000001              3.87354888
   353   1   -0.086392640000000007      13.950333329999999      4.0134984600000001
   354   1      4.0433742199999996             14.13878742      4.0312356300000003
   355   1      8.2879373100000002             14.15949698      3.9526112200000001
   356   1             12.27483413      14.030771769999999               4.1005303
   357   1             16.17665676             14.28542751              4.21360416
   358   1      20.473362519999998             13.97805443      3.9921266900000001
   359   1      24.284094509999999      14.093656429999999      3.9607966999999999
   360   1      28.343861610000001             14.08358428              4.00568978
   361   1      2.1067640500000002             17.57940576      4.0014357499999997
   362   1      6.1740627300000002             17.54689127      3.9416905999999998
   363   1             10.23070549      17.566834060000001      4.2704781299999999
   364   1      14.176032169999999             17.56772599      3.9465623999999999
   365   1             18.33754712      17.646072780000001      4.1210728599999999
   366   1      22.345580699999999      17.618997190000002      3.9599555500000001
   367   1              26.3446046      17.472591120000001      4.0434992100000002
   368   1      30.493431380000001               17.641022      4.1327922199999998
   369   1   -0.060316340000000003      21.244226229999999      4.0909977099999999
   370   1              4.01124934      21.081151479999999      4.0077623300000003
   371   1      8.1236898199999992      21.036633479999999      4.2152924000000001
   372   1             11.94108969             21.17101336      4.1081021499999997
   373   1             16.26101856      21.136278770000001              3.99212312
   374   1      20.257968699999999      21.000075370000001      4.0149658099999996
   375   1      24.199767659999999      21.056068239999998              4.18699054
   376   1      28.395804779999999      20.987471750000001      4.1216911400000003
   377   1      1.8555991700000001      24.653308020000001      4.0341317099999996
   378   1              5.90128655      24.529619570000001              3.97073908
   379   1             10.06654221      24.652616099999999              4.12964369
   380   1      14.159798739999999              24.6259297      4.0073577800000004
   381   1      18.421212740000001             24.54725432              4.16516441
   382   1      22.476068439999999      24.675957019999998      4.0959548300000002
   383   1      26.491492050000002      24.534965629999999              4.30140469
   384   1             30.36095868      24.467233650000001      4.1023362600000004
   385   1              1.93284561               1.1257465      4.9879004800000004
   386   1      6.0705452800000002      1.1735068799999999      5.0628966599999998
   387   1      9.9885506700000004     0.92584118000000004      4.9944205699999999
   388   1      14.299201849999999      1.1369777700000001      4.7382746500000001
   389   1             18.16356631      1.2874301699999999      5.0101756799999997
   390   1      22.390171519999999      1.0961770399999999              4.87983762
   391   1      26.564704689999999              1.27994315      5.0757421100000002
   392   1             30.53875348      1.2167584300000001      4.9196423999999999
   393   1  -0.0091444200000000003      4.6937339199999997      4.9252415000000003
   394   1      3.9768260600000001      4.5217755000000004      5.0081996699999998
   395   1      8.1512611499999998      4.6047172600000001      4.9839013400000001
   396   1             12.34128445      4.7680586500000004      5.0451549599999996
   397   1      16.102042149999999      4.7957612300000001              4.91269562
   398   1      20.361339730000001      4.8441304000000001      4.7822327900000001
   399   1             24.42962996      4.7642622100000001      5.0004213499999999
   400   1      28.480575550000001      4.7414689499999998      4.8248325200000002
   401   1      2.1068706599999998      8.1031037399999999      4.9147874600000003
   402   1      6.2314374499999996      8.3841233400000004      4.8499641000000002
   403   1      10.180420740000001      8.0993118000000006      5.2079088599999999
   404   1      14.164836340000001      8.2118075699999995      5.0315298999999998
   405   1      18.319791609999999      8.3193004800000008              4.84602222
   406   1      22.420922019999999      8.1248909299999994              5.04663986
   407   1      26.324050150000001      7.9567966800000001      4.8114934199999997
   408   1             30.44468882      8.1998852099999997              4.94988312
   409   1             -0.12509196      11.751273769999999      4.9843957200000002
   410   1      4.0081378499999998              11.7719855      4.8885572399999999
   411   1      8.1475648100000004             11.74991852      4.8186887599999997
   412   1      12.234494740000001             11.65899001              4.95423496
   413   1      16.140580830000001             11.90188908      5.0252568000000002
   414   1      20.239802449999999      11.700776019999999      4.9713919100000004
   415   1      24.371632989999998             11.69071989      4.9378143899999998
   416   1      28.538312789999999             11.72774476      4.9026140700000003
   417   1      1.9744737299999999             15.29992215      4.9453542099999996
   418   1      6.4194707400000004      15.175790170000001      4.9580771800000001
   419   1             10.08393322      15.163235999999999      5.0994325700000003
   420   1      14.268871539999999             15.37175264      5.0286717699999999
   421   1      18.312349009999998             15.37276739      4.9515778499999996
   422   1      22.287098090000001              15.0918253      5.0185127600000001
   423   1             26.46384677             15.28410281      4.8307951999999998
   424   1             30.33694332      15.286424090000001              4.97303959
   425   1    0.014680250000000001             18.80110814              4.85096945
   426   1              4.14621598      18.731791439999999              4.70928082
   427   1      8.1662813199999995      18.681060639999998      4.9431255199999997
   428   1             12.08360577             18.74717532      5.1425894100000002
   429   1             16.00720158             18.52608025      5.0399534700000004
   430   1             20.37876851      18.682383980000001      4.9373892599999998
   431   1      24.447159840000001             18.74458417      4.8975864500000004
   432   1      28.364941259999998      18.605585949999998      4.8553146600000003
   433   1      1.9233029399999999      22.250821049999999      4.8435499699999998
   434   1      6.0521634600000001      22.118021710000001      4.8823367400000004
   435   1      10.055980249999999             22.27682884      4.9902253400000003
   436   1      14.150403320000001      22.289815699999998      4.9831385900000003
   437   1      18.176565870000001             22.08602591      5.0000663200000002
   438   1      22.225342399999999      22.232373259999999      5.0383721399999999
   439   1      26.405326639999998             22.03305245              4.76372076
   440   1             30.42126541      22.191169909999999      5.0390609099999999
   441   1      32.416895410000002      25.927737100000002      4.8407298799999996
   442   1      4.1717784900000003      25.713077160000001      4.9694717700000002
   443   1      8.0819696800000003      25.847559400000002      4.9098039900000003
   444   1      12.038952549999999      25.821189579999999      4.9610440000000002
   445   1              16.1226974             25.76847587      4.8268427200000001
   446   1      20.244284140000001      25.679260580000001      4.8286821199999999
   447   1      24.594423460000002      25.653766529999999               5.0754883
   448   1      28.574480529999999             25.80502328      5.0886082400000001
   449   1      32.431867179999998      2.3985171900000002      5.6530018200000001
   450   1      4.0165267599999996      2.2525869699999999      5.8829619600000003
   451   1      8.2432362399999999              2.42108086      5.8893127700000001
   452   1              12.3147912      2.3972502699999998      5.7761729099999997
   453   1      16.274009110000001      2.3783407200000002      5.6691018599999996
   454   1      20.504169709999999      2.4286801800000002              5.48037698
   455   1      24.422860799999999      2.4347730699999999              5.86052952
   456   1      28.512122869999999      2.3957868499999999      5.7145161599999996
   457   1      1.8464472199999999      5.8146644600000004              5.83154518
   458   1      6.0126828899999998      6.2190608899999997      5.5888090400000001
   459   1             10.34236411      5.8348242900000002      6.0172758799999997
   460   1      14.129484529999999      5.8014290900000001              5.89592983
   461   1             18.23041555              5.93290088      5.6839694200000004
   462   1      22.322552330000001      5.8555335099999999      5.8469741099999997
   463   1      26.363062670000001               5.7001754      5.8048019200000001
   464   1      30.288449199999999      5.7903310499999998      5.6713207499999996
   465   1             32.53387944      9.4030273999999991      5.6543948100000003
   466   1      4.0007640100000001      9.3679852799999992      5.8563339599999997
   467   1      8.1719655699999993      9.3777471099999996      5.6375468499999997
   468   1             12.23104474      9.3083215100000007              5.78811096
   469   1      16.123156030000001      9.3813863600000005      5.8750003099999999
   470   1      20.351477589999998              9.47202594              5.86071338
   471   1      24.306830730000001      9.2654340499999996      5.6849379400000002
   472   1             28.36914037      9.3842892199999994      5.5975742400000001
   473   1      2.0344529900000001      12.902590719999999      5.8490346799999999
   474   1      6.0559420299999998             12.91310584      5.9463034099999996
   475   1              10.2290212      12.799873549999999      5.9134782599999998
   476   1              14.1122748              13.0181939      5.9124047199999996
   477   1      18.310231900000002             12.89484607      5.7634490899999999
   478   1             22.37790133      12.812245750000001              5.75548181
   479   1      26.273137179999999      12.865631649999999      5.6775583200000002
   480   1      30.434821830000001             12.84370949      5.8820900299999996
   481   1   -0.015420410000000001             16.37408005      5.7670220399999996
   482   1      4.0892198799999999             16.28257138              5.63326422
   483   1      7.9903444800000001      16.498281609999999      5.9709776400000001
   484   1             12.09423219      16.392980829999999              5.98698117
   485   1      16.370376400000001      16.254282799999999      5.8316225900000003
   486   1      20.228489400000001      16.421423109999999      5.8296797600000003
   487   1      24.376588309999999      16.466860310000001      5.8163660000000004
   488   1      28.363283339999999      16.511471669999999      5.9645147600000001
   489   1              2.00917857      19.981783180000001      5.7354395599999997
   490   1              6.11808672      19.787465529999999      5.7680146299999997
   491   1             10.14870209      19.791512139999998      5.6633607100000001
   492   1      14.062788640000001      19.980123469999999      5.8322033299999996
   493   1      18.209722299999999      19.936853729999999      5.5659400400000001
   494   1      22.267747960000001             20.09775793      5.8190951499999999
   495   1             26.35358673      19.857286389999999      5.8273027900000001
   496   1      30.464702110000001             20.00313483      5.4833387900000004
   497   1   -0.080001310000000006      23.490531870000002      5.7729753400000003
   498   1      4.1508217600000004      23.347169350000001      5.8436688600000002
   499   1      8.0730500500000009      23.608689569999999              5.77941387
   500   1      12.134103140000001      23.448795329999999      5.8955583000000003
   501   1             16.05726941      23.676492509999999      5.6645189299999998
   502   1             20.22726887      23.369972090000001      5.7443396499999997
   503   1             24.42091181      23.525742569999998              5.85234875
   504   1      28.446154029999999             23.39527825      5.7504316299999996
   505   1              1.94609886      26.911508420000001              5.76552665
   506   1      6.0095953399999997             26.76048243      5.8070286600000003
   507   1      10.109734270000001      26.751447800000001      5.8202292399999997
   508   1             14.10218025             27.18995932               5.5619869
   509   1             18.23423227      26.982277010000001      5.5822311400000002
   510   1      22.171001839999999      26.947292869999998              5.81186398
   511   1      26.448526520000001      27.086642250000001      5.9007544899999997
   512   1      30.594228650000002      26.903319069999998      5.8166914399999996
   513   1             32.73138737      28.402885090000002      6.8340724699999997
   514   1      4.0087138199999997      28.011331609999999      6.4889075199999997
   515   1      8.0845644599999993             -0.07706093      6.5356858000000004
   516   1              12.1428248      28.226101119999999              6.59929904
   517   1             16.22304858   -0.030897930000000001      6.3471587899999999
   518   1      20.177515849999999    0.052391649999999998      6.5559720600000002
   519   1      24.337437909999998             -0.00307566      6.4679429800000001
   520   1      28.358257869999999      28.277632329999999      6.7265141399999999
   521   1      2.2695145000000001              3.42856491      6.6311005700000001
   522   1              6.01884949              3.61281265      6.6986570900000002
   523   1             10.26327899      3.4085193500000002      6.6286236699999996
   524   1             14.24822906      3.5577459500000002      6.5621450399999999
   525   1      18.058548890000001      3.3356300600000002      6.4314882600000001
   526   1      22.299186250000002      3.4779366399999998      6.6977691699999999
   527   1      26.650365539999999      3.5704921199999999      6.7321477500000002
   528   1      30.421596829999999      3.4198130899999999      6.6024579499999998
   529   1   -0.012689509999999999              7.11443549      6.3934134499999997
   530   1      3.9297280300000001      7.0367861899999999      6.6259942000000001
   531   1      7.9110625399999996      7.1453059000000003      6.6292971700000001
   532   1             12.38914363      7.0155495200000004      6.8450374900000002
   533   1             16.36770975      7.1161723099999996              6.57823329
   534   1      20.280227719999999      7.1226156200000004      6.6134240999999996
   535   1      24.310204819999999      6.9777593600000003      6.6390102400000002
   536   1      28.299387379999999      7.0967073999999997      6.4931340300000002
   537   1      2.0590888500000002             10.53814103      6.4970866000000003
   538   1      6.1691106500000004      10.544475159999999      6.6176704300000004
   539   1      10.129874709999999             10.45072371      6.7078413299999999
   540   1             14.14934828      10.557146879999999      6.8567484800000003
   541   1             18.22851348             10.59278988      6.5813619799999996
   542   1      22.360995639999999             10.42013086      6.5387695099999998
   543   1      26.333020609999998      10.351595570000001      6.3136011099999996
   544   1      30.513818489999998             10.64353406      6.6522275899999999
   545   1    0.017274109999999999             14.08369239      6.6135897300000002
   546   1              4.10218974      14.009778499999999      6.6340913700000002
   547   1              8.09826683             13.85439424      6.7211405700000002
   548   1             12.10103563      13.919516939999999      6.6154187799999997
   549   1             16.19183752             14.02616763      6.8021361799999998
   550   1      20.272615429999998             14.02747314      6.6165879700000003
   551   1      24.270981519999999      14.058947440000001      6.4686274800000003
   552   1             28.40494236             14.01145301      6.5511931900000002
   553   1              2.05608521      17.537831319999999      6.4490235900000004
   554   1      5.9490882999999997      17.404954780000001      6.6613947800000002
   555   1      9.9389367499999999      17.538514960000001      6.8109837500000001
   556   1      14.297704510000001      17.502416539999999      7.0016258999999996
   557   1             18.15608143      17.509691310000001              6.66504064
   558   1      22.399911339999999              17.5473529      6.5623193200000003
   559   1      26.334419610000001      17.611413899999999      6.4405499600000002
   560   1      30.470522469999999      17.563942059999999              6.61224232
   561   1      32.544353319999999      21.273768960000002      6.6588006999999996
   562   1      4.1748387400000002             21.11080098      6.4560142000000003
   563   1      8.1400572199999992      21.104682449999999      6.6310612300000003
   564   1              11.9824967      21.062160769999998      6.6893240199999999
   565   1      16.277968099999999             20.98028073      6.5738202499999998
   566   1              20.2662242      21.024200990000001      6.5525333699999999
   567   1      24.328705670000002      21.223946089999998      6.6935763000000001
   568   1             28.48819348      21.078491159999999      6.6641474900000004
   569   1      1.9800017000000001      24.559913980000001      6.6744361100000003
   570   1      6.0535047500000001      24.583133459999999              6.46897725
   571   1      9.9970937299999996             24.46332877      6.6772421199999998
   572   1             14.17359639      24.750634269999999      6.7588721200000004
   573   1      18.249007209999998      24.650722890000001      6.5309505100000003
   574   1      22.292142930000001      24.673324130000001      6.3364919100000003
   575   1      26.430379389999999             24.59558474      6.6837363099999996
   576   1      30.384766719999998      24.608681109999999      6.7740789000000001
   577   1      1.9955632699999999               1.1768452      7.7010773099999996
   578   1      6.0723117100000001     0.89551188999999998      7.3617047600000003
   579   1             10.02121212      1.1428703600000001      7.2980778900000001
   580   1      14.241046089999999                1.221573      7.2794416799999997
   581   1      18.362647920000001      1.1830516799999999      7.5745224599999998
   582   1             22.38270808              1.17058833      7.5612527099999998
   583   1      26.420978980000001      1.3171159299999999      7.3988385699999997
   584   1      30.574773180000001              1.17193386      7.5470251399999997
   585   1   0.0059298500000000004      4.7111065300000003      7.2937604399999998
   586   1      3.9239721400000001      4.7000712199999999      7.4992379500000004
   587   1      8.0883400999999999      4.7375229900000004      7.3235807399999997
   588   1      18.297427039999999      3.4816068200000001      8.9521236799999997
   589   1             16.23523887      4.9445412299999996      7.3918955999999998
   590   1      20.302787930000001      4.8946201699999996              7.34307423
   591   1      24.464775580000001      4.6719000099999999      7.3426916899999997
   592   1      28.686456969999998      4.8624816800000001      7.2793748300000001
   593   1              1.92540588      8.4601829399999993      7.4752718900000001
   594   1      5.8168285700000002      8.1857684099999997               7.4217255
   595   1             10.28076699      8.2073086800000006      7.7757142799999999
   596   1             14.44208296      8.2483060100000003      7.6869713500000003
   597   1      18.219549229999998      8.3865723600000006      7.6835485500000003
   598   1      22.383136969999999      8.2375830699999995      7.6391732799999996
   599   1      26.408962079999998      8.0883225000000003      7.1592037399999997
   600   1             30.39429647      8.2985795099999997      7.1979759699999999
   601   1      32.553501359999998             11.70543668      7.5041413400000003
   602   1      4.1223855199999999             11.63727752      7.4091683599999998
   603   1      8.0103659100000009             11.67852896      7.6348082799999997
   604   1             12.15473068             11.78145372              7.74184888
   605   1      24.617577600000001              6.83435361      9.4185420999999998
   606   1             20.52718393             11.80297455      7.3012110100000003
   607   1      24.488541130000002      11.709149849999999      7.4552505699999996
   608   1             26.55046974      8.2006754500000003      9.4404045599999993
   609   1      2.2007260400000002      15.254929089999999      7.4224358199999996
   610   1      6.0799705199999998      15.061473790000001      7.6064171800000002
   611   1      12.148053600000001      16.382352910000002      8.3650311899999998
   612   1      14.055881319999999             15.22978838      7.6481353600000004
   613   1      18.173916909999999      15.419417190000001      7.7096560299999997
   614   1             22.41643698             15.34250188      7.5505975799999998
   615   1      26.493997520000001      15.266887240000001              7.28586139
   616   1      30.436303479999999      15.209998450000001      7.5552723500000001
   617   1      32.711748470000003      18.744004449999998      7.2108573900000001
   618   1      4.0375434800000001      18.816678320000001      7.2806329999999999
   619   1      7.8757490299999997             18.83842696      7.3902495100000003
   620   1             12.11746608             18.81926314      7.5048960999999998
   621   1      16.171272720000001      18.862234650000001      7.6090403499999999
   622   1      20.486855890000001             18.84437342      7.5316916599999999
   623   1      24.361220500000002              19.0568332      7.3836763899999998
   624   1             28.47611607      18.630601890000001      7.5043226000000001
   625   1      2.0821291500000001             22.19015203              7.38844236
   626   1      6.0215622700000004      22.209490540000001      7.5563087800000002
   627   1      14.158121299999999      20.062832180000001      8.2514562500000004
   628   1      14.284048520000001      22.329935070000001      7.4418101700000001
   629   1      18.080314340000001             22.42507294      7.3154086200000004
   630   1      22.087576210000002      22.481464769999999      7.5246913900000001
   631   1      26.433853899999999             22.10844153              7.39360762
   632   1      30.305779179999998      22.306090390000001      7.4305049900000002
   633   1      32.565123849999999             25.83540795      7.3169784599999996
   634   1              3.88702682             25.74344305      7.3115463900000002
   635   1              8.18231164      25.835080189999999      7.6462062599999996
   636   1             12.17979452             25.75710217      7.4214976100000003
   637   1      16.151434049999999             25.91964746      7.4026907700000004
   638   1      20.528362720000001             25.70054927      7.4737385400000003
   639   1      24.393272799999998      25.913488470000001              7.51746041
   640   1      28.352876380000001             25.79902156      7.6211087800000001
   641   1      4.0471904700000003              7.03858739      8.9929827800000002
   642   1   -0.014117050000000001             28.22945868      9.1256588399999998
   643   1      6.2389552400000001      8.1449919200000007      9.6457146799999993
   644   1      12.317148449999999             23.44880843      8.5190009399999997
   645   1             10.33528072             22.24861078      7.7912687099999998
   646   1      28.686948390000001      28.071852570000001      9.1678983899999995
   647   1             22.31044687      6.0172856100000001      8.5723656199999994
   648   1             10.15963779      3.1855380200000001              8.94348119
   649   1      4.0883738200000002      16.402145560000001      8.1723315099999994
   650   1      5.8576037400000001              26.7688542              8.15769345
   651   1      18.105337389999999      24.715239700000001      8.8816678400000004
   652   1      18.073106979999999      5.9805633299999998      8.2915176800000001
   653   1             22.32325166      12.795177450000001      8.3472608099999999
   654   1      3.8902899899999999      21.058884110000001      9.0064020199999995
   655   1      26.465917569999998             24.69204234      9.2750964299999996
   656   1      10.226170440000001      24.913500769999999      9.0107680299999995
   657   1              10.1397944      12.857973489999999      8.3297003099999998
   658   1             16.08901972             14.31010575      9.1332329699999999
   659   1      26.663136699999999             10.49851263      8.9637928799999997
   660   1      14.313356860000001      6.1074334600000002      8.6186901700000007
   661   1             26.75902997      1.9560112599999999      9.7444561299999997
   662   1      28.564157219999998      2.5167114800000001      8.3020957800000001
   663   1      20.424996870000001      28.335822759999999      8.7359937399999996
   664   1      1.9491278700000001             12.94222315      8.3879542499999999
   665   1             12.09342337             13.91651734      9.1448444299999991
   666   1      15.952178310000001      16.569690390000002      8.4206395500000006
   667   1      5.9201411200000003             19.93638468      8.2741572300000001
   668   1             16.26311179      11.785085479999999      7.5076104199999998
   669   1      4.0400434799999996             11.68406525      9.6492671100000003
   670   1      28.587920369999999              6.92329653      9.0545427099999998
   671   1              1.93263469             10.44055837      8.9629931900000006
   672   1             30.82352216             19.87422089      7.9634202600000004
   673   1      3.9377951200000001      23.459180629999999              8.17526872
   674   1      1.7154450800000001             20.00486729      8.3538851199999993
   675   1      22.137502779999998      20.093067860000001      8.3503407700000007
   676   1      14.054665849999999             27.02011233      8.4674931400000002
   677   1      20.435563210000002      4.7707888599999997      9.7743237900000004
   678   1      22.480679339999998      17.393752150000001      8.8775766600000008
   679   1      27.829949750000001      4.2645391200000002      9.8100584499999997
   680   1      28.380469059999999             11.60637204              7.29108468
   681   1      32.386146279999998      2.4690733499999999      8.3121502599999992
   682   1             10.04302562      15.168391720000001      7.6515945800000003
   683   1              3.99749635   -0.035494419999999999      8.9250973899999995
   684   1      10.176376749999999             10.37789791      8.8808548500000004
   685   1      20.312318529999999      16.508026780000002      8.2262734099999992
   686   1      18.436685610000001             12.95340386              8.25900094
   687   1      16.216785179999999      9.6249342500000008      8.4160594900000003
   688   1      20.501882680000001             14.20373354      9.0084606300000001
   689   1             24.30223951      20.921399009999998      8.9919530000000005
   690   1      32.473259949999999             16.51899409              8.14392797
   691   1      30.884576630000002      6.0811784299999996      8.2335135600000005
   692   1      16.342868660000001      2.3629836200000001      8.1436801200000009
   693   1             14.12096172             12.76359654      8.5342064999999998
   694   1      20.252420220000001      9.4524665100000007              8.49008085
   695   1             22.52361067             27.02250016      8.2653436899999999
   696   1      2.1322252399999999      17.622339149999998      8.7654525499999991
   697   1      8.0799664900000003      4.4091968599999998      9.7235273899999992
   698   1      18.307928100000002      26.943057029999999      7.9856251800000004
   699   1      20.312608229999999      2.5589981900000001      8.1896437500000001
   700   1      16.192758560000001             -0.03697727      8.7357069700000007
   701   1      14.381605520000001              3.42822608      8.8326862100000003
   702   1      24.638017260000002      23.380456349999999      8.4251272900000007
   703   1             22.41212574      3.5267127999999999      9.0696620100000001
   704   1             26.44715227      19.694850979999998      8.2917490699999998
   705   1               2.1390126      3.5070032900000001      9.0466639499999992
   706   1      5.9548027499999998      3.5749949600000002      8.9241428999999997
   707   1      11.952605910000001      20.887347269999999      9.0974479400000003
   708   1              18.1174994      17.652377980000001      8.9851808900000005
   709   1             24.46376875     0.22452754999999999      9.0653823300000003
   710   1      19.883985630000002      23.397371830000001      8.2487534199999999
   711   1      1.7308611300000001      5.9606644400000004      8.3122659100000007
   712   1      1.7643296399999999             24.60142952      8.9229211500000005
   713   1      30.340530300000001              1.51798173      9.9633473099999996
   714   1    -0.11052530000000001      23.367718069999999      8.2410432100000008
   715   1              1.89260228             26.84589179      8.1819228000000006
   716   1      8.2008998299999991      23.567282030000001      8.2451493800000009
   717   1      26.623697119999999             22.09841741      9.8234886800000005
   718   1      32.183674490000001      9.5049369200000005      8.0884858800000003
   719   1      28.496776199999999      9.3123731200000002      8.1137484000000004
   720   1      30.384159690000001      3.8074474399999998      9.1131159700000008
   721   1              3.95440083      9.4124757700000004      8.4227905100000005
   722   1      7.8772640300000001      28.221248589999998      8.9778727200000006
   723   1              8.16157866      9.2341552199999999      8.0878123899999999
   724   1      6.2556271499999996             10.43323393      9.1616164599999994
   725   1      8.4195045000000004      6.9082333900000004      9.1058850899999992
   726   1             16.28218524              7.13389892      9.3850475000000007
   727   1             16.33357342      21.099554019999999      8.8984850400000006
   728   1             24.30960615             14.21967637      8.9472913900000002
   729   1      7.8877361800000001             13.94031794      9.2381126699999996
   730   1      12.338214369999999      4.5213690299999998      7.6030675900000002
   731   1      11.947705969999999      7.2588754499999997              9.45630332
   732   1      18.052384589999999             10.61994934      9.1473499599999997
   733   1      18.354521439999999      19.968569779999999      8.2401589800000004
   734   1      30.132809380000001      24.685968979999998      9.1909742800000007
   735   1      24.741214230000001      2.5265610000000001      8.3446739500000007
   736   1      8.0165756100000003      16.678672209999998      8.3171949099999996
   737   1      29.771592139999999             17.02302238      8.6668304599999999
   738   1      24.453487899999999      9.2626613199999994      8.3032440100000002
   739   1      12.350559029999999      9.5187386800000002      8.3485744999999998
   740   1      26.496614900000001      5.7939971699999999      8.2430634999999999
   741   1      24.539953010000001      16.604250929999999      8.2825984399999992
   742   1      25.261511429999999      4.2791254600000004      10.087699799999999
   743   1             20.14893352      7.0589342899999998      8.8887042899999997
   744   1   -0.033289310000000003      14.266063750000001      9.0431519799999993
   745   1      26.719590620000002      13.048065380000001      8.1368765300000003
   746   1      6.1129848300000003      12.814766110000001      8.3753176400000005
   747   1      10.110863309999999             19.79925609      8.0741506300000001
   748   1      6.0433899000000002      24.524265060000001      8.9697646599999992
   749   1      20.192694509999999              11.9163023      9.7062135200000004
   750   1             27.02262318      17.234716209999998      8.8911911299999993
   751   1      28.674191610000001      20.986682470000002      9.0197211799999994
   752   1              3.62629578             14.23519048      9.1912189400000006
   753   1      8.2450709300000007      21.297950270000001      8.8397379899999997
   754   1      8.0122139899999993      2.2879239299999998      8.3170639200000007
   755   1      6.2334999800000004              5.77347593      8.0742489099999997
   756   1             10.49817519      27.354341909999999      8.3650626999999993
   757   1      4.1630152499999999      2.3438577600000001              8.34186798
   758   1             26.48630275      27.095417690000001      8.3779941499999993
   759   1             30.16472104      12.772615010000001      8.4207359799999999
   760   1             28.24265479      23.316877649999999      8.2324898599999994
   761   1      16.075059079999999      23.429269900000001      8.2254396700000001
   762   1      22.565778359999999      10.430543610000001      9.2946686700000001
   763   1             10.16117511      5.5537246199999997      8.3485941799999992
   764   1      12.222286690000001      2.0679885800000002      8.2964786799999999
   765   1             16.31274646      4.7600577199999998      9.6923201599999995
   766   1      22.432373399999999             24.43984897      8.7686610500000004
   767   1      28.597797440000001      14.900447489999999      9.0716681900000005
   768   1             30.54287231      26.919708360000001      8.1953542600000002
   769   2      26.897413879999998             14.37374687      9.4875033500000008
   770   2      25.650368610000001             15.43027112               9.3500885
