N2-dn2-coord-10bar/700K/snapshots/frame-69186/run-000/../data.lammps (written by ASE) 

770 	 atoms 
2  atom types
0.0      32.470343392086264  xlo xhi
0.0      28.120142247150884  ylo yhi
0.0      31.213473999158239  zlo zhi


Atoms 

     1   1      2.0293964600000001      1.1716090800000001    0.023552650000000001
     2   1      6.0880008999999999              1.17168918              0.02556874
     3   1      10.146952280000001              1.17170328    0.025416459999999998
     4   1      14.205754900000001      1.1716496700000001              0.02501565
     5   1             18.26456816              1.17166478              0.02504435
     6   1             22.32338141      1.1716496700000001              0.02501565
     7   1      26.382184030000001              1.17170328    0.025416459999999998
     8   1      30.441135410000001              1.17168918              0.02556874
     9   1  9.1780000000000006e-05      4.6866847900000002    0.025581599999999999
    10   1      4.0587011400000002      4.6866847900000002    0.025581599999999999
    11   1      8.1174961000000003      4.6866290399999997    0.025584639999999999
    12   1             12.17638011      4.6866852999999997              0.02491202
    13   1             16.23517979      4.6866942700000003    0.025006210000000001
    14   1      20.293956519999998      4.6866942700000003    0.025006210000000001
    15   1      24.352756209999999      4.6866852999999997              0.02491202
    16   1      28.411640219999999      4.6866290399999997    0.025584639999999999
    17   1      2.0293964600000001      8.2016395800000002    0.026613040000000001
    18   1      6.0881071599999999      8.2016314300000008              0.02543782
    19   1             10.14701835               8.2017045    0.025156850000000001
    20   1      14.205766049999999      8.2017080900000003    0.024990459999999999
    21   1             18.26456816      8.2017077599999997    0.025091249999999999
    22   1      22.323370260000001      8.2017080900000003    0.024990459999999999
    23   1      26.382117969999999               8.2017045    0.025156850000000001
    24   1      30.441029149999999      8.2016314300000008              0.02543782
    25   1  9.2789999999999998e-05             11.71671873    0.025573410000000001
    26   1              4.05870014             11.71671873    0.025573410000000001
    27   1      8.1176017700000003             11.71668698              0.02497914
    28   1             12.17637068             11.71673069    0.025001590000000001
    29   1      16.235177310000001      11.716730249999999    0.025074039999999999
    30   1      20.293959009999998      11.716730249999999    0.025074039999999999
    31   1      24.352765640000001             11.71673069    0.025001590000000001
    32   1      28.411534549999999             11.71668698              0.02497914
    33   1      2.0293964600000001             15.23167155              0.02525285
    34   1      6.0881728300000004      15.231678799999999    0.025062859999999999
    35   1             10.14698486      15.231762639999999               0.0250786
    36   1             14.20578841             15.23176782    0.025201990000000001
    37   1             18.26456816              15.2317707    0.025149979999999999
    38   1      22.323347900000002             15.23176782    0.025201990000000001
    39   1      26.382151459999999      15.231762639999999               0.0250786
    40   1      30.440963480000001      15.231678799999999    0.025062859999999999
    41   1      32.470327990000001      18.746748629999999    0.024951939999999999
    42   1      4.0588083299999997      18.746748629999999    0.024951939999999999
    43   1      8.1175770200000006      18.746803499999999    0.025222040000000001
    44   1             12.17637459      18.746799750000001    0.025428470000000002
    45   1      16.235159400000001      18.746805200000001    0.025487360000000001
    46   1      20.293976919999999      18.746805200000001    0.025487360000000001
    47   1      24.352761730000001      18.746799750000001    0.025428470000000002
    48   1             28.41155929      18.746803499999999    0.025222040000000001
    49   1      2.0293964600000001      22.261939099999999    0.025844880000000001
    50   1      6.0881419299999999      22.261841799999999    0.025489439999999999
    51   1             10.14692954             22.26176895              0.02551757
    52   1             14.20573559      22.261804690000002    0.025639160000000001
    53   1             18.26456816             22.26178625    0.025640119999999999
    54   1      22.323400729999999      22.261804690000002    0.025639160000000001
    55   1      26.382206780000001             22.26176895              0.02551757
    56   1             30.44099439      22.261841799999999    0.025489439999999999
    57   1  5.6450000000000003e-05      25.776936450000001              0.02613327
    58   1      4.0587364700000004      25.776936450000001              0.02613327
    59   1      8.1175325399999991              25.7767713    0.024734180000000001
    60   1      12.176376469999999      25.776831090000002              0.02545323
    61   1      16.235145939999999      25.776775220000001    0.025273360000000002
    62   1             20.29399038      25.776775220000001    0.025273360000000002
    63   1      24.352759840000001      25.776831090000002              0.02545323
    64   1      28.411603769999999              25.7767713    0.024734180000000001
    65   1  0.00024266000000000001              2.34304215     0.80166565000000001
    66   1      4.0585502699999996              2.34304215     0.80166565000000001
    67   1      8.1157394600000003              2.34454954     0.80169402000000001
    68   1             12.17601256      2.3433829099999999     0.80116898000000003
    69   1      16.235258170000002      2.3433209100000001     0.80090046999999998
    70   1      20.293878150000001      2.3433209100000001     0.80090046999999998
    71   1      24.353123750000002      2.3433829099999999     0.80116898000000003
    72   1      28.413396859999999              2.34454954     0.80169402000000001
    73   1      2.0293964600000001      5.8582218700000004     0.80119762000000005
    74   1      6.0870566899999998      5.8583336700000004              0.80194851
    75   1             10.14649655              5.85853131     0.80121584000000001
    76   1             14.20597894      5.8582938599999999     0.80086840999999998
    77   1             18.26456816      5.8583798500000004               0.8010794
    78   1      22.323157380000001      5.8582938599999999     0.80086840999999998
    79   1             26.38263976              5.85853131     0.80121584000000001
    80   1      30.442079629999999      5.8583336700000004              0.80194851
    81   1  0.00019438999999999999      9.3717771800000005     0.80082061000000004
    82   1      4.0585985400000002      9.3717771800000005     0.80082061000000004
    83   1      8.1175070500000004      9.3725002699999997     0.80149060999999999
    84   1      12.176590020000001      9.3733583399999993     0.80088261999999999
    85   1             16.23512199      9.3733789200000004              0.80106506
    86   1             20.29401433      9.3733789200000004              0.80106506
    87   1      24.352546289999999      9.3733583399999993     0.80088261999999999
    88   1      28.411629269999999      9.3725002699999997     0.80149060999999999
    89   1      2.0293964600000001             12.88692854     0.80220621000000003
    90   1      6.0883212999999996             12.88743848     0.80138414999999996
    91   1      10.147128609999999             12.88859852     0.80085256000000005
    92   1             14.20571782      12.888558189999999     0.80113791000000001
    93   1             18.26456816      12.888409899999999     0.80109381000000002
    94   1      22.323418490000002      12.888558189999999     0.80113791000000001
    95   1             26.38200771             12.88859852     0.80085256000000005
    96   1      30.440815019999999             12.88743848     0.80138414999999996
    97   1              0.00012365      16.403222639999999     0.80145666999999998
    98   1      4.0586692700000002      16.403222639999999     0.80145666999999998
    99   1      8.1174337899999998      16.403825260000001     0.80097196999999998
   100   1              12.1761021             16.40390721     0.80133072000000005
   101   1             16.23503496      16.403861750000001     0.80140014999999998
   102   1      20.294101359999999      16.403861750000001     0.80140014999999998
   103   1      24.353034220000001             16.40390721     0.80133072000000005
   104   1      28.411702529999999      16.403825260000001     0.80097196999999998
   105   1      2.0293964600000001      19.919205120000001     0.80066369999999998
   106   1              6.08752564             19.91894023     0.80122479000000002
   107   1      10.146078839999999             19.91919038     0.80159137999999996
   108   1      14.204993419999999              19.9192584     0.80178742000000003
   109   1             18.26456816      19.919377350000001     0.80194975999999996
   110   1      22.324142899999998              19.9192584     0.80178742000000003
   111   1      26.383057470000001             19.91919038     0.80159137999999996
   112   1      30.441610669999999             19.91894023     0.80122479000000002
   113   1              0.00142012      23.434536609999999     0.80178442000000005
   114   1      4.0573728100000004      23.434536609999999     0.80178442000000005
   115   1      8.1165862000000004      23.433936769999999     0.80182306000000003
   116   1             12.17555218      23.433996919999998     0.80156656000000004
   117   1             16.23465491      23.434040110000002     0.80170828999999999
   118   1      20.294481409999999      23.434040110000002     0.80170828999999999
   119   1      24.353584130000002      23.433996919999998     0.80156656000000004
   120   1      28.412550110000002      23.433936769999999     0.80182306000000003
   121   1      2.0293964600000001      26.949875330000001              0.80297246
   122   1      6.0858208300000003      26.950066320000001              0.80215291
   123   1             10.14598146      26.949241430000001     0.80165810000000004
   124   1             14.20520604      26.948673230000001     0.80131923999999999
   125   1             18.26456816             26.94858318     0.80108193999999999
   126   1      22.323930279999999      26.948673230000001     0.80131923999999999
   127   1      26.383154860000001      26.949241430000001     0.80165810000000004
   128   1             30.44331549      26.950066320000001              0.80215291
   129   1      32.555053479999998    0.060641300000000002      1.5446758300000001
   130   1      4.0904734500000002              0.01996626      1.4672755099999999
   131   1      8.1332271600000006              0.00811103      1.5217058699999999
   132   1             12.26969633   -0.033629310000000003      1.4299614300000001
   133   1             16.21479837      28.143408449999999      1.3697251800000001
   134   1             20.23402901      28.214572369999999              1.40040133
   135   1      24.235083830000001      28.164090529999999      1.5887488700000001
   136   1      28.303823149999999              0.12154907              1.58367098
   137   1      2.1597507999999999      3.5217870499999999      1.4402511099999999
   138   1      6.1513880900000002      3.5880750199999998      1.4985976299999999
   139   1             10.01356747              3.60689751              1.53442371
   140   1             14.16831183      3.4697727999999999              1.50725007
   141   1             18.13010783              3.28822306      1.3824667799999999
   142   1      22.207986009999999              3.34997912               1.5363392
   143   1             26.43909777              3.63580054      1.3451816000000001
   144   1      30.372812190000001      3.3855313699999998              1.44289164
   145   1              0.13467372      6.9988975599999996      1.6090586099999999
   146   1      4.0638484000000004      7.0358337899999999      1.4550573099999999
   147   1      8.0558135899999996      6.9523545000000002      1.6402606399999999
   148   1      12.185030279999999      7.0235715599999997              1.38856395
   149   1      16.420406839999998      7.1591786900000001              1.46703048
   150   1      20.275139889999998      7.0911167300000004      1.5507658200000001
   151   1             24.39916667      7.0087872500000001      1.4765531700000001
   152   1      28.403446750000001      7.0385376400000004      1.5256670800000001
   153   1      2.0133321199999998             10.42804735      1.4740058700000001
   154   1      6.1149469099999996      10.573979769999999      1.6695266799999999
   155   1             10.18386014             10.41405964              1.28825031
   156   1      14.291451090000001      10.625708530000001      1.5088786700000001
   157   1             18.28526304      10.540206850000001              1.37173408
   158   1      22.459450459999999      10.428980709999999              1.50821023
   159   1      26.389223439999999             10.72299619      1.5234004800000001
   160   1      30.450583179999999              10.5654381               1.5752618
   161   1               0.1384977             14.00207844              1.58849738
   162   1      4.2317401600000002      14.145019509999999      1.5627871499999999
   163   1      8.2470004100000001             14.01703444      1.4889327000000001
   164   1             12.15507511      14.098564100000001               1.6515161
   165   1      16.234696360000001             13.97833312              1.48371915
   166   1      20.136654180000001      14.193075390000001              1.56699732
   167   1      24.509161859999999      14.131328419999999              1.51131667
   168   1      28.305966550000001      14.070149020000001      1.3324964500000001
   169   1              1.96254068      17.612399499999999               1.4021614
   170   1              6.14274027      17.589337969999999               1.5404396
   171   1      10.201888139999999             17.42420783              1.58760576
   172   1      14.141628499999999      17.594314619999999      1.6559132999999999
   173   1      18.192768520000001      17.461559050000002              1.55777751
   174   1      22.489336250000001      17.553133089999999      1.4971878199999999
   175   1      26.358898239999998      17.493524170000001      1.3710069300000001
   176   1      30.474688100000002      17.498821169999999      1.5276618200000001
   177   1   0.0088363399999999998             21.05310119              1.38318108
   178   1      4.2823246199999998      21.038344819999999      1.2802289099999999
   179   1      8.0986654799999993             21.14530409              1.45821705
   180   1             12.19961932             20.96573914      1.5394224999999999
   181   1      16.175505659999999             21.13146442              1.54432294
   182   1      20.227361439999999              21.0357673      1.5804174099999999
   183   1      24.322908720000001      21.043649349999999              1.43168501
   184   1      28.287310730000002             21.14352878      1.5421007900000001
   185   1      2.2263193800000001             24.62799734      1.3883552299999999
   186   1      6.0180118699999996      24.648983770000001      1.3528362899999999
   187   1      10.229376820000001      24.483863729999999      1.3104849199999999
   188   1             14.24685749             24.57446113               1.5426621
   189   1             18.16089036      24.644736869999999      1.3312060800000001
   190   1      22.267064940000001             24.57188039              1.46877349
   191   1             26.23278152      24.580254879999998              1.54370611
   192   1             30.47765089             24.58255814      1.5634266299999999
   193   1      2.2373117599999999      1.1753695399999999      2.3628665500000001
   194   1      5.9795507299999997      1.3427599400000001      2.5600118100000002
   195   1             10.19432469      1.2124099500000001      2.4669107000000001
   196   1             14.13210512      1.2175950799999999      2.4722599299999999
   197   1      18.147512429999999      1.0894961999999999      2.5052138899999998
   198   1      22.134576110000001      1.1830963000000001      2.5136008300000001
   199   1      26.188288650000001              1.20931378      2.3830914399999998
   200   1      30.318599630000001              1.09229446      2.3952714099999999
   201   1      32.643354840000001      4.7285540299999997      2.4030478199999998
   202   1      4.0881392999999999      4.7885235499999999      2.3800581699999999
   203   1      8.0536458799999995      4.7297217800000002      2.5491901000000001
   204   1      12.032784810000001      4.6935892299999997      2.5165283399999998
   205   1      16.348817879999999      4.6662480999999998      2.5174973700000001
   206   1      20.064590710000001      4.4261945100000002      2.3586896300000002
   207   1      24.361090430000001      4.6214974299999998      2.3540582099999998
   208   1      28.344538700000001      4.7232021199999998              2.52267156
   209   1      2.0517155900000001      8.0341937800000007                2.582144
   210   1      6.0861036300000002      8.0903611499999997      2.4849826899999998
   211   1      10.122924709999999      8.2857670500000005      2.3451192299999999
   212   1      14.269637400000001      8.1068423900000006      2.5189562300000001
   213   1      18.183622060000001      8.3120401299999997      2.5936911899999999
   214   1      22.361209639999998      8.2877836800000004      2.3465896100000001
   215   1              26.4657333      8.2570512800000007              2.48573245
   216   1             30.49287386      8.2485509100000005      2.4337419599999999
   217   1     0.13783208999999999      11.621711850000001              2.39122565
   218   1      4.1296821599999998             11.50395767      2.2981689799999998
   219   1      8.4394269899999994      11.560623590000001              2.44976203
   220   1      12.083044109999999      11.690599020000001      2.6352998699999999
   221   1      16.328650199999998      11.518640189999999      2.5451385100000001
   222   1      20.571835929999999      11.632667140000001              2.41327026
   223   1      24.257243079999999             11.71409922      2.4191071000000002
   224   1             28.57932976      11.983180490000001      2.3254619700000001
   225   1      2.3020912299999998             15.37221534      2.5626735200000001
   226   1      6.1756208900000003             15.15965149      2.3835146699999998
   227   1      10.298005740000001             15.14068599      2.3842570200000002
   228   1             14.40248495      15.028544419999999      2.4075979799999998
   229   1      18.126275020000001             15.23803685      2.6463637100000001
   230   1             22.26573355             15.21414528      2.4635195300000001
   231   1      26.404934359999999      15.368171309999999              2.37950288
   232   1      30.433120930000001      15.133416329999999      2.3829073599999999
   233   1    -0.11166255999999999      18.857954029999998              2.50762858
   234   1      4.1849912700000003             18.60746589      2.5164646500000001
   235   1      8.4381678499999992      18.772108630000002      2.2576599399999999
   236   1             12.29223477      18.673009570000001      2.6351572399999998
   237   1             15.97436357      18.657367000000001              2.51078505
   238   1      20.404021889999999      18.718754659999998      2.4379182500000001
   239   1      24.370324700000001      18.837914059999999      2.3818931299999999
   240   1      28.335388829999999      18.601895630000001              2.40139624
   241   1      2.1799914999999999      22.233531280000001      2.1891219400000002
   242   1      6.0695217399999999      22.297311109999999      2.4273373299999998
   243   1             10.22330408      22.322995809999998      2.3347644500000002
   244   1             14.26669556      22.126576270000001              2.39750548
   245   1      18.150089550000001      22.244538179999999      2.5066786599999999
   246   1      22.415677280000001             22.18976718      2.3919827499999999
   247   1      26.344863149999998      22.305035459999999               2.5426693
   248   1             30.27227654             22.25579712      2.4692311400000002
   249   1      32.413570049999997      25.907021329999999      2.3835712400000002
   250   1              4.25069988      25.748146040000002               2.4742837
   251   1      8.0711803599999996      25.755678069999998      2.3822603400000002
   252   1      12.170233919999999      25.963031269999998      2.3034871099999998
   253   1      16.272940890000001      25.716994280000002      2.4456421499999998
   254   1      20.372417500000001             25.63282341      2.5345500200000002
   255   1      24.417456290000001      25.876779729999999      2.3564817599999999
   256   1      28.580358449999999      25.911418350000002              2.41554365
   257   1             -0.21548686              2.33798241      3.2516272100000001
   258   1      4.0100338799999999      2.3966318499999999      3.4109949199999998
   259   1      8.0802867099999993      2.2808475600000002      3.2188847599999999
   260   1             12.17510849      2.4495871899999999      3.3460432500000001
   261   1      16.188007079999998      2.3221573100000001              3.20949682
   262   1      20.080604860000001              2.35984952              3.34523708
   263   1      24.340187530000001      2.3068610500000002      3.4326052200000001
   264   1      28.284205839999998      2.4569553900000001      3.2344005299999998
   265   1      2.1155643400000002      5.8012788400000002               3.2547234
   266   1      5.9896849899999998      5.7045253999999996      3.3613688900000001
   267   1      10.159088860000001              6.00556468              3.38309427
   268   1      14.208122830000001      5.6252364699999999              3.30567258
   269   1             18.22056061      5.9112960000000001      3.3727415199999999
   270   1              22.3528272      5.8782966500000002      3.2476768499999999
   271   1      26.245489379999999      5.9666873499999999              3.27024713
   272   1      30.487554540000001      5.7849982799999999      3.2154969200000001
   273   1     0.15038062999999999      9.4793165399999992      3.3900572100000002
   274   1      4.2080617800000004      9.3614953500000002              3.09791667
   275   1      8.1273301500000006              9.40059383      3.4251977500000002
   276   1             12.29424794      9.3153305900000003              3.35415427
   277   1      16.075895859999999      9.2255627600000008      3.3232908700000001
   278   1      20.231342389999998      9.3345893100000001      3.4275445900000001
   279   1      24.485081189999999      9.5492004900000005      3.3594077699999998
   280   1      28.596951879999999      9.4412952800000003              3.31602833
   281   1      2.1721159399999999      12.920789109999999      3.1691639600000001
   282   1      6.3254794499999996             12.82211356      3.1084611899999999
   283   1      10.262963020000001             12.86737231      3.3955239000000002
   284   1             14.30399356             12.86391397      3.2973984299999999
   285   1      18.095311410000001             12.78743225      3.1651132799999999
   286   1      22.252163209999999             12.85356034      3.4468541899999998
   287   1      26.438240669999999             13.03627277      3.2829886799999999
   288   1      30.510491829999999      12.859398690000001      3.5329371599999999
   289   1             32.68727732      16.387811859999999      3.2093758000000001
   290   1              4.17411742      16.394565790000001              3.50269019
   291   1      8.2342569999999995      16.229500049999999      3.3488961599999998
   292   1      12.394298620000001      16.353506700000001              3.36085463
   293   1             16.20597192      16.336584890000001              3.36710792
   294   1      20.246719469999999             16.41693867      3.1796915399999999
   295   1      24.430756500000001              16.4348353      3.2417539799999999
   296   1      28.450859640000001      16.382427400000001      3.3217312099999998
   297   1      2.1165109800000002             19.88896252      3.1855552600000001
   298   1      6.2195489300000002      19.765681239999999              3.33504646
   299   1      10.335275559999999      19.994133980000001              3.16431131
   300   1             14.10141048             19.91196304      3.4565715699999999
   301   1      18.163492590000001      19.777921769999999              3.25443974
   302   1      22.321293709999999             19.88305265      3.4268371100000001
   303   1      26.360706610000001      19.729837610000001      3.4267450799999999
   304   1      30.372487540000002      19.853071109999998      3.3582533899999998
   305   1      32.498014439999999              23.5689016              3.16199246
   306   1      4.1741284800000003      23.488283710000001      3.3494571799999999
   307   1      7.9840617600000003             23.34302228      3.0973568999999999
   308   1             12.26536699      23.412425410000001      3.3110295600000001
   309   1      16.204389119999998      23.349135390000001      3.3674674699999998
   310   1      20.472722340000001      23.309669830000001      3.2418370099999998
   311   1             24.22876707      23.579949630000002      3.4729346099999998
   312   1      28.605063560000001             23.56379445      3.3793886400000002
   313   1              1.98364776      27.025442200000001      3.3780135100000002
   314   1      6.3004022500000003             27.14744876      3.1562998599999998
   315   1             10.28547594      26.947532420000002      3.2797810599999999
   316   1              14.0934174      27.095434820000001              3.16197821
   317   1      18.426161050000001      26.815229110000001      3.2132446099999998
   318   1      22.404849349999999      27.137101850000001      3.2620357200000001
   319   1      26.325879690000001              26.9806916      3.2125757899999998
   320   1             30.29356486      27.122386670000001              3.34628104
   321   1             -0.12085598    0.046455330000000003      4.1855429900000001
   322   1      4.0664461599999999      28.297766840000001      4.0461255400000002
   323   1      8.1083990099999994    0.089648119999999998      4.1279788599999998
   324   1      12.123598210000001              0.01141958      4.0520926499999996
   325   1      16.283389759999999      28.039239370000001              3.97187942
   326   1             20.28618312    0.055995400000000001      4.1137701499999997
   327   1      24.372395180000002    -0.18499359000000001      4.2956931899999997
   328   1      28.176850219999999    0.092789479999999994      4.0740866599999999
   329   1      1.9366698200000001      3.4464995300000001              4.03868501
   330   1      6.2079387600000002              3.38422271      4.1024968499999996
   331   1      10.107224499999999              3.64442763      4.1494297299999996
   332   1      14.298993899999999      3.5324392100000002      4.2325546899999997
   333   1      18.207467229999999      3.3476617200000001      4.2193835100000001
   334   1      22.090986919999999      3.4441207999999999      4.0478810200000002
   335   1             26.46797093      3.6170357900000001      4.1375220500000003
   336   1      30.388697879999999              3.54992778      4.1085522799999996
   337   1     0.13397337000000001      7.0559521700000003      4.0238148200000001
   338   1              4.13762338      6.9947339900000003      4.1461622699999996
   339   1      8.1307701899999998      6.9319271799999997      4.2374102100000002
   340   1             12.05220877      6.9269001399999999      4.2327795500000001
   341   1      16.139130590000001      7.0152882999999999      4.2127416899999997
   342   1      20.410299080000001      7.0319907400000004      4.1528480200000004
   343   1      24.364763369999999      7.0340730899999997      4.1726218900000003
   344   1      28.306651299999999      7.0680953200000003      4.0635067600000001
   345   1      2.0969740200000002             10.49067118      4.0334827500000001
   346   1      6.0888797300000004             10.43595451      4.1769896099999997
   347   1             10.11383504             10.40557201      4.1875834699999999
   348   1      14.290591839999999      10.539976080000001      4.2367047400000004
   349   1              18.1892502      10.312701970000001      4.1525219599999996
   350   1      22.371102319999999      10.600508530000001      4.2601756200000001
   351   1      26.387987379999998      10.580638779999999      3.9882398600000002
   352   1             30.54996834      10.580076460000001      4.2544001700000003
   353   1              0.03293426             14.19446205      4.1614299700000004
   354   1      4.1004062699999997             14.10684442      4.0790732099999998
   355   1      8.1812858899999998             13.89629483              4.08427819
   356   1             12.21265191      13.974642960000001      4.2303105499999996
   357   1             16.09560608      14.004020479999999      4.0993983700000003
   358   1      20.402997790000001             14.10127737      4.0970373100000002
   359   1             24.34286925      13.943544149999999      4.1174849099999999
   360   1              28.5076207      14.180927049999999      4.0326478899999998
   361   1      2.1349890999999999      17.685153759999999      3.9905880599999999
   362   1      6.2802955799999998      17.457529990000001      4.1210046900000004
   363   1      10.462007059999999      17.515056820000002              4.09754693
   364   1             14.10413307      17.473817140000001      4.3342002700000002
   365   1      18.350013239999999      17.406155640000001      4.1447357299999998
   366   1      22.400221370000001      17.528653349999999      4.0698243200000004
   367   1      26.415597649999999      17.518531830000001      4.2065861199999999
   368   1      30.495536739999999      17.580535959999999      4.2538633299999997
   369   1      32.442647319999999      21.194006089999998              4.03887676
   370   1      4.0711548100000003              21.0278046      3.8818363800000002
   371   1      8.1741362300000002      21.037391939999999      4.0574276600000001
   372   1             12.27447533      21.098621529999999              4.32893624
   373   1      16.313544610000001      21.041447940000001      4.1855435200000004
   374   1             20.30312206             20.98304825              4.25564243
   375   1      24.422480010000001      21.083547920000001      4.1040089100000001
   376   1      28.373090940000001      21.089676950000001      4.1450202200000001
   377   1      2.0989306999999999      24.696369010000002      3.9434471200000001
   378   1      6.1009226700000001      24.639656859999999      4.0324727100000004
   379   1             10.14878979      24.545854429999999      3.9749986000000002
   380   1             14.25415388      24.546238120000002      4.0783411200000002
   381   1      18.353052479999999      24.419351169999999      4.0001300000000004
   382   1      22.233647130000001      24.777161039999999      4.0801848700000001
   383   1      26.495252099999998      24.593677599999999      4.0232240299999997
   384   1             30.41776174             24.86515288      4.2857664800000004
   385   1      2.0054294100000001              1.16774494      5.0430239099999996
   386   1      6.0417133099999996      1.1266265600000001              4.95636045
   387   1      10.314863130000001              1.23120352      4.9400765800000004
   388   1      14.271589970000001      1.0479550900000001      4.7038500299999999
   389   1      18.247206030000001      1.1596112000000001      4.9682457600000003
   390   1      22.329041060000002              1.26990976      4.9432025399999997
   391   1      26.254758320000001      1.1155151400000001              4.97203865
   392   1      30.242082740000001              1.25038479      5.0488854500000002
   393   1   -0.070080669999999998      4.6772987800000001      4.9424745899999998
   394   1              4.15698349      4.4742709999999999      5.1277050900000001
   395   1      8.0782249099999994      4.5885940200000004      5.0699322599999999
   396   1      12.009405989999999      4.5089421700000001      5.1363417900000004
   397   1             16.20675649      4.6936962199999996      5.0732540799999999
   398   1      20.213386700000001      4.7148442399999997      4.9584295999999997
   399   1      24.289532479999998      4.6416732300000003      4.9268679000000004
   400   1      28.366293840000001      4.8076802699999996      4.9741974000000004
   401   1               2.0980843      8.0768386799999998      4.9536582400000002
   402   1      6.0073346699999997      8.0998440400000007      5.0771581599999998
   403   1      9.8922389000000006      8.0843200700000004      5.1344905699999996
   404   1      14.244405390000001      8.1964988099999996               5.0536705
   405   1      18.400135370000001      8.1137623100000003      5.2185152500000003
   406   1      22.284029520000001      8.3265661200000007      4.9363943199999998
   407   1              26.2283176      8.4132783300000007      4.9905227500000002
   408   1      30.576694459999999      8.2045311400000003      4.8145529299999996
   409   1     0.19952168000000001             11.58194861      4.9076882900000003
   410   1      4.2299276800000003      11.778663440000001      4.9633218299999999
   411   1      8.1557868599999992             11.55788317      4.9619819400000003
   412   1             12.13784624             11.61632335      5.2636178899999999
   413   1      16.168427210000001             11.86068966      4.9577704499999999
   414   1             20.13052575              11.8510352              4.82083145
   415   1      24.629954489999999             11.74012098      5.1203387899999999
   416   1      28.538672040000002             11.79839718      4.7947302699999996
   417   1      2.1377440999999999      15.309807709999999              5.08698213
   418   1      6.0976851400000003      15.170660679999999      4.9229382299999997
   419   1      10.263174190000001      15.164008600000001      4.9083713099999997
   420   1             14.21050857             15.13311859      5.0272219399999996
   421   1             18.05972053             15.15896858      4.9383048799999996
   422   1             22.45538595      15.095813529999999      5.0115690900000001
   423   1      26.313209789999998      15.212789949999999      4.8839436599999999
   424   1      30.361987419999998      15.297300330000001      4.9910062599999998
   425   1    0.026911190000000001             18.79186906      4.8753620199999999
   426   1      4.2420042999999996      18.749681750000001      4.8624205399999996
   427   1      8.2151663500000005      18.439187860000001              4.85362881
   428   1             12.17659259      18.590486340000002      5.3366708799999998
   429   1      16.294997420000001      18.801527709999998              4.90559981
   430   1      20.533599850000002             18.68928755      5.0374735900000003
   431   1      24.456033550000001             18.63025837      4.9619975500000004
   432   1      28.449749130000001             18.76572105      5.0564591800000001
   433   1      2.0782493299999998      22.185117680000001      5.0284318399999997
   434   1      6.0278030600000001      22.290114809999999      5.0207708999999996
   435   1      10.097268379999999      22.331930060000001      4.8453729299999999
   436   1             14.32190205      22.390934059999999      5.0206190099999999
   437   1      18.453578700000001      22.063191459999999      4.9489397799999999
   438   1      22.363072110000001      22.125656500000002      5.1919026300000004
   439   1      26.470484580000001      22.197296260000002      5.0901859099999998
   440   1      30.395339249999999      22.250215860000001      5.0070316999999998
   441   1      32.431088189999997      25.952999470000002      4.8864266199999999
   442   1      4.0456723099999996      25.841195259999999      4.8926213299999999
   443   1      8.1764155699999996      25.837520980000001      4.6985281199999998
   444   1      12.239660900000001      25.832197229999998               4.8312146
   445   1      16.272101360000001      25.730663400000001      4.8777783799999996
   446   1      20.345018530000001             26.02538174      4.9757480999999997
   447   1             24.47740035      25.612007819999999      5.1040589599999997
   448   1      28.313485799999999      25.994965480000001      5.0752233599999999
   449   1      32.468477470000003      2.4784664200000002      5.6576990900000004
   450   1              4.06372833      2.1311110100000001      5.9808220900000002
   451   1      8.2507139600000006      2.3398584100000002      5.7654592600000001
   452   1             12.35284966      2.2811362800000001      5.7176806899999999
   453   1             16.29598713      2.2090268200000001      5.7196466499999996
   454   1      20.225706200000001              2.36664691      5.8849885799999999
   455   1      24.493381899999999      2.4542051300000001      5.9894508100000001
   456   1      28.401792870000001      2.5283833499999999      5.8578458400000004
   457   1      2.2499807299999999      5.7665589700000002      5.7721180900000002
   458   1      6.3445369600000001      5.9438557699999999      5.8778939699999997
   459   1             10.11977076      5.7930616400000003      5.9488704400000003
   460   1             14.14518728      5.6815768799999997              5.83189812
   461   1             18.25405078      5.7602400200000003      5.8167670500000002
   462   1      22.371535600000001      6.0538998599999996      5.8186247599999996
   463   1             26.37753537              6.03754904      5.8295917199999998
   464   1             30.39940636      5.8992894199999997      5.6902838600000001
   465   1    0.016030030000000001      9.3746884099999992      5.8492495099999999
   466   1      4.0959064200000004      9.3603628099999998      5.7181478600000002
   467   1      8.0280748299999996      9.2665081600000008      5.9522618999999999
   468   1             12.18292711      9.2242893400000003      5.8735420400000002
   469   1      16.181864650000001      9.3723741300000007      5.8636626999999999
   470   1      20.329851089999998      9.4350304699999992      5.9653285499999997
   471   1      24.432810679999999      9.5015405200000007      5.9243945099999999
   472   1      28.508278449999999      9.3973918300000001      5.6075864500000003
   473   1      2.0974323699999999      12.890980109999999      5.9231400699999996
   474   1      6.2067246699999998      12.833737409999999      5.6524050800000003
   475   1             10.10200025             12.77243438      5.8759534000000002
   476   1      14.206718240000001             12.83574003              5.93805593
   477   1      18.059896760000001      12.735863849999999      5.6377502699999997
   478   1      22.359010470000001             12.66328627      5.8702142999999998
   479   1      26.741172509999998             12.85100312      5.8010249199999997
   480   1              30.5548839      12.697147620000001      5.7888337099999996
   481   1              0.07067561      16.507829529999999      5.8299113199999999
   482   1      4.2993157499999999      16.351512830000001      6.0232228499999998
   483   1      8.1579340899999995      16.147377070000001      5.8810794199999998
   484   1      12.201268130000001      16.138479669999999      5.9308434800000001
   485   1      16.071004469999998      16.609732659999999      5.8711899000000001
   486   1      20.250990519999998      16.414383350000001      5.8049042599999998
   487   1      24.478393480000001      16.275153970000002              5.93545312
   488   1      28.642054850000001             16.48186218      6.0101178700000002
   489   1      2.1613218399999998      19.768782720000001      5.7692735300000004
   490   1      6.2975947400000001             19.85342666      5.8907232699999996
   491   1      10.369970459999999             19.71963482      5.6533330499999996
   492   1             14.15833552      19.971585730000001      5.9541120400000001
   493   1      18.219403379999999      19.844507709999998      5.7665459700000001
   494   1      22.483552599999999      19.696738289999999      5.9627106699999999
   495   1      26.639012399999999             19.98513166      5.9974744400000004
   496   1      30.593289930000001      19.944209449999999      5.7398742800000004
   497   1      32.648895170000003             23.68366206      5.6930299399999997
   498   1      4.0791693200000001      23.328875849999999      5.7775890900000002
   499   1      8.1621436999999997      23.361626990000001      5.7853358899999998
   500   1             12.20914033      23.344777740000001              5.84037804
   501   1      16.356221819999998             23.36309374              5.89288203
   502   1      20.222360550000001             23.40094878              5.68914791
   503   1             24.26698219      23.389278990000001      5.9509778600000001
   504   1      28.297310509999999             23.57102437      5.6963063399999996
   505   1      2.0406439399999998      27.094891019999999      5.8066579100000002
   506   1      6.1558280300000003      26.801912179999999              5.76223391
   507   1      10.217781110000001      26.984438480000001      5.8205266800000004
   508   1      14.267009979999999             26.84148313      5.5890560699999998
   509   1      18.215072410000001      26.825655059999999      5.7097960299999997
   510   1      22.426380810000001      26.997248169999999      5.7873253499999997
   511   1      26.386673680000001      27.059096650000001      5.7518025399999999
   512   1      30.330199289999999      27.108515270000002      5.9206130899999998
   513   1             -0.04801536     0.36850699999999997      6.8264208799999997
   514   1      3.9625364799999998             28.14278681      6.6804465999999998
   515   1      8.1656425200000005               0.0104505      6.5349274199999998
   516   1             12.28485783             28.14112987      6.4766643500000001
   517   1             16.25691599      27.975338260000001      6.6384362899999996
   518   1             20.28947943              0.11399201      6.6206392699999999
   519   1             24.43049319    0.016584410000000001              6.82581799
   520   1      28.374751159999999      28.255877590000001              6.62172085
   521   1              2.19987836      3.5868901000000002      6.6703513900000004
   522   1      6.2866229699999998      3.6176642299999999      6.4805861699999996
   523   1             10.27027713              3.43771045      6.6574395099999997
   524   1             14.17909646      3.5101967699999999      6.8151202399999997
   525   1             18.21558667      3.4968972100000002      6.8782789700000002
   526   1             22.29492596      3.7754338299999999      6.5813081799999997
   527   1      26.623844940000001      3.9433197199999999      6.7236681300000001
   528   1      30.529494490000001      3.5106142999999999      6.6507890999999999
   529   1  -0.0091617799999999996      6.9813742899999998      6.5070461899999996
   530   1      4.1193987700000001      6.9208367800000001      6.6049974599999999
   531   1              8.16227898              6.97767173      6.9736141299999996
   532   1      12.226345070000001      7.0040089500000002      6.7242730899999996
   533   1      16.176379170000001      7.0059563000000002      6.6163747400000004
   534   1      20.446363259999998      7.1221217799999996      6.8445383199999998
   535   1      24.172059600000001      7.2604704399999997      6.8373391999999997
   536   1      28.435314000000002      7.1421359600000001      6.6633262599999998
   537   1      2.3005532400000002              10.4109616      6.5881719600000004
   538   1      6.3804596099999999      10.533626610000001      6.8649070600000002
   539   1              10.1929818      10.457163039999999              6.77619712
   540   1             14.21559839             10.68117389      6.6234766799999996
   541   1             18.24832979             10.50847568      6.5849935999999998
   542   1             22.33971743             10.39683342      6.9527458500000003
   543   1      26.672051110000002      10.491295750000001      6.5788232100000004
   544   1      30.552342530000001      10.350747569999999      7.0138394499999999
   545   1     0.10171499000000001      14.129711070000001      6.5508322300000001
   546   1      4.1644295299999996             13.85293076      6.6447497999999996
   547   1      8.2338289000000007             14.07673447              6.63651065
   548   1             12.07988654             13.91932813      6.7831200000000003
   549   1      16.203636660000001      14.114004680000001      6.6919547599999998
   550   1             20.27571678             14.16211004      6.6983197299999997
   551   1      24.472909569999999             13.87414733      6.6111759799999996
   552   1             28.58549885      13.945079740000001      6.9710119400000004
   553   1      2.2129633000000002      17.520525859999999      6.6799833199999998
   554   1      6.2984560800000002      17.445722809999999      6.5679127099999999
   555   1             10.18860851      17.328894309999999      6.7886168299999996
   556   1             13.99734217             17.51391594      6.8650353600000003
   557   1      18.351461109999999      17.534171709999999      6.6819918400000002
   558   1      22.418833060000001      17.510240719999999      6.8645014299999998
   559   1      26.736954709999999               17.514547      6.7005559400000001
   560   1             30.73432021      17.657389309999999      6.7853681400000001
   561   1     0.20029069999999999      21.201175280000001      6.5926481199999998
   562   1      4.0752841200000001             20.85630257      6.5121455900000003
   563   1              8.38619862             21.09414825      6.4969855000000001
   564   1             12.04289333      21.145789629999999      6.7636822600000004
   565   1             16.33560417      21.039437230000001      6.8302681600000001
   566   1             20.18098595      21.124287389999999      6.6988405899999997
   567   1      24.239771099999999      21.086646680000001      6.6793685500000004
   568   1      28.468693810000001      21.007108880000001      6.8249736099999998
   569   1      2.1461134300000002      24.752009510000001              6.47762891
   570   1      6.1299881999999997      24.563351409999999      6.3739447299999998
   571   1             10.30997479      24.650824629999999      6.4832097900000001
   572   1      14.369788509999999      24.593941019999999      6.6157283600000003
   573   1      18.418286460000001      24.477403750000001      6.7866078200000004
   574   1              22.4445576      24.824869530000001      6.7894811800000001
   575   1             26.41290721      24.689837610000001      6.6448175300000001
   576   1      30.515691369999999      24.688122239999998      6.6617686300000001
   577   1      2.1314372499999998      1.2993907200000001               7.4907081
   578   1      6.0260767599999996     0.95909929000000005      7.3801621500000003
   579   1      10.282207700000001              1.21342138      7.4777382299999999
   580   1      14.283510980000001              1.15617115      7.3430758100000002
   581   1      18.309443080000001              1.08514205      7.6770921899999998
   582   1             22.47319319      1.2894754900000001      7.7723221599999999
   583   1      26.396869949999999              1.33514292      7.4787894100000001
   584   1      30.467836290000001      1.3257443200000001      7.6003613699999999
   585   1      32.506699070000003      4.7382956500000004      7.3383405399999999
   586   1              4.20856969              4.59993227      7.4660776799999997
   587   1      8.2305758499999992      4.5906239800000002      7.7329290899999998
   588   1      12.228208159999999      4.6951228299999999      7.6091556000000002
   589   1             16.25217988      4.7227405899999999              7.62518283
   590   1             20.31606146      4.8380060299999998              7.52512501
   591   1      24.455765639999999      4.9914536900000002      7.5880431399999999
   592   1      28.495429590000001      4.8990752000000004      7.5290855499999996
   593   1      2.1267494600000001      7.9311386300000004      7.4200100899999999
   594   1      6.0785251799999998              8.18845548      7.6684014600000001
   595   1             10.09734789      7.9285217399999999              7.68948185
   596   1      14.060031390000001      8.2857390599999992      7.6775668699999997
   597   1             18.30463078      8.1002238099999992              7.55886105
   598   1      22.205210690000001      8.2436388699999998      7.7778180900000002
   599   1      26.354392730000001      8.3160735599999995      7.5880603799999999
   600   1      30.635644509999999      8.1673060799999995      7.2718095299999996
   601   1     0.30487904999999998              11.6172863      7.3828905599999999
   602   1      4.1272877599999997              11.6445626      7.5157735900000002
   603   1      8.3071947500000007      11.669186460000001      7.5772397399999996
   604   1      12.007892480000001      11.796412419999999              7.72847668
   605   1      18.470764819999999      13.042474520000001      8.1938766800000007
   606   1      20.300240410000001             11.88325287      7.3209515400000003
   607   1             24.49733179      11.630893349999999      7.6504342400000001
   608   1      28.709020939999998              11.5820018      7.4684410699999999
   609   1               2.1944211              15.0752896      7.4724467299999997
   610   1      6.0807259199999999      15.116996930000001      7.6294431899999999
   611   1             10.15108635      15.046597930000001      7.6004170200000001
   612   1      14.199772169999999             15.12732589      7.5429627100000003
   613   1      18.214589440000001             15.28692189      7.7132097499999999
   614   1      22.695516550000001             15.03019903              7.52470222
   615   1      26.356463940000001      15.288283939999999      7.6103183799999998
   616   1      30.634911899999999             15.26136765      7.5837718599999997
   617   1     0.22066609000000001             18.85443355      7.6171880200000004
   618   1      4.3642891400000003             18.54699918      7.5220848699999996
   619   1              8.33828046      18.677753670000001      7.5040997200000001
   620   1      12.140629430000001      18.862359609999999      7.7414702100000001
   621   1      16.324758760000002      18.718855019999999               7.5211967
   622   1      20.364923780000002      18.874508850000002      7.5387863499999996
   623   1      24.597176659999999      18.841245059999999               7.4059751
   624   1      28.703871450000001      18.799091610000001      7.6484398499999999
   625   1      2.0568088599999999      22.513608850000001              7.55398134
   626   1      6.1567163699999998      22.198529010000001      7.7277620499999999
   627   1             10.23089498             22.30108091      7.7838879099999998
   628   1      14.367042400000001      22.335016079999999      7.4596067399999999
   629   1      18.275596069999999      22.243491760000001      7.4618058899999999
   630   1      22.335069499999999      22.135615690000002      7.8358110099999996
   631   1      26.239467300000001      22.365389879999999      7.5952557399999998
   632   1      30.724395810000001             22.31616945      7.4699751699999997
   633   1     0.12611646000000001             26.09185265      7.3539322399999998
   634   1      4.1408432399999997             25.82997726      7.3485467299999998
   635   1      8.1859469399999991      25.934663759999999      7.1439244300000002
   636   1      12.295404550000001      25.770209470000001      7.4474444699999998
   637   1      16.177610250000001             25.79126175      7.5983090999999998
   638   1      20.416560780000001             25.92565484      7.6076605199999996
   639   1      24.392818630000001      25.950173039999999              7.38562575
   640   1              28.4878967      25.731742740000001      7.5558861799999999
   641   1              1.89237762      8.2464686500000006      9.9330619900000006
   642   1              2.28726041      1.2436295100000001      9.9329363799999992
   643   1      10.092004940000001      3.2764386499999998      9.0101917799999995
   644   1      12.250685020000001      2.1929424000000002      8.1300471499999993
   645   1             12.08838201             27.90548648               8.9345336
   646   1              16.0788315      2.3746270900000002      8.2628360300000008
   647   1      24.295500690000001      7.0290029599999997      9.2317660000000004
   648   1      30.523851629999999      3.3621244199999998      9.2223431599999994
   649   1      2.0849809000000001      3.4513335700000001      9.4015221600000007
   650   1              2.00660566             27.09499447      8.4217271999999994
   651   1             13.93908427              1.12156937               9.7119266
   652   1             11.71239587      9.2814393800000001      8.3500914000000002
   653   1             24.23844678      9.4580723800000008      8.4691735000000001
   654   1      4.2928108399999996      28.036721230000001      9.2734709500000001
   655   1      20.379580000000001      2.4321569699999999      8.3361686099999996
   656   1      3.9288907800000001      6.8968839600000003      9.2281264899999993
   657   1      8.2766191500000001      9.2269140200000006      8.4735805699999993
   658   1      16.372016859999999      16.418088619999999      8.4344239200000004
   659   1      6.1096330500000002      8.1088019199999994             10.08943593
   660   1      10.213553839999999      5.6565608999999997      8.5597428099999995
   661   1             18.32467956              26.7146115      8.1720927000000003
   662   1      28.658935899999999      9.2401214100000004      8.2656834999999997
   663   1             20.18346171      7.3174031700000004      9.1180378599999994
   664   1      2.3529018700000002             10.70278289      9.1209569699999999
   665   1      10.137462810000001      12.677840099999999      8.4343143999999999
   666   1      6.4644907800000002      17.468101799999999      9.0399866499999995
   667   1             12.26198692             21.06438297      9.1843760299999992
   668   1      16.362341170000001              11.6555011      7.4652089500000001
   669   1      20.496527010000001             13.97633274      8.9292177800000001
   670   1      26.763657670000001      10.694090620000001      8.9727193599999993
   671   1      32.491848769999997      16.619834050000001      8.3581856800000001
   672   1              2.11222676      13.022873819999999      8.5780889200000008
   673   1      4.1656172800000002      16.528955509999999      8.4750416000000008
   674   1      4.1542426199999998             14.22188177      9.1457674299999994
   675   1              8.60977383      18.839708210000001      9.8382606599999995
   676   1             10.02472624             20.01021927      8.4450315000000007
   677   1      14.268875749999999      19.762833570000002      8.3697549900000006
   678   1      20.372888280000002      16.444865700000001      8.0625242499999992
   679   1      24.590835380000001      14.066321050000001      8.9874796200000002
   680   1             26.57633964             12.96997069              8.38076343
   681   1      2.0960937099999999      24.669765229999999      9.1490654399999993
   682   1      8.1949794800000006             16.29708329      8.2319823000000003
   683   1      6.2784100799999996      26.806695820000002      8.3456500400000007
   684   1      8.0368638099999998              13.9732211      9.0105172600000003
   685   1      22.387216429999999             19.88317383      8.4367582100000007
   686   1      21.831290540000001      24.337948730000001      9.1042780099999998
   687   1              30.6850132             12.79383266      8.0617360399999995
   688   1             30.87276074             20.01018041              8.02637936
   689   1      24.352296160000002      21.239027109999999      9.1993668799999995
   690   1      4.1463659799999997             23.39426843      8.1451476199999995
   691   1      4.1297497400000003      4.4932180700000002      9.8254642499999996
   692   1             14.18209693      27.003142530000002      8.0758425799999998
   693   1      18.377002829999999             19.85858103      8.4405695400000003
   694   1      18.573619910000001      17.473062819999999      9.0401495199999999
   695   1      24.255925739999999      23.474478170000001      8.3635140499999991
   696   1      28.463226349999999             23.36731657      8.1711186599999994
   697   1      4.2296823999999997      2.2564019900000001      8.3270968199999995
   698   1      7.9312403199999997             25.91462327      9.7536905899999997
   699   1             20.28089319             23.28912588      8.1277769400000004
   700   1              16.4450878      23.389902660000001      8.5191897500000007
   701   1      16.310947550000002      28.060063400000001              8.96422746
   702   1      24.488570679999999     0.31825028999999999      9.3388560300000005
   703   1      22.348200210000002      3.5731105799999998      9.1454646900000007
   704   1   -0.046866459999999999              0.29654584      9.3204343699999992
   705   1      2.0832961299999999      5.5966381099999998      8.2841705099999992
   706   1      6.1090177900000002              1.00687306      9.7146293200000002
   707   1             14.34322798      5.9795861500000003      8.2974033800000004
   708   1      16.434907129999999      21.271299809999999      9.1712658600000001
   709   1      19.771185259999999      28.123146770000002      9.0122044700000004
   710   1      20.408022710000001             20.91069267      8.9911822200000007
   711   1             28.43222175      2.6381343300000002      8.4219994200000006
   712   1      32.650270650000003      23.776008239999999      8.2476842700000006
   713   1      32.628375720000001      2.5722765399999998      8.1513167299999996
   714   1      30.357802639999999      24.724308140000002      8.9368727900000007
   715   1             30.49993323      27.107610820000001      8.2888482799999998
   716   1             13.84895727      3.5600019199999999      9.3051631100000005
   717   1      28.361951990000001    0.032844579999999998      8.9482411699999993
   718   1      24.540696310000001              2.44413174      8.4933404699999997
   719   1    0.015048199999999999      6.9287831300000002      9.0476589399999998
   720   1             30.62663023      5.8870493399999999      8.1971793700000006
   721   1      4.0898817699999999      9.1787554500000006      8.4114581299999998
   722   1             12.34806545      16.470856650000002      8.3949229400000007
   723   1      6.2895614499999999      5.9697911299999999      8.5690099699999998
   724   1      8.2167820000000003      6.9840288900000003              9.57481194
   725   1             12.30673393      7.0932344799999996      9.0178201599999994
   726   1      18.226461499999999      5.9612505899999997              8.36509152
   727   1      14.441234700000001      24.587317200000001      9.0318399100000004
   728   1     0.12793238000000001             14.08899491      8.9149936699999994
   729   1      4.1516694599999999      18.693424820000001      9.7879496699999997
   730   1      8.0552673699999993      2.1934166400000001      7.9741077000000002
   731   1             13.64526337             10.41218819      9.0667402300000006
   732   1              16.0957145      9.2417370099999996      8.3823355799999995
   733   1      16.368433629999998             14.04141999              8.92602926
   734   1    0.029268519999999999      25.959694809999998      9.6479099599999998
   735   1      22.363431210000002      5.9541770300000003      8.3738206399999999
   736   1      6.1857511299999999      10.392430900000001      9.1261536799999998
   737   1      28.763996150000001              21.0955592      9.0872975599999997
   738   1      32.711414769999998              9.34050446      8.4283928699999997
   739   1      12.248368149999999      14.114860739999999      9.2554265000000004
   740   1      14.320796469999999      12.812908500000001      8.5737664999999996
   741   1      22.454704849999999      12.653469230000001              8.41859614
   742   1      26.513904759999999              5.99710608      8.5332837099999992
   743   1      20.110606300000001      9.7946473800000007      8.3113575100000006
   744   1              1.82998387      15.474340379999999      9.9935625199999993
   745   1      2.3592725099999998      19.779091659999999      8.2501846299999997
   746   1      6.1888128399999998      12.814249119999999      8.2096440499999996
   747   1      10.177430169999999             17.33062426              9.24726553
   748   1      8.0597743299999998      21.624452779999999      9.0985386599999991
   749   1             24.16857061      16.629313100000001      8.6249512599999996
   750   1      26.519842109999999             17.50192204      8.9192406299999991
   751   1             24.66988327             19.00456823      9.8856598699999996
   752   1              2.04437662             17.66858186      9.0235652200000001
   753   1      4.2320687899999996      21.088767000000001      9.0213702900000001
   754   1              8.34124935             23.60404063      8.0953718299999995
   755   1      6.2498864000000003             24.25205587      8.8585915100000001
   756   1             10.23773519      26.843533390000001      8.3322074700000002
   757   1             12.22932473      23.457578609999999      8.4092769199999999
   758   1      26.537815009999999      26.855602059999999      8.2966560099999995
   759   1      26.553542069999999             20.00929013      8.5553451299999992
   760   1      26.722652369999999      22.350613360000001      10.089509870000001
   761   1      6.2877137400000001      19.958531650000001      8.4775830400000007
   762   1      28.518174250000001      16.356067599999999      8.2704939199999998
   763   1      6.2258553599999997      3.3555497000000001      8.9017399600000005
   764   1      8.3476160200000002    0.059805570000000002              9.16711147
   765   1      10.305997899999999      24.782873649999999      9.0922742299999992
   766   1             22.49515006             27.01222623      8.3575048499999998
   767   1      26.472849199999999      24.443663969999999      9.1570882299999994
   768   1              0.20621422      21.166363870000001      8.8845357000000007
   769   2             26.40948654    0.034857699999999998      9.7322986300000007
   770   2             27.08939251      1.5089678399999999      9.2909053000000004
