N2-dn2-coord-10bar/700K/snapshots/frame-132791/run-000/../data.lammps (written by ASE) 

770 	 atoms 
2  atom types
0.0      32.470343392086264  xlo xhi
0.0      28.120142247150884  ylo yhi
0.0      31.213473999158239  zlo zhi


Atoms 

     1   1      2.0293964600000001      1.1716090800000001    0.023552650000000001
     2   1      6.0880008999999999              1.17168918              0.02556874
     3   1      10.146952280000001              1.17170328    0.025416459999999998
     4   1      14.205754900000001      1.1716496700000001              0.02501565
     5   1             18.26456816              1.17166478              0.02504435
     6   1             22.32338141      1.1716496700000001              0.02501565
     7   1      26.382184030000001              1.17170328    0.025416459999999998
     8   1      30.441135410000001              1.17168918              0.02556874
     9   1  9.1780000000000006e-05      4.6866847900000002    0.025581599999999999
    10   1      4.0587011400000002      4.6866847900000002    0.025581599999999999
    11   1      8.1174961000000003      4.6866290399999997    0.025584639999999999
    12   1             12.17638011      4.6866852999999997              0.02491202
    13   1             16.23517979      4.6866942700000003    0.025006210000000001
    14   1      20.293956519999998      4.6866942700000003    0.025006210000000001
    15   1      24.352756209999999      4.6866852999999997              0.02491202
    16   1      28.411640219999999      4.6866290399999997    0.025584639999999999
    17   1      2.0293964600000001      8.2016395800000002    0.026613040000000001
    18   1      6.0881071599999999      8.2016314300000008              0.02543782
    19   1             10.14701835               8.2017045    0.025156850000000001
    20   1      14.205766049999999      8.2017080900000003    0.024990459999999999
    21   1             18.26456816      8.2017077599999997    0.025091249999999999
    22   1      22.323370260000001      8.2017080900000003    0.024990459999999999
    23   1      26.382117969999999               8.2017045    0.025156850000000001
    24   1      30.441029149999999      8.2016314300000008              0.02543782
    25   1  9.2789999999999998e-05             11.71671873    0.025573410000000001
    26   1              4.05870014             11.71671873    0.025573410000000001
    27   1      8.1176017700000003             11.71668698              0.02497914
    28   1             12.17637068             11.71673069    0.025001590000000001
    29   1      16.235177310000001      11.716730249999999    0.025074039999999999
    30   1      20.293959009999998      11.716730249999999    0.025074039999999999
    31   1      24.352765640000001             11.71673069    0.025001590000000001
    32   1      28.411534549999999             11.71668698              0.02497914
    33   1      2.0293964600000001             15.23167155              0.02525285
    34   1      6.0881728300000004      15.231678799999999    0.025062859999999999
    35   1             10.14698486      15.231762639999999               0.0250786
    36   1             14.20578841             15.23176782    0.025201990000000001
    37   1             18.26456816              15.2317707    0.025149979999999999
    38   1      22.323347900000002             15.23176782    0.025201990000000001
    39   1      26.382151459999999      15.231762639999999               0.0250786
    40   1      30.440963480000001      15.231678799999999    0.025062859999999999
    41   1      32.470327990000001      18.746748629999999    0.024951939999999999
    42   1      4.0588083299999997      18.746748629999999    0.024951939999999999
    43   1      8.1175770200000006      18.746803499999999    0.025222040000000001
    44   1             12.17637459      18.746799750000001    0.025428470000000002
    45   1      16.235159400000001      18.746805200000001    0.025487360000000001
    46   1      20.293976919999999      18.746805200000001    0.025487360000000001
    47   1      24.352761730000001      18.746799750000001    0.025428470000000002
    48   1             28.41155929      18.746803499999999    0.025222040000000001
    49   1      2.0293964600000001      22.261939099999999    0.025844880000000001
    50   1      6.0881419299999999      22.261841799999999    0.025489439999999999
    51   1             10.14692954             22.26176895              0.02551757
    52   1             14.20573559      22.261804690000002    0.025639160000000001
    53   1             18.26456816             22.26178625    0.025640119999999999
    54   1      22.323400729999999      22.261804690000002    0.025639160000000001
    55   1      26.382206780000001             22.26176895              0.02551757
    56   1             30.44099439      22.261841799999999    0.025489439999999999
    57   1  5.6450000000000003e-05      25.776936450000001              0.02613327
    58   1      4.0587364700000004      25.776936450000001              0.02613327
    59   1      8.1175325399999991              25.7767713    0.024734180000000001
    60   1      12.176376469999999      25.776831090000002              0.02545323
    61   1      16.235145939999999      25.776775220000001    0.025273360000000002
    62   1             20.29399038      25.776775220000001    0.025273360000000002
    63   1      24.352759840000001      25.776831090000002              0.02545323
    64   1      28.411603769999999              25.7767713    0.024734180000000001
    65   1  0.00024266000000000001              2.34304215     0.80166565000000001
    66   1      4.0585502699999996              2.34304215     0.80166565000000001
    67   1      8.1157394600000003              2.34454954     0.80169402000000001
    68   1             12.17601256      2.3433829099999999     0.80116898000000003
    69   1      16.235258170000002      2.3433209100000001     0.80090046999999998
    70   1      20.293878150000001      2.3433209100000001     0.80090046999999998
    71   1      24.353123750000002      2.3433829099999999     0.80116898000000003
    72   1      28.413396859999999              2.34454954     0.80169402000000001
    73   1      2.0293964600000001      5.8582218700000004     0.80119762000000005
    74   1      6.0870566899999998      5.8583336700000004              0.80194851
    75   1             10.14649655              5.85853131     0.80121584000000001
    76   1             14.20597894      5.8582938599999999     0.80086840999999998
    77   1             18.26456816      5.8583798500000004               0.8010794
    78   1      22.323157380000001      5.8582938599999999     0.80086840999999998
    79   1             26.38263976              5.85853131     0.80121584000000001
    80   1      30.442079629999999      5.8583336700000004              0.80194851
    81   1  0.00019438999999999999      9.3717771800000005     0.80082061000000004
    82   1      4.0585985400000002      9.3717771800000005     0.80082061000000004
    83   1      8.1175070500000004      9.3725002699999997     0.80149060999999999
    84   1      12.176590020000001      9.3733583399999993     0.80088261999999999
    85   1             16.23512199      9.3733789200000004              0.80106506
    86   1             20.29401433      9.3733789200000004              0.80106506
    87   1      24.352546289999999      9.3733583399999993     0.80088261999999999
    88   1      28.411629269999999      9.3725002699999997     0.80149060999999999
    89   1      2.0293964600000001             12.88692854     0.80220621000000003
    90   1      6.0883212999999996             12.88743848     0.80138414999999996
    91   1      10.147128609999999             12.88859852     0.80085256000000005
    92   1             14.20571782      12.888558189999999     0.80113791000000001
    93   1             18.26456816      12.888409899999999     0.80109381000000002
    94   1      22.323418490000002      12.888558189999999     0.80113791000000001
    95   1             26.38200771             12.88859852     0.80085256000000005
    96   1      30.440815019999999             12.88743848     0.80138414999999996
    97   1              0.00012365      16.403222639999999     0.80145666999999998
    98   1      4.0586692700000002      16.403222639999999     0.80145666999999998
    99   1      8.1174337899999998      16.403825260000001     0.80097196999999998
   100   1              12.1761021             16.40390721     0.80133072000000005
   101   1             16.23503496      16.403861750000001     0.80140014999999998
   102   1      20.294101359999999      16.403861750000001     0.80140014999999998
   103   1      24.353034220000001             16.40390721     0.80133072000000005
   104   1      28.411702529999999      16.403825260000001     0.80097196999999998
   105   1      2.0293964600000001      19.919205120000001     0.80066369999999998
   106   1              6.08752564             19.91894023     0.80122479000000002
   107   1      10.146078839999999             19.91919038     0.80159137999999996
   108   1      14.204993419999999              19.9192584     0.80178742000000003
   109   1             18.26456816      19.919377350000001     0.80194975999999996
   110   1      22.324142899999998              19.9192584     0.80178742000000003
   111   1      26.383057470000001             19.91919038     0.80159137999999996
   112   1      30.441610669999999             19.91894023     0.80122479000000002
   113   1              0.00142012      23.434536609999999     0.80178442000000005
   114   1      4.0573728100000004      23.434536609999999     0.80178442000000005
   115   1      8.1165862000000004      23.433936769999999     0.80182306000000003
   116   1             12.17555218      23.433996919999998     0.80156656000000004
   117   1             16.23465491      23.434040110000002     0.80170828999999999
   118   1      20.294481409999999      23.434040110000002     0.80170828999999999
   119   1      24.353584130000002      23.433996919999998     0.80156656000000004
   120   1      28.412550110000002      23.433936769999999     0.80182306000000003
   121   1      2.0293964600000001      26.949875330000001              0.80297246
   122   1      6.0858208300000003      26.950066320000001              0.80215291
   123   1             10.14598146      26.949241430000001     0.80165810000000004
   124   1             14.20520604      26.948673230000001     0.80131923999999999
   125   1             18.26456816             26.94858318     0.80108193999999999
   126   1      22.323930279999999      26.948673230000001     0.80131923999999999
   127   1      26.383154860000001      26.949241430000001     0.80165810000000004
   128   1             30.44331549      26.950066320000001              0.80215291
   129   1      32.413748949999999      28.190222070000001              1.42316822
   130   1              3.97777205             28.05846073              1.61915381
   131   1      8.2075404600000006   -0.057327879999999998              1.22411501
   132   1      12.220634240000001      28.310462619999999               1.5779135
   133   1      16.305520049999998      28.153517770000001              1.50259001
   134   1      20.312658689999999      28.174815670000001      1.5230254400000001
   135   1      24.305814309999999      28.070413869999999              1.60522728
   136   1      28.345298499999998             28.19143789      1.3421460700000001
   137   1               2.1403311      3.5684324900000002              1.32938953
   138   1      5.9583593300000004              3.52113722      1.4470112100000001
   139   1      9.9804394199999997              3.56763334              1.61758475
   140   1             14.22305079      3.5557646799999998              1.56617641
   141   1      18.028674160000001              3.63334226      1.5623174900000001
   142   1      22.447747970000002              3.55139037              1.41112953
   143   1      26.226007729999999      3.6688328600000002      1.5162848900000001
   144   1      30.484619540000001      3.5931858800000001              1.49332441
   145   1     0.12566237999999999      6.8995339099999997      1.5559183999999999
   146   1              4.02553129      7.0781342299999999      1.6669068300000001
   147   1      8.0582641600000002      7.0715722999999997               1.5317957
   148   1             12.15047706      6.9791944099999998      1.5260346899999999
   149   1      16.232341049999999      6.8804630199999997               1.5130891
   150   1      20.223742789999999      7.0768511199999997              1.28171919
   151   1      24.437402339999998      7.0849950499999998      1.4614367500000001
   152   1      28.280365639999999      7.1761107099999997              1.38347047
   153   1              2.15474246      10.526659459999999      1.4121135899999999
   154   1      6.0741081699999997             10.45431436              1.39748373
   155   1      10.203186909999999      10.436954200000001      1.4619368699999999
   156   1      14.245978709999999             10.56357828      1.2834340099999999
   157   1              18.2855618      10.607629449999999      1.6247236199999999
   158   1      22.245351719999999             10.50917978      1.4790418400000001
   159   1      26.403552309999998               10.729065      1.4625231700000001
   160   1      30.452952979999999             10.54258385              1.58253624
   161   1  -0.0083677500000000002      14.041010010000001      1.5408585800000001
   162   1      4.1371139799999996             14.02096141      1.5561805900000001
   163   1      8.0933810499999996             13.97139848              1.53634501
   164   1      12.286125820000001      13.991943020000001      1.1788689000000001
   165   1      16.196102839999998      13.894998490000001      1.3482542799999999
   166   1      20.199679769999999             13.86993451      1.3705061700000001
   167   1      24.446303180000001      13.867427510000001      1.4137062499999999
   168   1      28.560560769999999      14.013179299999999      1.3242506599999999
   169   1      1.9827024200000001             17.44033117              1.41610397
   170   1      6.0398662500000002      17.566783860000001      1.3565140099999999
   171   1      10.132517549999999             17.57771039      1.4725599199999999
   172   1             14.21511961      17.581093209999999      1.5067816999999999
   173   1             18.22429966      17.548027520000002      1.3816196199999999
   174   1      22.352703349999999      17.452246760000001              1.33098655
   175   1             26.31691069             17.42578748      1.3457997900000001
   176   1             30.47187096      17.709205170000001              1.52689023
   177   1      32.242019569999997      21.256869089999999      1.3872279700000001
   178   1              4.00324086             21.11430373      1.5522354300000001
   179   1      8.1673707499999999              21.1560737              1.54472111
   180   1      12.283027629999999      21.189839240000001      1.3437763700000001
   181   1      16.120736269999998      21.161555270000001      1.2475300199999999
   182   1             20.15563234             21.00480864      1.3647132399999999
   183   1      24.375566599999999      21.107304020000001      1.3519507399999999
   184   1      28.379588309999999      21.039281410000001      1.4456307799999999
   185   1              1.87471827      24.467197980000002      1.5336095199999999
   186   1      6.0592335400000001      24.723098960000002              1.55981919
   187   1      10.099085560000001      24.552931820000001              1.66053772
   188   1      14.262939039999999      24.716749249999999              1.36469551
   189   1      18.360974890000001             24.62881763              1.43710732
   190   1             22.19193233      24.578862180000002              1.31086346
   191   1      26.370123100000001      24.593893949999998      1.2320282600000001
   192   1             30.52446093      24.655938880000001      1.4911133599999999
   193   1              1.83207297               1.1618818      2.2705916099999999
   194   1      6.0497330399999996      1.1037605100000001      2.3308980099999999
   195   1             10.18085076              1.19996967      2.4904955200000001
   196   1      14.452415050000001      1.3027651600000001      2.4028801799999999
   197   1      18.275667689999999      1.1205887299999999      2.4908907899999999
   198   1      22.151383540000001              1.27455389      2.5513585399999998
   199   1              26.4155357              1.24217501      2.3481360900000001
   200   1      30.464194280000001      1.1638021300000001              2.36354898
   201   1              0.06050784      4.5944899100000001      2.4661492100000002
   202   1      4.0672782400000003              4.56621027      2.5136822699999999
   203   1      8.0091182599999993      4.6307914200000004              2.46074181
   204   1      12.134370730000001      4.8410039899999999      2.4233051099999998
   205   1              16.3563002      4.6894789399999999      2.5877621300000002
   206   1      20.215321939999999      4.7351495300000002      2.4044151299999998
   207   1              24.1831724      4.8485410299999998      2.6941173200000001
   208   1      28.561401920000002      4.6694903099999996      2.3310606200000001
   209   1              2.24494756      8.2075834000000008      2.4438096699999998
   210   1      6.0325737699999999      8.0222152900000001              2.62833636
   211   1      10.131901790000001      8.3515024600000007      2.6131185800000001
   212   1      14.093008340000001      8.1594278500000001              2.38924775
   213   1             18.29090068      8.1540641199999992      2.4315438899999999
   214   1      22.366463899999999      8.2795736499999997      2.3696689599999998
   215   1      26.410192989999999      8.1653583800000007      2.4384637800000002
   216   1      30.479244649999998      8.1188896800000006      2.4641623500000001
   217   1    0.094445970000000004             11.75608551              2.30907594
   218   1      4.1474013300000001             11.62686062      2.4625433499999998
   219   1              8.11607609             11.61969584      2.4668115799999999
   220   1      12.088042290000001      11.778318759999999      2.3492632800000002
   221   1      16.318392540000001             11.73874921              2.51097635
   222   1      20.284791599999998             11.67695041      2.3867768200000001
   223   1             24.38734908             11.68138912      2.3616120700000001
   224   1             28.48739003      11.783439080000001      2.4092468999999999
   225   1      2.0285809399999999      15.357972269999999      2.4257665199999998
   226   1      6.0548025000000001             15.22834173      2.5071743400000002
   227   1      10.118706939999999      15.129980639999999      2.2978116399999999
   228   1             14.06367633      15.225909339999999      2.4603160499999999
   229   1      18.213350559999999             15.23913845      2.2980923199999999
   230   1              22.4083021      15.114083600000001      2.3212434399999999
   231   1      26.389107320000001      15.240046250000001      2.4303713899999999
   232   1             30.32582854             15.38257673      2.5576322600000001
   233   1      32.300244859999999      18.833611560000001      2.3471842299999999
   234   1      3.8983425299999999             18.68681729      2.4479989500000001
   235   1      8.0673435300000005      18.579810389999999              2.54382207
   236   1             12.29298627      18.880821600000001      2.3538160399999999
   237   1      16.296514510000002             18.77768524      2.3304570099999999
   238   1             20.32433125      18.578235429999999      2.3699222299999998
   239   1      24.397811539999999      18.909295319999998      2.3399339700000001
   240   1      28.291661420000001      18.524137710000002      2.2766100100000002
   241   1      2.1456798099999999      22.388038460000001      2.7073221099999998
   242   1      6.1553630000000004             22.49865934              2.56044289
   243   1             10.08330627      22.090667539999998              2.42057178
   244   1               14.251377             22.43597613      2.4228563200000002
   245   1      18.239652620000001      22.311721200000001      2.3089890500000001
   246   1             22.35474189      22.086035760000001              2.30674153
   247   1             26.47731177      22.183917739999998      2.2919046999999999
   248   1              30.3457258             22.37065235      2.4343803400000001
   249   1      32.527580030000003      25.669007820000001      2.3326833800000002
   250   1      4.0141801199999998      25.688302199999999      2.3738065399999999
   251   1      8.2254243799999998      25.902984010000001      2.4036244500000001
   252   1             12.19512209      25.676973060000002      2.4835503299999999
   253   1      16.372197809999999             25.75296122      2.4049231099999999
   254   1             20.34325552      25.913374940000001      2.3797262300000002
   255   1      24.299274879999999             25.58080519              2.36491125
   256   1      28.345901399999999             25.72221802      2.3289603300000001
   257   1      32.373016440000001      2.2690304499999998      3.1635244999999999
   258   1              4.04981232              2.26976924              3.22233116
   259   1      8.1714006999999995              2.17477951              3.19371377
   260   1             12.10973868      2.4596244199999999      3.2997036799999999
   261   1      16.180615410000001              2.36321073      3.3576551600000002
   262   1             20.16808361              2.61981676               3.2888107
   263   1             24.34047309      2.5468668600000002      3.2906689400000002
   264   1             28.45903783      2.2254041099999999      3.2606421999999999
   265   1      2.0601965400000002      5.7838558200000003      3.3130604199999998
   266   1      6.1935654199999997      5.7690168499999999              3.24087711
   267   1      10.015273240000001      5.7911030200000004      3.4095809400000001
   268   1             14.05623975      5.9653809600000001      3.1600583800000002
   269   1      18.255550589999999      5.9081164900000003      3.1685028900000001
   270   1      22.257917299999999      6.1501713999999996      3.2572019399999999
   271   1      26.467259599999998              5.85742004      3.2776475299999999
   272   1      30.474066579999999      5.9760443099999998      3.2996054799999999
   273   1     0.12983380999999999      9.4154511700000008      3.3993573800000001
   274   1      4.2226846299999998      9.4019112699999994      3.4645839999999999
   275   1      8.0370348499999995      9.3486976800000008      3.3197082500000001
   276   1      12.027582819999999      9.3456178699999999      3.3805094100000002
   277   1      16.311167860000001      9.3156989100000001                3.341564
   278   1      20.398086190000001      9.3827323899999993      3.2689331500000001
   279   1             24.43252669      9.2862067400000008      3.2264033799999998
   280   1      28.477113800000001      9.5540705399999997      3.2514673699999999
   281   1      2.1184655499999998             12.61343272              3.36790068
   282   1              6.13512374               12.755243      3.4550420700000002
   283   1             10.06831133      12.796670020000001              3.15414525
   284   1      14.181597310000001             12.93422522      3.1654642800000001
   285   1             18.24437665      12.981351780000001      3.1883339199999998
   286   1      22.441199749999999             12.97605403      3.1160724200000001
   287   1             26.62839937             12.94129088      3.2834316499999998
   288   1      30.394927299999999      12.840365930000001      3.3194902700000002
   289   1      32.521941589999997      16.455345909999998               3.4790942
   290   1      3.8347254799999999             16.19567267              3.34795869
   291   1      8.0567775099999999      16.261800269999998      3.1546095900000002
   292   1             11.99777549      16.437213669999998      3.1526448399999998
   293   1             16.16547134      16.279804939999998      3.1237564899999999
   294   1             20.38660754      16.389224710000001              3.08021608
   295   1      24.358735719999999      16.283095769999999      3.2026444299999999
   296   1      28.249363899999999             16.35306645      3.2355326400000002
   297   1      1.7778238500000001      20.096438679999999              3.41703753
   298   1      6.1731503500000002             19.64487943      3.3486887300000001
   299   1      10.223551730000001      19.884181760000001      3.2801365200000001
   300   1             14.31701309      19.870467229999999               3.1994354
   301   1      18.389844629999999             19.92821138      3.1992208500000001
   302   1      22.313480890000001      19.806135770000001      3.2433839500000001
   303   1      26.443629219999998      19.907327009999999      3.2871159799999998
   304   1      30.326258849999999             19.92935306      3.2799837300000001
   305   1      32.621082889999997      23.253210899999999      3.2303331900000001
   306   1      4.1818286599999999      23.411268280000002      3.3152283699999998
   307   1      8.1630359299999995      23.435720740000001      3.2676837999999999
   308   1             12.20594045      23.357659309999999      3.1836559800000002
   309   1             16.29755484      23.483120700000001              3.16900819
   310   1             20.39640159      23.362076420000001              3.16227612
   311   1      24.165500510000001      23.340440610000002               3.1817039
   312   1             28.25011744             23.44731093      3.1863386899999999
   313   1              1.91301879      26.846698069999999              3.44456841
   314   1              6.07532841      26.960876379999998      3.2178276399999999
   315   1             10.37600947              26.9289989      3.3566362700000001
   316   1             14.24401649      26.838348719999999      3.2977411299999999
   317   1             18.38549196             26.97046087      3.3396833199999998
   318   1      22.337527779999999      26.848406440000002      3.1393591000000001
   319   1      26.381907999999999      26.788851099999999      3.1852143800000001
   320   1             30.45801947              26.8535164              3.31506773
   321   1      32.289525529999999      27.987717159999999      3.9196467199999998
   322   1              4.05937109      28.114826059999999      4.1541373899999998
   323   1      8.1612744500000005             28.13852331              3.90636983
   324   1             12.26166411      28.186102980000001      4.1821645900000002
   325   1      16.123607809999999  -0.0052297899999999998      4.2601464599999996
   326   1      20.117075799999999     0.24362039999999999              4.27235136
   327   1      24.488251170000002      28.177132149999998              3.92821233
   328   1      28.316780980000001             -0.21889005      4.0056826399999999
   329   1      1.9132354499999999      3.4305116299999998      4.1271394600000004
   330   1      6.0357198500000004      3.5252211299999998      4.1347518599999997
   331   1             10.02627006                 3.52006      4.0817526199999996
   332   1             14.11847964              3.62480461      3.9250537699999999
   333   1      18.175382249999998              3.61452098      4.1652330900000001
   334   1             22.22539922      3.7452582300000001      4.2781070699999999
   335   1      26.427188999999998      3.6230574099999999      4.2547851400000001
   336   1             30.43466626      3.4888544600000002      4.1419386999999999
   337   1   -0.078993679999999997      6.9014331899999997      4.1274521999999996
   338   1      4.1288097700000002      6.8825127000000004      4.0764896500000001
   339   1      7.9426738300000004      7.0082235600000002      4.1385388599999997
   340   1      12.250664069999999      7.0902704700000001      4.1785780900000002
   341   1             16.16060976      6.8882923299999996      3.9474958199999999
   342   1              20.1639822      7.1204853999999997      4.0017417599999998
   343   1      24.305612369999999      7.0612672500000002      4.2439151199999996
   344   1             28.36712885      7.0882859900000001      3.9487521499999998
   345   1      2.0946622800000001             10.44694443      4.0736678800000004
   346   1      6.1042916299999996             10.51955033      4.0581689399999998
   347   1             10.00387111      10.659061579999999              4.12260692
   348   1             14.33876865      10.654756219999999      3.9518010800000001
   349   1             18.22382202             10.47822122              4.20766201
   350   1      22.423946010000002      10.589963210000001      4.0320833199999999
   351   1      26.392175730000002      10.494533240000001      3.9982805199999998
   352   1      30.548110980000001             10.60912282      4.1839760000000004
   353   1    -0.17750245000000001      13.989009060000001      4.2427684000000001
   354   1      4.1017723899999998      13.840558290000001      4.0552432100000004
   355   1      8.0291817099999996      14.118808209999999      4.0536155100000002
   356   1             12.04596248             14.05319259      4.0046341999999999
   357   1      16.288193790000001             14.04663244      4.0244211700000001
   358   1             20.35519506      14.083387500000001              3.94681967
   359   1      24.437307319999999             13.96825552      3.9654706800000001
   360   1      28.563182919999999      14.077180950000001      3.9956974399999998
   361   1              1.94996561             17.71978524      3.9598604700000002
   362   1      6.1572604899999996             17.39643208      4.0957560800000001
   363   1             10.21935931             17.48006037      4.1262684199999997
   364   1             14.15977962             17.48386919              4.06235941
   365   1      18.390169570000001             17.48369301      4.1859781199999997
   366   1      22.311604330000002             17.38150117      3.9503427100000001
   367   1      26.279120240000001      17.534306600000001      3.8576724499999999
   368   1      30.422198959999999             17.40641445      4.2003425200000004
   369   1      32.271876990000003             20.95861773      4.1626894500000002
   370   1      4.1812872399999996      21.079743449999999      4.0413556499999999
   371   1              8.20801202             20.99781363      4.1434979299999997
   372   1             12.24186001      21.114586540000001      4.0716088900000003
   373   1      16.192049019999999             21.26520644      3.9179428600000001
   374   1      20.284202919999998      21.079829839999999      4.0169178399999996
   375   1      24.282643799999999      21.071679339999999      3.9754490200000001
   376   1      28.332863280000002      21.152496589999998      4.1083376400000002
   377   1               2.0822539      24.686328540000002      4.1620078500000002
   378   1      6.2621357700000004             24.58680274      4.1341146799999997
   379   1             10.22613155      24.545447129999999      4.2177009300000003
   380   1             14.26619492      24.490402979999999      4.0122713900000004
   381   1             18.15354881      24.745028810000001      4.0716956900000003
   382   1      22.217615609999999      24.536594919999999              4.07849883
   383   1      26.209674679999999      24.339924400000001      3.7964505900000001
   384   1             30.43017528      24.499351090000001      4.1172646400000001
   385   1      2.0162064399999999              1.21425994              4.75384926
   386   1      6.0455228600000002              1.05675037      4.7184668399999996
   387   1      10.164753340000001               1.1424709      5.0092020399999999
   388   1              14.1425752              1.17293604      4.8503305499999998
   389   1      18.221842609999999      1.2744813100000001      5.0816815899999996
   390   1      22.398342809999999      1.2876352200000001      4.9240208299999999
   391   1              26.3723797              1.19271496      4.8709040699999999
   392   1      30.464697399999999              1.15442461      4.8820356399999998
   393   1      32.387358149999997      4.6091934200000004      4.9300063999999999
   394   1      4.0537062199999996      4.6605647799999996      4.8960643099999999
   395   1      8.0770909799999995      4.8634230599999997      4.8782471999999997
   396   1      12.118024119999999      4.6724409700000002      4.9335747000000003
   397   1             16.00663978      4.5408920000000004      5.0058726399999998
   398   1      20.072364019999998      4.7978940300000001      4.9412540199999997
   399   1      24.213291829999999      4.7432384799999996      5.1402815999999998
   400   1      28.522646649999999      4.7886126300000003      4.8478523100000004
   401   1      2.0018719599999999      8.0496057899999993      5.0014064200000004
   402   1      5.9643745700000004      8.1470480999999992              4.94846188
   403   1             10.03410384      8.2405526899999995              5.07380488
   404   1      14.305257790000001      8.3636408800000002      5.0511959900000001
   405   1      18.279295820000002      8.2292389999999997      5.1111948199999997
   406   1      22.482408970000002      8.2421296000000002      4.8705480999999997
   407   1      26.291389209999998              8.13330968      5.0229568599999999
   408   1      30.266781980000001      8.1671255200000008      4.9950937700000004
   409   1      32.542175219999997             11.82672301      4.9955803899999998
   410   1      4.0194461500000003      11.543417939999999      4.8642839100000002
   411   1      7.9824457799999999      11.838291610000001      5.0134386900000001
   412   1      12.132102769999999      11.752008679999999      4.8779524800000003
   413   1             16.25882635      11.891132109999999      4.9495068299999998
   414   1      20.369008050000001      11.481303759999999      4.9080624899999998
   415   1      24.464004039999999             11.60201651      4.9391676799999997
   416   1      28.563055129999999      11.741159789999999      5.1460402700000003
   417   1      1.9696778699999999             15.14216347      4.9509333900000003
   418   1      5.9467689999999997             15.13629862      5.0491256699999996
   419   1      10.031018299999999             15.30989653      4.9041289600000004
   420   1              14.1036722      15.057744039999999      4.8974481900000004
   421   1      18.292238269999999      15.249838309999999      5.1256321600000003
   422   1      22.405194009999999             15.12493508              4.81388938
   423   1      26.365491909999999      15.071151130000001      5.0086327099999997
   424   1      30.494800900000001             15.17991971      5.2175229700000001
   425   1      32.443690310000001      18.694872119999999              5.09867414
   426   1      4.1581752099999996      18.700580429999999              4.88912046
   427   1      8.0507787299999993      18.776608289999999      5.0617074400000002
   428   1             12.03417305             18.71494539      4.9784242499999998
   429   1             16.17034005      18.928156260000002      4.8557958399999999
   430   1      20.283575249999998      18.774075150000002      4.7929683699999996
   431   1             24.38419472      18.515199970000001      4.7292075499999999
   432   1      28.209226579999999              18.5650732      4.7838974700000003
   433   1      1.9840112999999999      22.226764679999999      5.2535309799999999
   434   1      6.2535798700000003              22.2156746      4.9905225299999998
   435   1             10.04518755      22.234655839999999      4.9001466100000002
   436   1               14.226305      22.257989139999999              5.01713348
   437   1             18.33154824      22.443566919999999      5.0407482999999997
   438   1             22.15756915             22.00906938      4.8873056699999999
   439   1      26.238327439999999      22.249996339999999      5.1350476299999999
   440   1              30.3375421      22.177328469999999              5.10726557
   441   1      32.413181899999998      25.588370690000001      4.9353863599999999
   442   1              3.91981885      25.803889160000001      5.0211144599999997
   443   1      8.1487326699999993      25.736640659999999      4.8862105099999997
   444   1      12.187622360000001             25.63651441      4.9567006999999998
   445   1             15.98478177             25.85943301      4.9564468000000002
   446   1      20.273803789999999             25.82785758      4.8802577999999999
   447   1      24.319972740000001      25.769655350000001      4.7855068999999997
   448   1      28.381262280000001      25.758053369999999      4.9918944500000002
   449   1      32.465191279999999      2.3879964500000002      5.8263249400000001
   450   1      4.0337740200000001      2.1528087999999999      5.8321188599999996
   451   1      8.1333586199999992              2.36677223      5.6823235600000004
   452   1             12.20526059              2.30368569      5.7384792300000003
   453   1      16.048642300000001      2.3237260499999999      5.7034543600000003
   454   1      20.284628099999999      2.4067505499999999      5.9148232800000002
   455   1      24.348629259999999      2.3066505799999999      5.6709451800000004
   456   1      28.327615850000001      2.2209382600000001              5.66123171
   457   1      1.8858133500000001      5.7328290600000003              5.65188164
   458   1               6.0583456      5.8253000899999998      5.7397757699999996
   459   1      10.066463049999999      5.9301686599999996      5.7822613900000004
   460   1             14.02595198      5.9133983099999998      5.8061734700000001
   461   1             18.09842583              5.78773056      5.6826684299999997
   462   1             22.25723266      5.8949531799999999      5.7084415499999999
   463   1      26.440532739999998      5.7326068899999996      5.7601706699999999
   464   1      30.413314969999998      6.0412222800000004      5.7963438399999996
   465   1      32.706564890000003      9.3972195099999993      5.8754262700000002
   466   1      4.0181608200000003      9.3864997399999996      5.8751979800000003
   467   1      8.0356359000000008      9.3461373499999993      5.8263960299999997
   468   1      12.248277959999999      9.4769428999999992              5.80902312
   469   1             16.18324539      9.4910294900000007      5.7910876800000004
   470   1      20.451987899999999      9.5196668500000001      5.8025280500000003
   471   1      24.542010479999998      9.3849709099999998      5.7272425299999998
   472   1      28.397424579999999      9.4998872500000004      5.9146464999999999
   473   1              2.01599496             12.78023926      6.0045132399999996
   474   1      5.8671551400000004      12.609385489999999      5.8090524400000003
   475   1      10.204996919999999      12.810773770000001      5.7348796799999997
   476   1      14.204541020000001      12.872759930000001      5.6264380699999998
   477   1      18.440161230000001             12.99606852      5.6604083200000002
   478   1             22.43136294             12.70322123              5.66836699
   479   1      26.285593779999999      12.693211440000001      5.8012735700000002
   480   1      30.423709030000001      12.793053649999999      5.9135995699999997
   481   1    -0.14907103999999999      16.408233379999999      5.9513324399999998
   482   1      4.1558898900000001             16.24041291      5.7238160699999998
   483   1      8.0651780599999991      16.228567229999999      5.7419042100000004
   484   1      11.966654050000001      16.308110970000001      5.6291479799999999
   485   1      16.024712820000001      16.464175900000001      5.7264003900000002
   486   1      20.353294300000002      16.412083970000001      5.6763789300000003
   487   1             24.33508522      16.371879750000002      5.5954278899999998
   488   1             28.41990492      16.382261239999998      5.8047807300000001
   489   1      1.8982216300000001      19.851467840000002      5.8233401599999999
   490   1      5.9780469099999998      19.701006110000002      5.7469751200000001
   491   1      10.216563450000001             19.88264225      5.8068889500000003
   492   1             14.19234533      19.981036450000001      5.7229560800000003
   493   1      18.234804220000001      19.699224279999999              5.76048384
   494   1             22.37445426              19.6294495      5.7708985100000003
   495   1      26.376893119999998      19.921161900000001      5.8958052700000003
   496   1      30.403549000000002      19.759775560000001      5.8107701799999996
   497   1    -0.17736642999999999             23.28283639      5.8650395499999997
   498   1              4.13498155             23.48209748      6.0178930900000003
   499   1      8.0855578700000006      23.501993590000001      5.8451869900000002
   500   1      12.121775189999999      23.288308059999999      5.6512167800000004
   501   1      16.409624600000001      23.458278320000002              5.55739114
   502   1             20.19695823      23.582242350000001      5.6106750300000003
   503   1             24.20234224      23.518445750000001      5.6177806600000002
   504   1             28.44018092             23.61106332      5.8032317100000004
   505   1              1.85965918      26.924030439999999              5.79791071
   506   1      6.1951710999999996      27.023113009999999      5.8504662400000003
   507   1             10.25882107             26.94989567      5.8363950000000004
   508   1             14.15137831      27.052075590000001      5.9008900799999999
   509   1      18.282713430000001             26.98764838              5.65131812
   510   1      22.587778549999999      26.864623559999998              5.69369177
   511   1      26.448063690000001      26.706943540000001      5.6939361100000001
   512   1      30.338175329999999             26.85248052      5.8885799299999997
   513   1      32.466146049999999             28.08160526      6.5383995800000001
   514   1      3.9785919000000001      28.102973510000002      6.9012129800000004
   515   1              8.22876327             28.21292656      6.6369619699999998
   516   1             12.18064772    0.013790210000000001      6.7052584599999996
   517   1             16.23972208     0.26127282000000002      6.7100232599999998
   518   1      20.337337160000001      28.157097579999999      6.5070893700000001
   519   1      24.327886889999998             28.15185039      6.4233654199999997
   520   1      28.320460579999999             28.13731593      6.5988683400000001
   521   1              1.90358191      3.4445360100000002      6.5870699400000001
   522   1      6.1126712100000002              3.35101205      6.6990661200000003
   523   1      10.133578139999999              3.56260785               6.6370179
   524   1             14.11624963              3.56388953      6.5795308500000003
   525   1      18.213675309999999              3.57860814      6.7102619499999996
   526   1      22.474847650000001      3.5668229600000001      6.5183079399999997
   527   1      26.432545229999999      3.4781729499999998      6.7585466900000002
   528   1      30.310045840000001      3.5223041899999998      6.5388783000000004
   529   1      32.413735359999997      7.0395755299999996      6.6768905199999997
   530   1      4.1227615899999996      6.9168790700000002      6.6431190300000003
   531   1      8.1568546899999994      7.1742083000000001      6.6722488000000002
   532   1             12.15036151              7.12930682      6.6972451499999996
   533   1      16.236497360000001      6.9384946699999999      6.5544885800000001
   534   1      20.086756149999999      7.0659475299999999      6.6670981899999999
   535   1      24.464496889999999      6.9357615800000003      6.6867033600000001
   536   1      28.352666660000001      7.1313866299999997      6.6695709799999996
   537   1              1.95983339             10.34066264      6.7232473800000001
   538   1      6.1387247599999997             10.41307875      6.6653501500000001
   539   1      10.148569030000001             10.49533488      6.5916702100000002
   540   1      14.217560130000001      10.687590439999999      6.6040419200000002
   541   1      18.249102990000001      10.793713889999999      6.6850139000000004
   542   1      22.324433590000002             10.44497033      6.5932550599999997
   543   1      26.324989080000002             10.52513136      6.8515189799999998
   544   1      30.470810889999999             10.50105791      6.6468773299999997
   545   1      32.500783550000001      14.064369080000001      6.9321123199999999
   546   1      4.0092660200000001      14.041110890000001      6.6731368700000004
   547   1      7.8927046000000001      14.044013639999999      6.5550234300000003
   548   1             12.28370453      14.107291379999999      6.6373938399999997
   549   1      16.411558540000001      14.105516939999999      6.7934357199999997
   550   1      20.513190030000001      13.998511390000001      6.6984849999999998
   551   1      24.295285610000001             14.00309395      6.4028433400000004
   552   1             28.31554873      13.980415689999999      6.7621119399999996
   553   1      2.3031327300000002      17.356113709999999      6.5045399799999997
   554   1      6.0930237800000002      17.470614999999999      6.6853372599999998
   555   1      9.9273979899999993      17.667859809999999      6.5636466100000002
   556   1             13.89508013      17.427152329999998      6.5489945900000004
   557   1      18.318686039999999      17.444355569999999      6.5752095199999996
   558   1             22.38257089      17.353282149999998      6.5035204499999999
   559   1      26.404416470000001      17.353423880000001      6.5794296000000001
   560   1      30.431136859999999               17.521269      6.9575924899999997
   561   1      32.396911459999998             21.08390674      6.6694324900000002
   562   1      4.1051166099999996      21.007277890000001              6.53159197
   563   1      8.1761851199999995             21.19687747              6.67239133
   564   1      12.178221649999999      21.055451869999999      6.5104519500000002
   565   1             16.13580756             21.19178994      6.6334745100000001
   566   1      20.214908449999999              20.9894751      6.4583509899999996
   567   1      24.232298289999999               21.120963      6.6403627700000003
   568   1             28.48178819      21.057367469999999      6.6824523500000002
   569   1              1.88693471      24.599248020000001      6.7123047800000002
   570   1      6.0738746099999998      24.433469169999999      6.7103559300000004
   571   1             10.20716004      24.664835440000001      6.6270804099999996
   572   1             14.18029688             24.72701197              6.60645361
   573   1      18.320784010000001             24.75421815      6.5592620300000002
   574   1      22.250317370000001      24.634234190000001      6.5915717999999996
   575   1             26.32509791      24.580647760000002      6.7639912300000002
   576   1             30.50067748             24.55820357              6.57044198
   577   1      1.9314369899999999              1.13354077      7.6393716400000002
   578   1      6.0336759600000001      1.1535477000000001      7.3193391200000004
   579   1      10.039940059999999      1.3295578800000001      7.5166069499999999
   580   1             14.27600681              1.22151162      7.4111659999999997
   581   1             18.19523543      1.3752140399999999      7.5608956300000001
   582   1      22.253755300000002              1.07260475               7.3895526
   583   1             26.35032442      1.3804080999999999      7.4545173199999999
   584   1      30.512758460000001      1.0721484100000001      7.2716944300000002
   585   1      32.347433330000001              4.83699821      7.3385271999999997
   586   1      3.9754191900000002      4.6484680899999997      7.4727856900000003
   587   1      7.9775376700000002      4.8217131999999996      7.4729033500000002
   588   1             16.20438652     0.33268470999999999      9.0901928499999993
   589   1      15.971519799999999      4.8513249199999997      7.6148024000000003
   590   1             20.19018179      4.8236998800000004      7.5193937799999997
   591   1      24.364305770000001      4.5714813699999999      7.5486334800000003
   592   1      28.431338889999999              4.68853805      7.3423298700000004
   593   1              1.95896676      8.1039939299999997      7.3646690299999999
   594   1      5.9650349599999997      8.1069387099999997      7.6215874399999999
   595   1      10.189748079999999      8.2836108999999993      7.5849911499999996
   596   1      14.199302279999999      8.4616535699999993      7.6007304700000002
   597   1      18.083312830000001      8.2373760300000001              7.48353234
   598   1             22.26371915      8.2850024700000002              7.41600518
   599   1      26.356510530000001      7.9981274999999998      7.6648390400000004
   600   1             30.52836035      8.3665735600000009      7.5042940800000002
   601   1    0.060718139999999997      11.736933049999999      7.5938042000000001
   602   1              3.92141589      11.799787289999999      7.3761885999999999
   603   1      8.1350032300000006             11.91107839      7.4660677599999996
   604   1             12.37307232      11.775699469999999      7.4561176800000002
   605   1      20.187587300000001      9.3168960700000003      7.9920852699999996
   606   1      20.165991989999998             11.62786071      7.3868861499999996
   607   1             24.21360937      11.542347579999999      7.4350540299999999
   608   1      24.464349259999999      9.3746527999999998      8.1591083599999994
   609   1      2.0513360399999998      15.221470699999999      7.5444502499999997
   610   1              6.25999982             15.18498598              7.61700307
   611   1             12.21498918      16.497620640000001      8.2298887900000004
   612   1             14.33830972             15.24753091      7.5111040200000003
   613   1      18.357966940000001      15.327724549999999      7.8699374200000003
   614   1      22.398199739999999             14.98885338              7.66977639
   615   1      26.155283050000001             15.06136573      7.3747438000000001
   616   1      30.616391749999998      15.185469380000001      7.6814589199999999
   617   1             32.63936228      18.866684100000001              7.57293766
   618   1      4.0990320899999997      18.857879839999999      7.4561077400000002
   619   1      8.0711072000000001      18.731006069999999              7.64731205
   620   1             11.95380843      18.870552719999999      7.5332260599999996
   621   1      16.363466259999999      18.552594719999998      7.5757402599999999
   622   1      20.280325959999999             18.62140278      7.2299852800000002
   623   1             24.28847279      18.708487900000002      7.3138394199999999
   624   1      28.185155399999999             18.73476226      7.3782016400000003
   625   1      2.0035334800000002      22.464135049999999      7.5920780299999997
   626   1      5.9617893300000002      22.198567100000002      7.2851650399999999
   627   1      12.203201529999999      21.220808229999999      8.6785329699999991
   628   1             14.22824636             22.28407013      7.5829275999999997
   629   1      18.195080310000002      22.153039280000002      7.4383890099999999
   630   1      22.234126230000001      22.316413350000001      7.2959403600000003
   631   1      26.420117210000001      22.238749420000001      7.5987392600000003
   632   1              30.4887254      22.088387579999999      7.8808117400000004
   633   1      32.437026009999997      25.700908940000001      7.6635140799999997
   634   1      4.2119921700000003             25.69985762      7.5792231599999997
   635   1      8.0640076199999999      25.871293510000001              7.50077982
   636   1             12.22642261             25.78836647      7.4406303600000001
   637   1              16.3144955      25.931888109999999      7.5669355100000004
   638   1             20.18391132      25.982104100000001      7.4724775799999996
   639   1             24.28529275      25.775134489999999      7.3781910799999997
   640   1             28.29970166      25.785823929999999              7.69095072
   641   1              4.06338767              6.61970802      9.1784530699999998
   642   1      32.415969349999997      2.5454124299999998      8.2469824999999997
   643   1      5.9714726000000002             10.45118091      9.2613059999999994
   644   1             14.18619535      27.060983190000002      8.2988082700000003
   645   1             10.30479643      22.371059599999999      7.2131878499999997
   646   1      26.374591370000001      24.708244149999999      9.1774968099999992
   647   1             22.47439966      6.0399275299999999      8.1972214799999996
   648   1             10.28781463      3.6338782300000001      8.9316739599999995
   649   1      4.0742434799999998             16.42760509      8.3209277200000002
   650   1              5.85381105      27.162336199999999      8.2879643499999993
   651   1      20.142195480000002             23.50773598      8.2162742400000006
   652   1             18.04255805      5.8079097400000004      8.3675366100000002
   653   1             22.27874534              12.7306753      8.2381185699999993
   654   1      1.8597803100000001             24.75487403      9.0015698799999999
   655   1      22.283544729999999      26.872774740000001      8.3341475999999997
   656   1      3.9560115900000001             23.46327896      8.3902978400000006
   657   1      9.8688902400000007             10.57018675      8.9960447400000003
   658   1             14.25844508      17.495275589999999      9.0393510999999993
   659   1              0.21620264      9.0959562799999993      8.3039876199999991
   660   1      16.031011939999999      6.9059744600000004      9.1622913599999993
   661   1             28.19979172   -0.035319589999999998      9.0540278599999997
   662   1      28.618866650000001      2.2905919099999998      8.0859464699999997
   663   1      20.123969979999998              0.15938636      9.0299677200000001
   664   1      2.0225692799999999      13.121117999999999      8.5418835499999997
   665   1             10.09985251             12.90280329      8.3287315399999997
   666   1             14.31229138             19.58820747      8.1520655000000009
   667   1      5.5777384799999998      17.934896999999999      9.3822120200000008
   668   1      16.316433780000001             11.80650164      7.7775480699999999
   669   1      3.9081948299999998      11.916677440000001      9.8984507300000004
   670   1      28.490002019999999      9.0353949599999996      8.3204322299999998
   671   1              1.97332131      8.0827002100000005      9.9259560199999992
   672   1              2.00331525      20.035665349999999      8.0841277599999994
   673   1      32.443979759999998      23.388324749999999      8.3290663800000004
   674   1      2.4845631799999999      17.953549349999999      9.2155037899999996
   675   1      24.305742599999999             16.43578286      8.2565803100000004
   676   1             12.10377955      2.3564059500000001      8.1488291900000007
   677   1             20.39036347      6.7805978600000003      9.1908941599999991
   678   1             20.79142508      20.902216190000001      8.6888639899999998
   679   1      26.530852849999999              5.60755099      8.3919287899999997
   680   1      28.560452250000001      11.364429980000001      7.8072962300000004
   681   1               1.9398114      5.5756432599999997      8.7007908500000006
   682   1      10.153079910000001             15.11755073      7.4087959400000001
   683   1      8.3622047599999991  -0.0060644399999999999              8.91972041
   684   1             14.19066099             10.92061577      9.0607266499999994
   685   1             22.41350203      18.749081489999998      8.5410830600000001
   686   1      18.548145550000001      12.885885269999999      8.2479840000000006
   687   1             14.16556595             13.04997788      8.0144047700000005
   688   1      24.536755280000001      14.271459500000001      9.3331903100000009
   689   1      18.344658899999999             19.66510989      8.2582435099999998
   690   1      32.674603939999997             16.43446711      8.4263048299999994
   691   1      30.241710390000001      6.1721658899999996      8.1594926399999999
   692   1      16.147395719999999              2.60764226      8.1408647599999995
   693   1      16.475606689999999             13.94720536      9.1503687399999993
   694   1      22.391695649999999             10.25955349      9.0585719299999994
   695   1             24.43548161      23.521765649999999      8.1257763799999996
   696   1      2.1154324299999998             15.58819205      10.026639080000001
   697   1      8.2373937099999992      7.1523971900000003      9.0222380999999992
   698   1      18.312920779999999             24.89117418              9.03659605
   699   1      20.438465090000001      2.5481495299999999      8.5590698100000004
   700   1             18.28019278      27.042689110000001      8.1716989099999999
   701   1              13.8981069      5.8159060299999998      8.4377545999999999
   702   1      23.663355039999999             21.03399855      8.9144275499999992
   703   1             22.44974719      3.8301360999999998      9.0302729599999996
   704   1      26.314940709999998      19.961648910000001      8.5436405099999995
   705   1      3.7523266099999999      2.4382738499999999      8.4201842599999992
   706   1      6.1127903899999998      3.5389837499999999      8.9550419100000003
   707   1      14.224450389999999      24.411592349999999      9.0070484099999994
   708   1      18.585551330000001      17.507036809999999      8.9680393200000008
   709   1      22.532565000000002      1.3787329699999999      9.6487584900000005
   710   1             16.16973033             20.88596441      9.0359545899999993
   711   1      32.442960560000003              7.00816018      9.1178925100000008
   712   1      32.368435310000002             20.93151993      9.1131323700000006
   713   1      30.417010699999999              1.33486478      9.8483674899999993
   714   1      3.9180356000000001      21.021815950000001              8.99263221
   715   1      32.374503850000004     0.19850335999999999      9.0572374399999998
   716   1      12.132835740000001      23.722679620000001      8.3207241599999993
   717   1             26.28492464      27.006609300000001      8.1224608600000003
   718   1      30.545187339999998             12.73209628      8.4312154199999991
   719   1              2.05231356             10.32214001      9.2682996899999992
   720   1      30.280687360000002      3.7231467600000001      9.0277976199999994
   721   1      4.1037733200000002      9.1702413200000006      8.4275252199999997
   722   1      8.0718156800000003             23.32564764      8.1644105899999992
   723   1      7.9837572200000002      9.3606444900000003      8.2429458499999999
   724   1      8.0024729400000005      11.630887939999999      9.9995711600000003
   725   1             11.92185982      6.9519966699999998      9.1388154499999992
   726   1             16.30136165      9.3962945300000005      8.4144377899999991
   727   1             16.49664984             18.58654404      9.9394617000000007
   728   1      26.434366350000001      12.609288579999999      8.2312910299999995
   729   1      7.9995651499999996             13.94896179      9.0613464599999993
   730   1             12.01838382      4.6918907299999999              7.65124067
   731   1      12.130923749999999      9.4952950099999995      8.0942930900000007
   732   1              18.2245414      10.410824330000001      9.3165637599999993
   733   1      16.381590719999998             16.39517755      8.5985083600000003
   734   1      30.351659829999999      24.550242059999999      8.9389884399999993
   735   1      24.268241360000001      2.3741273299999999      8.3363693100000003
   736   1      8.4134758099999996      16.441070069999999      8.1456376200000005
   737   1      30.272676929999999      19.672064219999999      8.3632468000000006
   738   1             30.65103448             10.35054875      9.1288585399999995
   739   1      11.976278669999999             14.24892958      9.0679259400000003
   740   1      24.441149129999999              6.99350177      9.2490652600000001
   741   1             24.54215692      11.830986230000001      9.5884497500000005
   742   1      26.573833279999999      2.9960189800000001      9.1763892800000004
   743   1      18.180303720000001      7.9577269499999996      9.8918326200000006
   744   1             32.42248043              13.9764435      9.2111306000000006
   745   1      28.661102140000001             16.20753423      8.1568874099999995
   746   1      6.1313860800000004      12.636522830000001      8.5002694000000005
   747   1             10.24092276               17.694782      8.9954383399999998
   748   1      9.9541797899999995             20.12270286      8.0486621800000009
   749   1      20.588524280000001             16.33111573      8.0309080599999998
   750   1      28.271943369999999      13.886434680000001      9.1390596899999998
   751   1      28.429308939999999      23.468725119999998      8.2241567999999994
   752   1      4.1553083500000003      14.283118310000001      9.0792896800000005
   753   1      6.2172404400000003      20.241460490000001      8.6025358900000004
   754   1      8.0542893000000007              2.31697759              8.18851248
   755   1      6.2215764099999999      5.8872149800000004      8.3183832599999992
   756   1             10.10482466      26.833778779999999      8.2704960500000002
   757   1      2.1847675099999999      27.206926370000001      8.4882400899999997
   758   1      24.407808249999999      28.195603349999999      9.0183526500000006
   759   1      26.634009649999999             17.32439231      8.9595143200000003
   760   1      24.269859839999999             25.63988105      9.6026009299999995
   761   1      16.317343520000001      23.490620750000001      7.9777940100000002
   762   1      26.709585130000001             10.51288884      9.1961868100000004
   763   1      9.9361628799999995      5.9444891699999998      8.0995248499999999
   764   1             14.22784519              3.46352986      9.0628613500000004
   765   1      18.155663480000001      3.4034672800000001      9.0631862299999995
   766   1      22.341511260000001             24.31310384      9.2747318399999994
   767   1      28.492986689999999             20.94120684      9.0580869199999992
   768   1      30.434208460000001      26.929641019999998      8.5139347099999991
   769   2      21.079140779999999      22.540728340000001      9.5400530700000008
   770   2             22.75392154      22.501920909999999      9.6958882200000005
