N2-dn2-coord-10bar/300K/snapshots/frame-53056/run-000/../data.lammps (written by ASE) 

770 	 atoms 
2  atom types
0.0      32.470343392086264  xlo xhi
0.0      28.120142247150884  ylo yhi
0.0      31.213473999158239  zlo zhi


Atoms 

     1   1      2.0293964600000001      1.1716090800000001    0.023552650000000001
     2   1      6.0880008999999999              1.17168918              0.02556874
     3   1      10.146952280000001              1.17170328    0.025416459999999998
     4   1      14.205754900000001      1.1716496700000001              0.02501565
     5   1             18.26456816              1.17166478              0.02504435
     6   1             22.32338141      1.1716496700000001              0.02501565
     7   1      26.382184030000001              1.17170328    0.025416459999999998
     8   1      30.441135410000001              1.17168918              0.02556874
     9   1  9.1780000000000006e-05      4.6866847900000002    0.025581599999999999
    10   1      4.0587011400000002      4.6866847900000002    0.025581599999999999
    11   1      8.1174961000000003      4.6866290399999997    0.025584639999999999
    12   1             12.17638011      4.6866852999999997              0.02491202
    13   1             16.23517979      4.6866942700000003    0.025006210000000001
    14   1      20.293956519999998      4.6866942700000003    0.025006210000000001
    15   1      24.352756209999999      4.6866852999999997              0.02491202
    16   1      28.411640219999999      4.6866290399999997    0.025584639999999999
    17   1      2.0293964600000001      8.2016395800000002    0.026613040000000001
    18   1      6.0881071599999999      8.2016314300000008              0.02543782
    19   1             10.14701835               8.2017045    0.025156850000000001
    20   1      14.205766049999999      8.2017080900000003    0.024990459999999999
    21   1             18.26456816      8.2017077599999997    0.025091249999999999
    22   1      22.323370260000001      8.2017080900000003    0.024990459999999999
    23   1      26.382117969999999               8.2017045    0.025156850000000001
    24   1      30.441029149999999      8.2016314300000008              0.02543782
    25   1  9.2789999999999998e-05             11.71671873    0.025573410000000001
    26   1              4.05870014             11.71671873    0.025573410000000001
    27   1      8.1176017700000003             11.71668698              0.02497914
    28   1             12.17637068             11.71673069    0.025001590000000001
    29   1      16.235177310000001      11.716730249999999    0.025074039999999999
    30   1      20.293959009999998      11.716730249999999    0.025074039999999999
    31   1      24.352765640000001             11.71673069    0.025001590000000001
    32   1      28.411534549999999             11.71668698              0.02497914
    33   1      2.0293964600000001             15.23167155              0.02525285
    34   1      6.0881728300000004      15.231678799999999    0.025062859999999999
    35   1             10.14698486      15.231762639999999               0.0250786
    36   1             14.20578841             15.23176782    0.025201990000000001
    37   1             18.26456816              15.2317707    0.025149979999999999
    38   1      22.323347900000002             15.23176782    0.025201990000000001
    39   1      26.382151459999999      15.231762639999999               0.0250786
    40   1      30.440963480000001      15.231678799999999    0.025062859999999999
    41   1      32.470327990000001      18.746748629999999    0.024951939999999999
    42   1      4.0588083299999997      18.746748629999999    0.024951939999999999
    43   1      8.1175770200000006      18.746803499999999    0.025222040000000001
    44   1             12.17637459      18.746799750000001    0.025428470000000002
    45   1      16.235159400000001      18.746805200000001    0.025487360000000001
    46   1      20.293976919999999      18.746805200000001    0.025487360000000001
    47   1      24.352761730000001      18.746799750000001    0.025428470000000002
    48   1             28.41155929      18.746803499999999    0.025222040000000001
    49   1      2.0293964600000001      22.261939099999999    0.025844880000000001
    50   1      6.0881419299999999      22.261841799999999    0.025489439999999999
    51   1             10.14692954             22.26176895              0.02551757
    52   1             14.20573559      22.261804690000002    0.025639160000000001
    53   1             18.26456816             22.26178625    0.025640119999999999
    54   1      22.323400729999999      22.261804690000002    0.025639160000000001
    55   1      26.382206780000001             22.26176895              0.02551757
    56   1             30.44099439      22.261841799999999    0.025489439999999999
    57   1  5.6450000000000003e-05      25.776936450000001              0.02613327
    58   1      4.0587364700000004      25.776936450000001              0.02613327
    59   1      8.1175325399999991              25.7767713    0.024734180000000001
    60   1      12.176376469999999      25.776831090000002              0.02545323
    61   1      16.235145939999999      25.776775220000001    0.025273360000000002
    62   1             20.29399038      25.776775220000001    0.025273360000000002
    63   1      24.352759840000001      25.776831090000002              0.02545323
    64   1      28.411603769999999              25.7767713    0.024734180000000001
    65   1  0.00024266000000000001              2.34304215     0.80166565000000001
    66   1      4.0585502699999996              2.34304215     0.80166565000000001
    67   1      8.1157394600000003              2.34454954     0.80169402000000001
    68   1             12.17601256      2.3433829099999999     0.80116898000000003
    69   1      16.235258170000002      2.3433209100000001     0.80090046999999998
    70   1      20.293878150000001      2.3433209100000001     0.80090046999999998
    71   1      24.353123750000002      2.3433829099999999     0.80116898000000003
    72   1      28.413396859999999              2.34454954     0.80169402000000001
    73   1      2.0293964600000001      5.8582218700000004     0.80119762000000005
    74   1      6.0870566899999998      5.8583336700000004              0.80194851
    75   1             10.14649655              5.85853131     0.80121584000000001
    76   1             14.20597894      5.8582938599999999     0.80086840999999998
    77   1             18.26456816      5.8583798500000004               0.8010794
    78   1      22.323157380000001      5.8582938599999999     0.80086840999999998
    79   1             26.38263976              5.85853131     0.80121584000000001
    80   1      30.442079629999999      5.8583336700000004              0.80194851
    81   1  0.00019438999999999999      9.3717771800000005     0.80082061000000004
    82   1      4.0585985400000002      9.3717771800000005     0.80082061000000004
    83   1      8.1175070500000004      9.3725002699999997     0.80149060999999999
    84   1      12.176590020000001      9.3733583399999993     0.80088261999999999
    85   1             16.23512199      9.3733789200000004              0.80106506
    86   1             20.29401433      9.3733789200000004              0.80106506
    87   1      24.352546289999999      9.3733583399999993     0.80088261999999999
    88   1      28.411629269999999      9.3725002699999997     0.80149060999999999
    89   1      2.0293964600000001             12.88692854     0.80220621000000003
    90   1      6.0883212999999996             12.88743848     0.80138414999999996
    91   1      10.147128609999999             12.88859852     0.80085256000000005
    92   1             14.20571782      12.888558189999999     0.80113791000000001
    93   1             18.26456816      12.888409899999999     0.80109381000000002
    94   1      22.323418490000002      12.888558189999999     0.80113791000000001
    95   1             26.38200771             12.88859852     0.80085256000000005
    96   1      30.440815019999999             12.88743848     0.80138414999999996
    97   1              0.00012365      16.403222639999999     0.80145666999999998
    98   1      4.0586692700000002      16.403222639999999     0.80145666999999998
    99   1      8.1174337899999998      16.403825260000001     0.80097196999999998
   100   1              12.1761021             16.40390721     0.80133072000000005
   101   1             16.23503496      16.403861750000001     0.80140014999999998
   102   1      20.294101359999999      16.403861750000001     0.80140014999999998
   103   1      24.353034220000001             16.40390721     0.80133072000000005
   104   1      28.411702529999999      16.403825260000001     0.80097196999999998
   105   1      2.0293964600000001      19.919205120000001     0.80066369999999998
   106   1              6.08752564             19.91894023     0.80122479000000002
   107   1      10.146078839999999             19.91919038     0.80159137999999996
   108   1      14.204993419999999              19.9192584     0.80178742000000003
   109   1             18.26456816      19.919377350000001     0.80194975999999996
   110   1      22.324142899999998              19.9192584     0.80178742000000003
   111   1      26.383057470000001             19.91919038     0.80159137999999996
   112   1      30.441610669999999             19.91894023     0.80122479000000002
   113   1              0.00142012      23.434536609999999     0.80178442000000005
   114   1      4.0573728100000004      23.434536609999999     0.80178442000000005
   115   1      8.1165862000000004      23.433936769999999     0.80182306000000003
   116   1             12.17555218      23.433996919999998     0.80156656000000004
   117   1             16.23465491      23.434040110000002     0.80170828999999999
   118   1      20.294481409999999      23.434040110000002     0.80170828999999999
   119   1      24.353584130000002      23.433996919999998     0.80156656000000004
   120   1      28.412550110000002      23.433936769999999     0.80182306000000003
   121   1      2.0293964600000001      26.949875330000001              0.80297246
   122   1      6.0858208300000003      26.950066320000001              0.80215291
   123   1             10.14598146      26.949241430000001     0.80165810000000004
   124   1             14.20520604      26.948673230000001     0.80131923999999999
   125   1             18.26456816             26.94858318     0.80108193999999999
   126   1      22.323930279999999      26.948673230000001     0.80131923999999999
   127   1      26.383154860000001      26.949241430000001     0.80165810000000004
   128   1             30.44331549      26.950066320000001              0.80215291
   129   1      32.390360180000002               0.0296318      1.4934706099999999
   130   1      3.9999598500000002      28.210612430000001               1.5635725
   131   1      8.0440325999999995   -0.029131629999999999              1.47896958
   132   1             12.19484052      27.985254050000002              1.55696832
   133   1      16.183648959999999   -0.057512559999999997              1.48633879
   134   1      20.334022650000001      28.115689110000002      1.6722073200000001
   135   1              24.3891718      28.157968279999999      1.4603818799999999
   136   1      28.377569050000002   -0.026582789999999999              1.43576956
   137   1      2.0921057200000002      3.5500660399999999              1.38174167
   138   1               6.0991491      3.6436927400000001      1.5070863699999999
   139   1             10.24700663      3.5269811999999998              1.40138623
   140   1             14.22856064              3.43712156      1.4971852999999999
   141   1             18.34290682              3.62400514      1.4712755500000001
   142   1      22.214525989999999      3.4953912100000002              1.44527896
   143   1              26.4625032      3.5516023400000001      1.4641520299999999
   144   1      30.368048630000001      3.5359759799999999      1.4242566299999999
   145   1   -0.021040819999999998      6.9941382000000001              1.57503887
   146   1      4.1035480800000004      6.9733504999999996      1.4308191699999999
   147   1      8.1592430399999998              7.05153096      1.4449127500000001
   148   1      12.095896659999999      6.9589311599999997              1.49239587
   149   1      16.150048999999999      6.9625224599999997      1.4922347300000001
   150   1             20.26842079              7.10700764               1.4592905
   151   1      24.382800249999999      6.9741344099999996      1.4204834200000001
   152   1      28.316508079999998      7.0910192500000004      1.4974767899999999
   153   1      1.9406983799999999      10.575038579999999      1.4579940899999999
   154   1      6.1300791200000004             10.49065981      1.5164814499999999
   155   1              10.1378924      10.557607839999999      1.4813442100000001
   156   1             14.11825086      10.639021019999999      1.3832323500000001
   157   1      18.238641170000001      10.571023780000001      1.3937750600000001
   158   1      22.350005459999998             10.50769691              1.56657209
   159   1              26.3941844      10.471879469999999              1.48267514
   160   1      30.509211069999999      10.571124299999999      1.4839495199999999
   161   1     0.12671523000000001             14.06344722      1.5046478299999999
   162   1      4.0478433200000001      14.025701509999999      1.6675582900000001
   163   1      8.1500395999999995      14.071659820000001      1.5397824099999999
   164   1      12.215870750000001      13.942728430000001              1.59356852
   165   1             16.24697231      14.081656990000001      1.4654466900000001
   166   1             20.36622272      14.065710770000001      1.4864634999999999
   167   1      24.440314570000002             14.03338228              1.53811349
   168   1             28.37939682      14.077785779999999      1.5315623700000001
   169   1               1.9946111      17.583494859999998              1.50399744
   170   1      6.0656131100000001             17.59520307      1.3678049299999999
   171   1      10.106620700000001      17.612844939999999              1.46909136
   172   1             14.28122746      17.554854630000001      1.4745600400000001
   173   1      18.298774460000001      17.502676439999998              1.59227791
   174   1      22.318503840000002      17.539232810000001      1.5261303900000001
   175   1      26.343209529999999             17.50274349              1.35678148
   176   1      30.490188660000001      17.611850960000002      1.6778233499999999
   177   1   -0.032307509999999998      21.152516420000001              1.46522329
   178   1      4.0447085899999999      21.061745680000001      1.4493860300000001
   179   1      8.1353775699999993      21.088019970000001      1.4699832399999999
   180   1      12.198213900000001      21.084605790000001      1.5661059799999999
   181   1             16.23886817             20.99178594               1.5588511
   182   1             20.25657558      21.123507870000001      1.2985509799999999
   183   1      24.327176909999999             21.07440437      1.3673647499999999
   184   1             28.28772408             21.07747328              1.46536438
   185   1      2.1033004200000001             24.61645034      1.4738433500000001
   186   1      6.1187062499999998      24.631161769999999              1.42804647
   187   1             10.08230651      24.583471800000002               1.5483258
   188   1             14.16613984      24.532413179999999      1.4201957700000001
   189   1      18.177145079999999      24.662612490000001              1.46382883
   190   1             22.26225028      24.549030850000001      1.4374109500000001
   191   1      26.366016470000002      24.555251729999998      1.4774216899999999
   192   1      30.484367429999999      24.578101920000002              1.47399646
   193   1              1.90572488              1.20548911      2.3076815700000002
   194   1      6.0281504999999997      1.1443461800000001              2.45044013
   195   1              10.1276467      1.2257987299999999      2.4331841999999999
   196   1             14.22140995      1.0960363500000001      2.4092480599999999
   197   1               18.230252              1.14061784      2.3222002599999998
   198   1      22.304206090000001      1.2145608999999999      2.3308108500000002
   199   1      26.419051929999998              1.10798738      2.3518556799999999
   200   1      30.338461079999998      1.1736313700000001      2.3701639600000002
   201   1               0.1446945              4.66201373      2.3890286600000001
   202   1      4.1157433000000001      4.8325683599999998      2.4048197199999999
   203   1      8.1120722099999991      4.6978465800000002      2.3587588400000001
   204   1             12.25060053      4.6060960700000004      2.4471340600000002
   205   1      16.200884909999999      4.5896879799999999      2.4543753399999999
   206   1      20.379315269999999      4.6945414899999998              2.48137381
   207   1      24.377598549999998      4.6803930500000002      2.4655521500000002
   208   1      28.301361880000002      4.7182676399999997      2.3875863100000001
   209   1      2.1216830899999999      8.2591169900000008              2.31346213
   210   1      6.0958467499999998      8.1901238299999992      2.5065034100000001
   211   1             10.15137754      8.1842793199999999      2.4042282799999999
   212   1             14.14957549      8.2064527100000006      2.4565258299999999
   213   1      18.253992459999999      8.1355992399999995      2.5053100499999998
   214   1      22.302421509999999      8.2345392700000009              2.42467728
   215   1             26.30386902      8.1292399399999997      2.4625241999999998
   216   1      30.255511890000001      8.1453347699999998      2.4979477700000001
   217   1             -0.00412679      11.611716400000001      2.3690847700000002
   218   1      4.0081376899999999      11.668218039999999      2.3560757200000002
   219   1              8.17569181      11.746686309999999      2.3712478899999998
   220   1             12.16699324             11.75571654      2.4179349999999999
   221   1             16.21774237      11.712684579999999              2.47154293
   222   1      20.340509340000001             11.64775942      2.3500277600000001
   223   1             24.38162895      11.652885660000001      2.3457686199999999
   224   1      28.493554140000001      11.784898760000001              2.37729905
   225   1              1.98241727      15.221944929999999      2.4655533900000002
   226   1      6.0862383700000002      15.212083639999999      2.4840035899999999
   227   1      10.183338259999999             15.29582709      2.4190038700000001
   228   1             14.27076694      15.314894049999999              2.47990238
   229   1      18.324468580000001             15.18384412      2.4072778399999999
   230   1      22.328718460000001             15.24165692      2.4403777799999999
   231   1      26.391994669999999      15.230263219999999              2.46317875
   232   1             30.44117327              15.2459378      2.4298815500000002
   233   1      32.565725370000003      18.761013179999999      2.5074353700000001
   234   1      4.1132513700000004      18.788038050000001      2.3953056899999998
   235   1      8.0316020399999992      18.666810640000001              2.44719745
   236   1      12.109740739999999      18.707891530000001      2.4961888299999999
   237   1      16.243878970000001      18.665216730000001      2.4194851399999999
   238   1      20.294541559999999             18.82527571      2.4497481699999999
   239   1      24.386738659999999              18.7230919      2.3967762000000001
   240   1      28.442929580000001      18.728332900000002              2.33749289
   241   1      2.0038722199999999      22.307453209999998      2.3918114500000001
   242   1      6.0497763000000004             22.34660852               2.3091249
   243   1      10.135673199999999      22.195931909999999              2.43499562
   244   1      14.304308799999999             22.16700513      2.4241910500000001
   245   1      18.257434239999998      22.311420550000001      2.3897574800000001
   246   1      22.339216709999999      22.390359830000001      2.5587778999999999
   247   1      26.409185870000002      22.201995830000001      2.3825570699999998
   248   1      30.333789079999999      22.187517979999999              2.36830147
   249   1     0.13942260000000001             25.66386335      2.3231214800000002
   250   1      3.9968723900000001             25.75110759      2.3907715999999999
   251   1      8.1844003399999998      25.857643960000001      2.4142584299999998
   252   1              12.1708202             25.63990519      2.3867807299999999
   253   1             16.01993899      25.690485670000001      2.3778236700000002
   254   1              20.2743006      25.793349450000001              2.52316312
   255   1      24.343889709999999      25.744464910000001      2.4188124100000001
   256   1      28.408062340000001      25.684838800000001      2.3395401699999998
   257   1             -0.01552129      2.3071429600000002      3.2072318000000002
   258   1      4.0364202200000001      2.4793071800000002      3.1992887300000001
   259   1      7.9815354699999999      2.4540124400000001      3.2511051900000001
   260   1             12.19369331              2.20498086      3.2872891499999999
   261   1             16.27331809      2.2427446299999998              3.29197688
   262   1      20.257209110000002      2.3415541700000002      3.1866986800000001
   263   1      24.292233230000001      2.3467007899999999              3.17730712
   264   1      28.397338659999999      2.3788335799999998      3.2190730599999999
   265   1              1.96380647      5.9742642400000001      3.1716972299999999
   266   1      6.0531487200000003      5.8642151599999996              3.25625214
   267   1      10.092141959999999      5.7138425100000001      3.1899121899999998
   268   1      14.194214580000001      5.8362324299999999      3.2292527400000002
   269   1      18.279435920000001      5.7549791800000003      3.3050184100000002
   270   1      22.375702740000001      5.8515202899999998      3.3249673099999999
   271   1      26.326956450000001      5.7543251599999996              3.33934921
   272   1      30.330006099999999      5.8301049100000002      3.1278359099999999
   273   1    0.047561230000000003              9.24353728      3.2172710499999999
   274   1      4.0614263299999998      9.4181147000000003      3.2605495100000002
   275   1      8.0656428899999995      9.2848681699999993      3.2062327100000001
   276   1             12.10170325      9.4152456299999994      3.2664611400000001
   277   1             16.22410425      9.3261629300000006      3.3425842600000002
   278   1             20.37697146      9.2928620100000003              3.32955661
   279   1             24.36194536      9.3672513899999998              3.27209087
   280   1      28.339601800000001      9.4212169699999997      3.2459939900000001
   281   1      2.1180912900000002      12.891650070000001      3.2178431700000001
   282   1      6.0426779499999999      12.816395480000001      3.2746346200000001
   283   1      10.160411870000001             12.90798212              3.24570318
   284   1             14.19371203      12.894213969999999      3.0446728599999999
   285   1             18.39694441      12.862937560000001      3.2258536900000001
   286   1      22.312271079999999             12.88630541      3.2885137499999999
   287   1      26.504629659999999      12.887748090000001              3.16076325
   288   1      30.518357170000002             12.88766202              3.32584459
   289   1             32.48485702             16.38854838      3.2972517899999998
   290   1      3.9844137599999998             16.39633319      3.3066591399999998
   291   1      8.1158688399999992      16.271941420000001              3.22135763
   292   1      12.150441349999999      16.439900810000001      3.3404088999999999
   293   1              16.2369871      16.318472150000002      3.3277253899999999
   294   1      20.399731360000001      16.414114059999999      3.2184393099999999
   295   1      24.342074709999999      16.383678410000002      3.3404417500000001
   296   1      28.492779030000001      16.419843849999999      3.2481824800000001
   297   1      2.0868668700000002      19.961658369999999      3.1463895700000002
   298   1      6.0929605100000002      19.923909500000001      3.3795492899999999
   299   1             10.07740985      19.885422389999999      3.2659617700000001
   300   1      14.123238300000001      19.888359699999999      3.2938474200000001
   301   1      18.176085570000001      19.824209060000001              3.31438291
   302   1      22.367373610000001      19.976507460000001      3.2987448100000001
   303   1             26.45947717      19.794460669999999      3.2484162300000001
   304   1             30.53478308      19.836792410000001              3.21753416
   305   1  -0.0097271300000000005             23.43184196      3.2369599099999999
   306   1      4.0527862499999996      23.370159229999999      3.1938688499999999
   307   1      8.0846762999999999              23.5394623      3.2744560599999999
   308   1             12.16762093      23.367500849999999      3.1800055299999999
   309   1      16.262619740000002      23.394656739999999              3.32257129
   310   1      20.301902609999999      23.486835370000001              3.26803847
   311   1      24.447166679999999      23.419244719999998      3.1382364800000002
   312   1      28.363249459999999             23.40336937      3.3333208399999998
   313   1              1.97605458      26.905569409999998      3.3032202900000001
   314   1      6.1035333999999999      26.924508169999999      3.2263753799999999
   315   1             10.04417647      26.929362980000001      3.2346337799999998
   316   1             14.02055406             26.89912898      3.3488801600000002
   317   1      18.184006610000001      26.981749870000002      3.1822010500000002
   318   1      22.265797450000001      26.878926570000001      3.1490327800000002
   319   1             26.41354845             26.92587923              3.26293985
   320   1             30.45256753      26.843258550000002      3.2566493200000002
   321   1      32.398871249999999             28.12227987      4.0608379699999997
   322   1              4.03712201             28.22800518      4.0669923399999997
   323   1      8.0487634999999997             28.15056135              4.05880449
   324   1             12.02696997             -0.11971348      4.1168368700000002
   325   1      16.034408599999999    -0.11098226999999999      4.0728805599999998
   326   1      20.230340200000001      28.122173109999999      4.0723454400000003
   327   1             24.34758111      28.078702459999999      4.0449238200000002
   328   1      28.453597009999999      28.095114980000002      3.9833558899999999
   329   1      1.9577857700000001      3.5986279099999998      3.9958015900000001
   330   1      6.0476811699999997              3.58816245      3.9751487600000002
   331   1      10.171160540000001      3.4438111299999998      4.0910357099999999
   332   1             14.19456838      3.3727517100000002      4.0152036200000003
   333   1      18.193220749999998      3.5132931100000002              4.13719591
   334   1      22.314491060000002      3.4598111399999998      4.0316874399999998
   335   1      26.465642089999999              3.43975169      4.0922921600000004
   336   1      30.497964889999999      3.6304465000000001      4.0588769100000004
   337   1              0.01036252      6.9845586300000004      4.1603566900000004
   338   1      4.0396446499999996      7.1060958000000003      3.9871453200000002
   339   1      8.1666767500000006      6.9878039599999999              4.03738581
   340   1             12.05920113              7.08448397      4.1175446600000001
   341   1      16.253116299999999      7.0568732199999999      4.1289254900000003
   342   1      20.408580180000001      6.9535922699999997      4.0241522300000003
   343   1      24.352539019999998      7.0108327700000004      4.2217467600000003
   344   1      28.359985500000001      6.9785618400000002      4.0890409200000004
   345   1      1.9955171700000001             10.54539056      4.1398806099999996
   346   1      6.1541117700000001             10.52917789      4.0648052400000001
   347   1             10.01959669      10.657837130000001      4.0330474199999999
   348   1      14.138560650000001             10.47855669      4.0103685000000002
   349   1             18.28800738             10.56538344      4.0296264400000004
   350   1      22.360139669999999             10.53622784      4.2176570199999999
   351   1      26.396314100000001      10.611099919999999      4.1593344700000001
   352   1             30.58017242             10.40772772      4.0888036799999998
   353   1      32.442430850000001             14.02949134      4.0585988300000002
   354   1      4.0085044999999999             14.05220139      4.0556495300000002
   355   1      8.1379114000000001      13.999976999999999      4.1486567799999996
   356   1             12.15963917             14.04080877      4.0949931199999998
   357   1             16.23066232      14.031109880000001      4.0557796499999998
   358   1      20.211706249999999              14.0581795      4.0288005099999999
   359   1             24.33661193             13.99445075      4.0506890599999998
   360   1      28.531455009999998      14.101933349999999      4.0511089299999998
   361   1      1.9895997400000001      17.714576780000002      4.1494122600000001
   362   1      6.0248391100000003      17.455984449999999      4.0214226599999998
   363   1             10.08863013             17.49206607      4.0619202599999999
   364   1              14.1861044      17.559729749999999      4.0634974399999999
   365   1             18.40974477      17.448082930000002      4.1324089900000001
   366   1      22.386728000000002      17.546272129999998              4.13044382
   367   1      26.357940020000001      17.387951210000001      4.0692592999999997
   368   1      30.518129999999999      17.570080820000001      4.0686289999999996
   369   1  -0.0064843899999999996      21.034213860000001      4.1678569699999999
   370   1      4.0039485600000004             21.06591186      4.0725493699999999
   371   1      8.0862312200000002      20.918022789999998      4.0066194900000003
   372   1      12.079590380000001      21.067833830000001      4.1526475700000001
   373   1             16.26931815              21.0556166      4.1279205000000001
   374   1      20.346770150000001      21.144970560000001      4.0122437299999998
   375   1      24.426571689999999             21.14794947      4.0532225799999999
   376   1      28.438730419999999               20.968325      4.0075535699999998
   377   1      2.0445005900000002      24.574020279999999      4.0203686300000001
   378   1      6.0179585500000004             24.60886618      4.1421386399999998
   379   1             10.14223892      24.616841350000001      3.9741344999999999
   380   1             14.22702958      24.520795549999999      4.0938621800000004
   381   1      18.226870720000001             24.70010096      4.1039167499999998
   382   1      22.328210559999999      24.593652280000001      4.0924148799999998
   383   1      26.448401230000002      24.622951029999999              3.99454596
   384   1      30.379054409999998      24.544303410000001              4.10206874
   385   1              1.81014699              1.31026412      4.7679960499999998
   386   1      6.0164546000000003              1.28292322      4.9451524600000001
   387   1      10.111721230000001      1.2043206900000001      4.9707977899999998
   388   1             14.24252761              1.18101313      5.0053952300000004
   389   1      18.294312300000001              1.15835161      4.8619500799999997
   390   1      22.314054609999999              1.24602882      4.8854901899999996
   391   1             26.40932699              1.17289793      4.7979322299999998
   392   1      30.411310650000001      1.1443294100000001      4.8021318800000001
   393   1              0.07370409      4.7403294799999998      4.8214937300000003
   394   1      4.0959362400000003      4.7819755199999996      4.9863454599999999
   395   1      8.0243040299999997      4.7778349899999997      4.9032261699999999
   396   1             12.13536103              4.66678076      4.8298564500000003
   397   1      16.143187210000001               4.5653343      5.0109807899999996
   398   1      20.168949640000001      4.6914555099999999      4.9573080699999998
   399   1      24.443051539999999      4.6294793600000004      4.9565329299999998
   400   1             28.39819099      4.7465917800000001              4.89198705
   401   1      2.0828807299999998      8.2692908000000003      4.8618940300000002
   402   1              6.16277629      8.2184103999999998      4.9827503499999999
   403   1             10.12371327      8.2041875300000005      4.8120605999999997
   404   1             14.20988154      8.1622543400000005      5.0733849600000003
   405   1             18.33978767      8.2152369099999998      4.9704182899999996
   406   1      22.233971499999999              8.13016966      4.8820166399999998
   407   1             26.42336169      8.2657547699999991      4.9334574599999996
   408   1      30.459640520000001      8.1036877799999996              4.85722758
   409   1      32.515652559999999             11.67241774      4.9684804199999997
   410   1      4.1570199399999996      11.699264940000001      4.8942924899999998
   411   1              7.98945229      11.635859229999999      4.8597934900000004
   412   1             12.11077296      11.645631679999999      5.0355314199999999
   413   1      16.239824209999998      11.706088749999999      4.8215171100000003
   414   1             20.29455467              11.7040843      4.8223679700000002
   415   1      24.466221409999999             11.78857116      5.1277345499999996
   416   1             28.49646868      11.700371240000001      4.9411535799999999
   417   1              1.98608316              15.2413259      5.0303120000000003
   418   1      6.1195733399999996             15.12314072      4.8370580399999996
   419   1              10.2714613             15.27161641      4.9720477199999999
   420   1      14.283651069999999             15.19052318      5.0424644900000004
   421   1      18.199075839999999      15.117460790000001      4.8638075900000004
   422   1             22.28859224      15.216540009999999      4.8985378099999997
   423   1      26.468663419999999      15.143358020000001      4.9260964400000002
   424   1      30.461635950000002             15.18222168      4.9919261500000003
   425   1             -0.00094423      18.782810210000001      5.0608733900000002
   426   1      4.1169881500000001             18.85360528      5.0481524899999997
   427   1      8.1444803199999996      18.701977370000002      4.8926810500000002
   428   1             12.12143599      18.692286549999999      5.0652120399999996
   429   1      16.274979609999999      18.717774210000002      4.9434552600000004
   430   1      20.416275850000002             18.80356321      4.9237225599999999
   431   1      24.465260900000001      18.777887639999999      4.8921879400000003
   432   1      28.527542910000001      18.729263719999999      5.0304827799999998
   433   1              1.96773475      22.266597409999999      4.8725343499999996
   434   1      6.0055371900000001              22.3414717      4.8167353300000002
   435   1              10.1098924      22.245610190000001      4.8690326099999997
   436   1             14.17811659      22.056353690000002      4.8927448599999996
   437   1      18.274500140000001             22.33679545      4.9308013700000002
   438   1      22.366218480000001      22.257279130000001      4.9795355499999996
   439   1      26.514668830000002      22.231591739999999      4.9117668300000004
   440   1      30.479025180000001      22.315315519999999      4.9515597600000003
   441   1    0.067406569999999999      25.812406589999998      4.8603972400000002
   442   1               4.0215185              25.8727421      4.8912596500000003
   443   1      8.1093866000000006      25.788054070000001      4.8678603899999997
   444   1      12.205632680000001      25.597907639999999      4.9666632499999999
   445   1      16.164187040000002             25.67498179      4.8609320699999996
   446   1      20.305355649999999      25.862900839999998      4.9637505300000004
   447   1             24.41383965      25.679738140000001      4.8820339700000002
   448   1      28.388661670000001      25.822991349999999      4.8961671500000001
   449   1      32.345615369999997      2.4118906099999999      5.6498990300000003
   450   1      4.0122574499999999      2.3695418099999999              5.59553762
   451   1      8.1688995099999993      2.3132981699999999      5.6356140699999999
   452   1             12.09459195      2.3090310000000001      5.8684400200000004
   453   1      16.294742419999999      2.2563018499999998      5.6646809200000003
   454   1      20.260750529999999              2.38007035              5.62108045
   455   1             24.33856102      2.3975989700000002      5.6845719600000004
   456   1              28.3989136      2.4119044700000001      5.7347846999999996
   457   1      2.0552143300000001              5.92253308      5.7253623100000004
   458   1      5.9798940099999998      5.9945989600000003      5.7440535199999996
   459   1      10.158732929999999      5.8883525700000003      5.6739135999999997
   460   1      14.214023989999999      5.8944537600000002      5.7395741500000002
   461   1      18.245524369999998      5.7919666899999998      5.7913714199999999
   462   1             22.15973902      5.8272053899999996      5.7738631600000003
   463   1      26.367051929999999      5.9794106200000003      5.7443312600000001
   464   1      30.481607610000001      5.8133251000000001      5.6671247200000003
   465   1   -0.050960819999999997      9.2700687800000008      5.7455308499999997
   466   1              4.13208617      9.3462293800000005      5.9019790299999997
   467   1      8.0449828100000005      9.2802894400000007      5.7039275199999997
   468   1             12.12924128      9.3966540799999994      5.8659162900000004
   469   1             16.20667109      9.3412729599999995      5.7247407299999997
   470   1      20.280269780000001      9.4145146799999999      5.7182450500000002
   471   1      24.400704640000001      9.4762826499999999      5.8126609699999996
   472   1      28.365475400000001      9.3989608800000006      5.8609004699999998
   473   1      2.0000290399999998              12.8954425      5.7313470799999999
   474   1      6.0706093399999999      12.881223329999999      5.8162068700000003
   475   1             10.06507994              12.9179487      5.7008786000000002
   476   1             14.15342231      12.828378519999999      5.6440537400000004
   477   1             18.23888591             12.79219771      5.7032872499999998
   478   1      22.336412320000001             12.84747973      5.8320702400000002
   479   1      26.405719770000001             12.88283317      5.7532264299999998
   480   1             30.42383791             12.91487057      5.8032974499999996
   481   1              0.08045426      16.575293859999999      5.7571657900000002
   482   1      4.0941061699999999      16.400222960000001      5.7931892999999999
   483   1      8.0693409000000003      16.444475130000001               5.7336741
   484   1             12.13146392             16.31387187      5.8421597900000002
   485   1      16.334799960000002      16.340865780000001      5.7385854600000004
   486   1      20.227837910000002      16.348714739999998      5.7878915299999996
   487   1             24.37714424      16.387206750000001      5.7767947599999996
   488   1             28.42841482      16.446107380000001               5.7639923
   489   1      2.0264464599999998             19.96415863      5.8006811699999998
   490   1      6.1562076100000001      20.006410330000001              5.78001494
   491   1             10.11994634      19.823374749999999      5.8213603200000001
   492   1             14.25842334      19.846266249999999              5.93032132
   493   1              18.3424777      19.950585279999999      5.6583447600000003
   494   1      22.301781649999999      19.900172770000001      5.7075586600000001
   495   1      26.437944940000001             19.84282241      5.8165975100000002
   496   1      30.408555639999999      19.963864430000001      5.7651301999999998
   497   1      32.486833910000001      23.512343730000001      5.7194913500000002
   498   1      4.0140640300000001      23.415568480000001      5.7765473800000002
   499   1      8.1214029100000005      23.473376550000001      5.6651668400000004
   500   1             12.08748327              23.3602545      5.6882531700000003
   501   1      16.248728159999999      23.377038859999999      5.7124683200000002
   502   1      20.355502309999999      23.466043169999999      5.6393996299999998
   503   1      24.312248239999999      23.322814149999999      5.6708911999999998
   504   1             28.43027648             23.48216927      5.7879495399999996
   505   1              1.91341845      27.184994060000001      5.7514729400000002
   506   1              6.08251177      26.907774079999999      5.6850270700000003
   507   1             10.07909186      26.863916079999999      5.7678293600000003
   508   1      14.239475629999999      27.053794360000001      5.9534262800000004
   509   1      18.255610149999999             26.92279358      5.6422365399999999
   510   1      22.342384549999998      27.017649939999998      5.7074634299999998
   511   1             26.40428322      26.943174549999998              5.60161526
   512   1      30.266313759999999      26.969145489999999      5.7636199299999999
   513   1      32.263537540000002    0.077311539999999998      6.5573731500000001
   514   1      3.9344855000000001      28.106780010000001      6.6094135600000001
   515   1      8.1186597999999996      28.129041659999999      6.5879486099999998
   516   1      12.073718550000001    0.093825939999999997      6.7356678499999996
   517   1      16.244649620000001      28.117808279999998      6.5928689800000004
   518   1      20.214410239999999      28.233423640000002      6.4229951400000003
   519   1      24.377815909999999             28.14837597      6.6030649099999996
   520   1      28.300011000000001      28.115873820000001      6.5792777200000003
   521   1      2.0193600799999998              3.54852626      6.5999343399999999
   522   1      6.0920542700000002      3.6683273299999999      6.5167546400000003
   523   1      10.072772199999999      3.5254899000000002      6.5427119200000003
   524   1             14.08342955      3.3946743000000001      6.4765199500000001
   525   1      18.186375389999998      3.4083806600000002      6.4107638500000004
   526   1             22.31644077      3.5375534900000001              6.56411356
   527   1      26.440175069999999      3.5074122399999998      6.5503086599999998
   528   1      30.409300930000001              3.51762409      6.5715160399999997
   529   1              0.04467658      7.0030596300000001      6.6870180399999999
   530   1      4.1291832199999998              7.03730733              6.61551986
   531   1      8.1551439699999992      6.9996558699999998      6.6904343199999996
   532   1             12.11399447      7.0866966900000001      6.6054324600000003
   533   1      16.274160999999999      6.9527798900000004      6.6090857500000002
   534   1             20.33363653      7.0316086699999998      6.6154795000000002
   535   1             24.39298947      7.1159496400000002      6.6054616399999997
   536   1      28.453576760000001      7.1225195100000001      6.5587867600000003
   537   1      2.1015030000000001      10.434295410000001      6.5608276800000001
   538   1      6.1588234100000001             10.48570477      6.5671526800000004
   539   1      10.178946059999999      10.516509599999999      6.5482043299999999
   540   1             14.13036396             10.52053269      6.5903731600000004
   541   1             18.23773053      10.421072430000001      6.5601556499999996
   542   1      22.322821300000001              10.5449222      6.5456047999999996
   543   1      26.443133280000001              10.5683109      6.7050014999999998
   544   1      30.468023160000001      10.572103289999999      6.6140008100000003
   545   1              32.5467133      14.194035639999999      6.6207715800000004
   546   1      4.0384797099999998             13.98054952      6.5869811800000004
   547   1      8.1002047299999997             14.12364099      6.6868061499999998
   548   1             12.20637953             14.05848718      6.7692156900000002
   549   1             16.20861159             13.97322308      6.6003592800000002
   550   1             20.21682156      14.025783069999999      6.4825572899999999
   551   1      24.399787629999999             14.07759735      6.5844485500000003
   552   1      28.358898750000002      14.086548029999999      6.5610200000000001
   553   1      2.1073242699999999      17.555135969999998      6.6472922399999996
   554   1      6.0323380100000001             17.59109844      6.6155669799999997
   555   1      10.085293119999999      17.525154430000001      6.6843269999999997
   556   1             14.20298019             17.49160934      6.6978864800000002
   557   1             18.21087069      17.503043269999999              6.59641257
   558   1             22.34421279             17.63231815      6.5937107800000003
   559   1              26.3811322      17.611982279999999              6.66530735
   560   1      30.466787060000001             17.60059802               6.5921208
   561   1    0.038318730000000002      21.228942709999998      6.7028416499999999
   562   1      4.0497640500000003      21.162673949999999              6.56367031
   563   1      8.0537040999999991      21.114385309999999      6.5805471500000001
   564   1      12.132532790000001             20.99952017      6.4942187599999999
   565   1      16.240687229999999             21.03191151      6.6311699600000003
   566   1      20.336562860000001             21.15505215      6.6432770200000002
   567   1             24.35176796             21.08240674      6.5651856200000003
   568   1      28.417329670000001      21.068134969999999      6.6083278300000003
   569   1              1.95369641      24.801975779999999      6.4833491499999996
   570   1              5.97358061             24.71885108      6.5960837999999997
   571   1             10.15835925             24.54602337      6.5459002499999999
   572   1             14.14042527             24.56529029      6.4817304199999999
   573   1              18.2716627             24.59047769      6.4652607199999998
   574   1             22.32640383      24.527936329999999      6.4882163100000003
   575   1      26.321655979999999             24.48822234      6.3645119599999997
   576   1      30.437377139999999      24.625536820000001      6.6615636900000004
   577   1      2.0371735399999999      1.3031961999999999      7.5741030900000004
   578   1      6.0494746900000003              1.35627286      7.5688946000000001
   579   1             10.08573739              1.19660754      7.6076264800000004
   580   1             14.14835562              1.18101335      7.5178870599999996
   581   1      18.202343549999998      1.1355165700000001      7.5157598500000002
   582   1      22.266720979999999      1.1889492399999999      7.2815089200000003
   583   1      26.381851780000002              1.17425008      7.3371035400000002
   584   1             30.25639322              1.18121513      7.4775878599999999
   585   1   -0.025748500000000001      4.7477567000000001      7.5623758600000004
   586   1      3.9616475599999998      4.7633544399999996      7.5989456999999998
   587   1      8.0479863100000006      4.6943814399999999      7.3135344399999997
   588   1      12.073869350000001      4.6559583900000003              7.49061998
   589   1      16.184212389999999      4.5283484400000003      7.4138038999999996
   590   1      20.113082550000001      4.6344205399999998      7.5413339600000002
   591   1      24.486885770000001      4.6846701299999998      7.5507329900000002
   592   1      28.496788299999999      4.7377350500000004              7.44046261
   593   1      2.1313170000000001      8.2269500400000002      7.4604052599999999
   594   1      6.1005266899999997              8.20313713      7.6397481599999999
   595   1             10.04368691      8.1938942499999996      7.4754160499999998
   596   1             14.14047798      8.1242603800000008      7.5232155199999999
   597   1      18.258233229999998              8.21105105      7.5216418899999997
   598   1      22.259175119999998               7.9943241      7.4974195899999998
   599   1      26.593440399999999              8.15960939      7.6360324000000004
   600   1      30.564149260000001      8.2264892300000003      7.4597891299999999
   601   1      32.573224549999999      11.691857349999999      7.5261712899999997
   602   1      4.1083792399999997      11.722950989999999      7.5338797900000003
   603   1              8.09452295             11.64300555              7.39990098
   604   1      12.053952499999999             11.70304567      7.5337077499999996
   605   1             16.19453729             11.73592919               7.4250194
   606   1      20.326940969999999             11.66541468      7.4041809299999999
   607   1      24.321307829999999      11.720581960000001      7.5674646699999997
   608   1      28.375248630000002      11.737363670000001      7.5552298100000002
   609   1      2.1587020699999999             15.26161495      7.5461241499999998
   610   1      6.0503629800000001             15.21953787      7.5236918700000004
   611   1              10.0775971      15.140692720000001      7.7342929500000004
   612   1              14.3699526      15.103763499999999      7.5997254200000004
   613   1             18.29496979      15.026065429999999      7.4041488299999996
   614   1      22.196289740000001              15.2642392      7.3452573799999996
   615   1      26.322075000000002      15.256514960000001      7.6367566800000004
   616   1      30.587284400000001             15.23003726      7.6745547800000002
   617   1      32.484891740000002      18.844948559999999              7.80554345
   618   1      4.0643493199999998             18.86470482      7.5640517200000001
   619   1      8.1238776900000005             18.75950628      7.4320664299999999
   620   1             12.17757213             18.74200094      7.6141830300000004
   621   1      16.294028430000001      18.665516790000002      7.5194771400000002
   622   1      20.357093979999998      18.755805469999999      7.4618422200000003
   623   1             24.39685888             18.69741844      7.5300822700000003
   624   1      28.466977119999999      18.720090070000001      7.6548074899999996
   625   1      2.1032114800000001             22.40002664      7.2842128600000002
   626   1      6.0884355699999997      22.308953840000001      7.4945766899999997
   627   1             10.11889796      22.268024789999998      7.4166452500000002
   628   1             14.09258361             22.22614841      7.5253919299999996
   629   1      18.372744010000002      22.209917440000002      7.4920882500000001
   630   1      22.442665909999999      22.153508970000001      7.6709502299999999
   631   1             26.38539196      22.189260399999998      7.4667376799999996
   632   1      30.424738080000001      22.390145960000002      7.5587842199999997
   633   1    -0.14620059999999999             25.96532942               7.4751284
   634   1      3.9661949399999998      25.771356650000001      7.5288978000000002
   635   1      8.1868520999999994      25.770896390000001              7.42373466
   636   1      12.030319950000001      25.948902050000001      7.5257574199999997
   637   1      16.096925809999998             25.68846563      7.5183040500000002
   638   1             20.30504612      25.866023510000002      7.5701075600000003
   639   1      24.278551100000001      25.647783440000001      7.4161164900000003
   640   1      28.229522830000001               25.780946      7.4639026199999998
   641   1             32.34698745      2.3034753299999999      8.1298927200000008
   642   1      3.9611317399999999      2.4228906299999999      8.1461641599999997
   643   1      8.0629066500000004      2.5381509499999999      8.2162717399999998
   644   1      12.134796619999999      2.3946051800000001              8.38911607
   645   1      16.202848370000002      2.2280456200000001      8.1267785700000008
   646   1             20.28486375              2.15576838      8.0903755799999999
   647   1      24.303298250000001      2.3064231099999999      8.0502266000000002
   648   1             28.38868583      2.4489139400000002      8.1853872299999999
   649   1      2.0032353899999999      5.8025759199999998      8.1534303599999998
   650   1              6.11975873      5.9346642999999997      8.1004713099999996
   651   1      10.056779479999999      5.9499045099999996      8.2825804499999993
   652   1             14.21694701      5.6111265100000001      8.1495910699999996
   653   1      18.113738999999999      5.7468519499999999      8.2662138699999996
   654   1      22.396785019999999      5.8031768499999998      8.1635601599999994
   655   1             26.50461013      5.8427745399999997      8.2789070599999999
   656   1      30.369625280000001      5.8718992800000001      8.1694373000000002
   657   1      32.609359009999999              9.30453303      8.1204782200000007
   658   1      3.9527807699999999      9.3401092800000001      8.3623755400000004
   659   1      8.1240616299999999      9.3761290299999995      8.0589979300000003
   660   1      12.031811640000001      9.3144215500000005      8.3050384699999995
   661   1      16.143516210000001      9.2981982399999996      8.2063518999999996
   662   1      20.245594910000001      9.3383354199999999      8.2207109999999997
   663   1      24.198942500000001      9.5064303399999996      8.3044313699999996
   664   1      28.582278160000001      9.3677713699999998      8.3293891000000002
   665   1      2.1498410899999998      12.929287739999999      8.1510096300000008
   666   1      6.2920344300000002             12.93639007      8.2934463699999998
   667   1      9.9153122000000007             12.86864946      8.2316635500000004
   668   1      14.129262799999999             12.86081244      8.2246302100000008
   669   1      18.127797789999999             12.78341797      8.0945889900000001
   670   1      22.215957599999999             12.86577773      8.2524113099999994
   671   1      26.387274139999999             12.92005735      8.1542163700000003
   672   1      30.470138219999999             12.88661463      8.3438359099999992
   673   1     0.13717742999999999              16.5390461      8.2595312599999993
   674   1      4.0711994799999998      16.520687509999998      8.1792065100000002
   675   1      7.9121573400000003             16.45548539      8.2029192500000008
   676   1             12.20369942              16.3141882      8.3105978199999999
   677   1      16.316501290000001      16.315156999999999      8.2794223000000002
   678   1      20.162133709999999      16.320280669999999      8.1333177200000009
   679   1      24.179586189999998             16.38956082      8.2193819099999992
   680   1      28.574419729999999             16.36061621      8.2175964300000004
   681   1      2.1068626500000001      20.188066379999999      8.2159972900000007
   682   1      6.2205693100000001      20.007262560000001      8.1554110899999994
   683   1      10.014520900000001      19.853704709999999      8.2270084299999997
   684   1      14.146829719999999      19.950976709999999      8.2893954300000008
   685   1      18.327624830000001      19.937180430000002      8.1342623399999994
   686   1      22.458843179999999      19.788127119999999              8.34123546
   687   1             26.47540193      19.824490749999999      8.3658248499999992
   688   1      30.330539349999999             20.02688624      8.3272595700000007
   689   1              0.10661706      23.540345840000001      8.1063468499999995
   690   1      4.0575376099999998             23.44430865      8.2964903900000007
   691   1      8.1492786099999996             23.50379783      8.0459387499999995
   692   1      12.262980199999999      23.517210110000001      8.1805405499999999
   693   1      16.272535359999999      23.283046460000001      8.1794819200000006
   694   1      20.296088659999999             23.49941196      8.0544669599999992
   695   1      24.500173660000002      23.354706190000002      8.2264493099999996
   696   1             28.44975543      23.627980300000001      8.2279120500000005
   697   1      1.8925754699999999      27.077525600000001      8.1402761300000002
   698   1      6.1068866799999997             26.94739238      8.2607201499999992
   699   1             10.03043898             26.94619999      8.4081697099999992
   700   1      14.297078450000001             26.99692958      8.3024420499999998
   701   1             18.13746501             26.94808154      8.1043705599999996
   702   1      22.411025810000002             27.00560583      8.0716976500000008
   703   1      26.190614409999998      26.864631119999999      7.9988601299999997
   704   1      30.240375449999998      26.984562799999999      8.2725553999999999
   705   1      32.293649590000001             28.12454151               8.9821092
   706   1      4.0351029199999999      28.107046830000002      8.8995145499999992
   707   1      7.9585633299999996              0.15920676      8.9795780300000008
   708   1              12.2140124              0.10829899      9.0515868499999996
   709   1      16.242871390000001              0.11477684      9.0588558300000006
   710   1      20.172224490000001      27.924624000000001      8.8400381899999996
   711   1      24.282001059999999              28.2166006      8.9173396199999999
   712   1      28.247797800000001               0.1706761      8.8728368599999996
   713   1              1.86744837      3.5572855699999999      9.0319941400000001
   714   1      6.1127510000000003      3.5706687000000001      8.9199146000000002
   715   1              10.1406803      3.5901127599999998      9.0817940000000004
   716   1             14.39026265              3.33388529              9.03272707
   717   1      18.296593909999999      3.4016385100000002      8.9208482199999999
   718   1             22.29430773      3.4663387700000001              8.91448179
   719   1             26.29158692      3.3221802899999999      8.8363819199999991
   720   1      30.282953209999999      3.5800220399999998      9.0407830300000001
   721   1  -0.0095217700000000006      6.9003884600000003      9.0765412300000001
   722   1      4.0877508599999999      6.8834418800000003      9.0375233399999999
   723   1      7.9835002199999998      7.1859221099999999      9.0883190500000008
   724   1             12.34898501      6.9208462500000003              9.05736177
   725   1      16.006769389999999              7.08170783      9.0062253999999999
   726   1             20.31078162              6.79416581      8.9363126600000005
   727   1      24.622605740000001      7.2268936100000003              9.16239515
   728   1      28.382663749999999      6.9149613700000003      9.0487873000000008
   729   1      1.8987953399999999             10.85316825      9.0334819799999995
   730   1      6.1401966699999999             10.59195622      9.0079840299999994
   731   1             10.04561073      10.619387469999999      8.9765126599999991
   732   1      14.125783009999999             10.60057696      8.8483829200000006
   733   1      18.108537120000001             10.42874387      8.9686609599999993
   734   1      22.155238310000001             10.54519691              8.97357373
   735   1             26.32933723             10.56399929      9.0169198000000002
   736   1      30.790551690000001      10.507036490000001      9.0433527500000004
   737   1             32.59179365             13.86472176      8.9221052899999993
   738   1      4.1682156800000003      14.168316559999999      9.0089327299999997
   739   1      8.1726981399999996      14.210437730000001      9.0899163499999993
   740   1      11.888647499999999             13.94494572      9.1009189199999998
   741   1             16.24007808      13.925927120000001      9.0374317499999997
   742   1             20.19519962      13.874784979999999      8.8774338700000008
   743   1      24.306008720000001      14.127095020000001      8.9463275200000005
   744   1      28.289914920000001             13.96064734      8.9936898900000006
   745   1      2.1357673199999998             17.82924594      9.0200829200000001
   746   1              5.97687496             17.80102286      8.9875688300000007
   747   1      10.081423689999999      17.328129000000001      9.1451666100000004
   748   1      14.242970550000001      17.480034440000001      9.0706683800000008
   749   1      18.235873550000001      17.709820990000001      9.0811576600000006
   750   1      22.116505790000001      17.426525430000002      8.9716751499999994
   751   1      26.397779709999998      17.390508279999999      9.0003118200000003
   752   1      30.476755529999998             17.54021947      8.9870342399999998
   753   1             32.24207191      21.400030449999999      8.9666101499999993
   754   1      4.3194131499999999      21.170688179999999      9.0252762900000008
   755   1      8.1476050699999991      21.336416400000001      8.9825638800000007
   756   1             11.95245038      21.114072839999999      8.9302764400000001
   757   1      16.219970759999999      21.113490880000001              9.10135088
   758   1      20.424050999999999      21.039652950000001      9.0384130299999992
   759   1      24.525670909999999      21.102324079999999      9.0455360700000007
   760   1      28.376346330000001      21.324353800000001      9.0577272999999998
   761   1      1.9975887999999999      24.986950010000001      8.9737617800000002
   762   1      6.1867315999999999      24.561745980000001      8.8202288400000004
   763   1             10.05049696      24.432312069999998      9.0446442299999994
   764   1      14.453855969999999             24.55950747      8.8145941899999993
   765   1      18.164903599999999      24.543343320000002      8.9500443700000005
   766   1      22.328831409999999      24.674811859999998      8.9263299699999994
   767   1      26.494043659999999      24.661941890000001      8.8869567699999994
   768   1      30.538942559999999      24.615127399999999              9.04158039
   769   2      25.514908370000001              1.75701873      9.2216033199999998
   770   2      26.312092839999998     0.27799304000000002      8.9500151700000004
