N2-dn2-coord-10bar/300K/snapshots/frame-71419/run-000/../data.lammps (written by ASE) 

770 	 atoms 
2  atom types
0.0      32.470343392086264  xlo xhi
0.0      28.120142247150884  ylo yhi
0.0      31.213473999158239  zlo zhi


Atoms 

     1   1      2.0293964600000001      1.1716090800000001    0.023552650000000001
     2   1      6.0880008999999999              1.17168918              0.02556874
     3   1      10.146952280000001              1.17170328    0.025416459999999998
     4   1      14.205754900000001      1.1716496700000001              0.02501565
     5   1             18.26456816              1.17166478              0.02504435
     6   1             22.32338141      1.1716496700000001              0.02501565
     7   1      26.382184030000001              1.17170328    0.025416459999999998
     8   1      30.441135410000001              1.17168918              0.02556874
     9   1  9.1780000000000006e-05      4.6866847900000002    0.025581599999999999
    10   1      4.0587011400000002      4.6866847900000002    0.025581599999999999
    11   1      8.1174961000000003      4.6866290399999997    0.025584639999999999
    12   1             12.17638011      4.6866852999999997              0.02491202
    13   1             16.23517979      4.6866942700000003    0.025006210000000001
    14   1      20.293956519999998      4.6866942700000003    0.025006210000000001
    15   1      24.352756209999999      4.6866852999999997              0.02491202
    16   1      28.411640219999999      4.6866290399999997    0.025584639999999999
    17   1      2.0293964600000001      8.2016395800000002    0.026613040000000001
    18   1      6.0881071599999999      8.2016314300000008              0.02543782
    19   1             10.14701835               8.2017045    0.025156850000000001
    20   1      14.205766049999999      8.2017080900000003    0.024990459999999999
    21   1             18.26456816      8.2017077599999997    0.025091249999999999
    22   1      22.323370260000001      8.2017080900000003    0.024990459999999999
    23   1      26.382117969999999               8.2017045    0.025156850000000001
    24   1      30.441029149999999      8.2016314300000008              0.02543782
    25   1  9.2789999999999998e-05             11.71671873    0.025573410000000001
    26   1              4.05870014             11.71671873    0.025573410000000001
    27   1      8.1176017700000003             11.71668698              0.02497914
    28   1             12.17637068             11.71673069    0.025001590000000001
    29   1      16.235177310000001      11.716730249999999    0.025074039999999999
    30   1      20.293959009999998      11.716730249999999    0.025074039999999999
    31   1      24.352765640000001             11.71673069    0.025001590000000001
    32   1      28.411534549999999             11.71668698              0.02497914
    33   1      2.0293964600000001             15.23167155              0.02525285
    34   1      6.0881728300000004      15.231678799999999    0.025062859999999999
    35   1             10.14698486      15.231762639999999               0.0250786
    36   1             14.20578841             15.23176782    0.025201990000000001
    37   1             18.26456816              15.2317707    0.025149979999999999
    38   1      22.323347900000002             15.23176782    0.025201990000000001
    39   1      26.382151459999999      15.231762639999999               0.0250786
    40   1      30.440963480000001      15.231678799999999    0.025062859999999999
    41   1      32.470327990000001      18.746748629999999    0.024951939999999999
    42   1      4.0588083299999997      18.746748629999999    0.024951939999999999
    43   1      8.1175770200000006      18.746803499999999    0.025222040000000001
    44   1             12.17637459      18.746799750000001    0.025428470000000002
    45   1      16.235159400000001      18.746805200000001    0.025487360000000001
    46   1      20.293976919999999      18.746805200000001    0.025487360000000001
    47   1      24.352761730000001      18.746799750000001    0.025428470000000002
    48   1             28.41155929      18.746803499999999    0.025222040000000001
    49   1      2.0293964600000001      22.261939099999999    0.025844880000000001
    50   1      6.0881419299999999      22.261841799999999    0.025489439999999999
    51   1             10.14692954             22.26176895              0.02551757
    52   1             14.20573559      22.261804690000002    0.025639160000000001
    53   1             18.26456816             22.26178625    0.025640119999999999
    54   1      22.323400729999999      22.261804690000002    0.025639160000000001
    55   1      26.382206780000001             22.26176895              0.02551757
    56   1             30.44099439      22.261841799999999    0.025489439999999999
    57   1  5.6450000000000003e-05      25.776936450000001              0.02613327
    58   1      4.0587364700000004      25.776936450000001              0.02613327
    59   1      8.1175325399999991              25.7767713    0.024734180000000001
    60   1      12.176376469999999      25.776831090000002              0.02545323
    61   1      16.235145939999999      25.776775220000001    0.025273360000000002
    62   1             20.29399038      25.776775220000001    0.025273360000000002
    63   1      24.352759840000001      25.776831090000002              0.02545323
    64   1      28.411603769999999              25.7767713    0.024734180000000001
    65   1  0.00024266000000000001              2.34304215     0.80166565000000001
    66   1      4.0585502699999996              2.34304215     0.80166565000000001
    67   1      8.1157394600000003              2.34454954     0.80169402000000001
    68   1             12.17601256      2.3433829099999999     0.80116898000000003
    69   1      16.235258170000002      2.3433209100000001     0.80090046999999998
    70   1      20.293878150000001      2.3433209100000001     0.80090046999999998
    71   1      24.353123750000002      2.3433829099999999     0.80116898000000003
    72   1      28.413396859999999              2.34454954     0.80169402000000001
    73   1      2.0293964600000001      5.8582218700000004     0.80119762000000005
    74   1      6.0870566899999998      5.8583336700000004              0.80194851
    75   1             10.14649655              5.85853131     0.80121584000000001
    76   1             14.20597894      5.8582938599999999     0.80086840999999998
    77   1             18.26456816      5.8583798500000004               0.8010794
    78   1      22.323157380000001      5.8582938599999999     0.80086840999999998
    79   1             26.38263976              5.85853131     0.80121584000000001
    80   1      30.442079629999999      5.8583336700000004              0.80194851
    81   1  0.00019438999999999999      9.3717771800000005     0.80082061000000004
    82   1      4.0585985400000002      9.3717771800000005     0.80082061000000004
    83   1      8.1175070500000004      9.3725002699999997     0.80149060999999999
    84   1      12.176590020000001      9.3733583399999993     0.80088261999999999
    85   1             16.23512199      9.3733789200000004              0.80106506
    86   1             20.29401433      9.3733789200000004              0.80106506
    87   1      24.352546289999999      9.3733583399999993     0.80088261999999999
    88   1      28.411629269999999      9.3725002699999997     0.80149060999999999
    89   1      2.0293964600000001             12.88692854     0.80220621000000003
    90   1      6.0883212999999996             12.88743848     0.80138414999999996
    91   1      10.147128609999999             12.88859852     0.80085256000000005
    92   1             14.20571782      12.888558189999999     0.80113791000000001
    93   1             18.26456816      12.888409899999999     0.80109381000000002
    94   1      22.323418490000002      12.888558189999999     0.80113791000000001
    95   1             26.38200771             12.88859852     0.80085256000000005
    96   1      30.440815019999999             12.88743848     0.80138414999999996
    97   1              0.00012365      16.403222639999999     0.80145666999999998
    98   1      4.0586692700000002      16.403222639999999     0.80145666999999998
    99   1      8.1174337899999998      16.403825260000001     0.80097196999999998
   100   1              12.1761021             16.40390721     0.80133072000000005
   101   1             16.23503496      16.403861750000001     0.80140014999999998
   102   1      20.294101359999999      16.403861750000001     0.80140014999999998
   103   1      24.353034220000001             16.40390721     0.80133072000000005
   104   1      28.411702529999999      16.403825260000001     0.80097196999999998
   105   1      2.0293964600000001      19.919205120000001     0.80066369999999998
   106   1              6.08752564             19.91894023     0.80122479000000002
   107   1      10.146078839999999             19.91919038     0.80159137999999996
   108   1      14.204993419999999              19.9192584     0.80178742000000003
   109   1             18.26456816      19.919377350000001     0.80194975999999996
   110   1      22.324142899999998              19.9192584     0.80178742000000003
   111   1      26.383057470000001             19.91919038     0.80159137999999996
   112   1      30.441610669999999             19.91894023     0.80122479000000002
   113   1              0.00142012      23.434536609999999     0.80178442000000005
   114   1      4.0573728100000004      23.434536609999999     0.80178442000000005
   115   1      8.1165862000000004      23.433936769999999     0.80182306000000003
   116   1             12.17555218      23.433996919999998     0.80156656000000004
   117   1             16.23465491      23.434040110000002     0.80170828999999999
   118   1      20.294481409999999      23.434040110000002     0.80170828999999999
   119   1      24.353584130000002      23.433996919999998     0.80156656000000004
   120   1      28.412550110000002      23.433936769999999     0.80182306000000003
   121   1      2.0293964600000001      26.949875330000001              0.80297246
   122   1      6.0858208300000003      26.950066320000001              0.80215291
   123   1             10.14598146      26.949241430000001     0.80165810000000004
   124   1             14.20520604      26.948673230000001     0.80131923999999999
   125   1             18.26456816             26.94858318     0.80108193999999999
   126   1      22.323930279999999      26.948673230000001     0.80131923999999999
   127   1      26.383154860000001      26.949241430000001     0.80165810000000004
   128   1             30.44331549      26.950066320000001              0.80215291
   129   1             -0.06069219      28.097660050000002      1.5107060800000001
   130   1      4.0205193100000001     0.18234586999999999              1.53068453
   131   1              8.16151056      28.142288430000001               1.5329789
   132   1      12.237906690000001   -0.041422809999999997      1.3244093100000001
   133   1      16.135237140000001   -0.058381530000000001      1.5698289599999999
   134   1      20.316658369999999             28.14617539      1.5383312200000001
   135   1      24.346782090000001    0.036688829999999999              1.39688762
   136   1             28.24632441    0.017539329999999999              1.50518306
   137   1      2.0320164300000001      3.4497761100000002              1.54449065
   138   1              6.18330746      3.4273743799999998              1.50857376
   139   1             10.17325812              3.49730863              1.38382183
   140   1      14.110061180000001      3.5621848599999999      1.5078151799999999
   141   1      18.248007380000001      3.5301831699999999      1.5242499300000001
   142   1      22.271758779999999      3.4321503400000002               1.3514396
   143   1      26.370167510000002      3.5189109200000002      1.4886125299999999
   144   1             30.38619293               3.3956016      1.4148540999999999
   145   1    -0.10742843000000001      7.0250462999999996      1.3913040299999999
   146   1      4.0104706700000001      7.0560962700000003      1.4223491699999999
   147   1      8.0658531399999998      6.9993528500000002              1.46418922
   148   1      12.247750440000001               6.9975505      1.4095555900000001
   149   1      16.326110969999998      6.9938912999999996              1.44785618
   150   1      20.250834569999999      7.0668637399999996      1.3465846800000001
   151   1      24.386696990000001      7.0487598299999998      1.4737469599999999
   152   1      28.400115889999999      7.0646888800000003      1.3466078800000001
   153   1      1.8343059500000001      10.431970740000001      1.5972710000000001
   154   1      6.1512915100000001      10.563480800000001      1.4137895199999999
   155   1      10.180701409999999      10.527167199999999      1.4654883000000001
   156   1      14.167556210000001              10.6264957              1.42603079
   157   1             18.17899465      10.434728079999999      1.4471616199999999
   158   1             22.32175677      10.526845420000001              1.46480056
   159   1              26.4751713      10.551098359999999              1.54272228
   160   1      30.464258969999999             10.41303081               1.6069936
   161   1      32.484245399999999      14.061638820000001      1.4371011199999999
   162   1              4.03961595             13.98713397      1.5317241699999999
   163   1      8.0970658699999998      14.052858219999999              1.59640374
   164   1             12.12740385             14.15971059      1.4764908999999999
   165   1      16.206818980000001      14.130324310000001              1.58038262
   166   1      20.272899989999999      14.139227719999999              1.43117597
   167   1      24.308601509999999             13.96028705      1.4514265900000001
   168   1      28.360875119999999             14.01223671              1.38558724
   169   1      1.9358080099999999      17.575204129999999      1.4230252000000001
   170   1      6.1185881999999996      17.582330110000001              1.45402235
   171   1      10.091638919999999             17.58765812              1.31239952
   172   1             14.16262817      17.613349530000001      1.5119837899999999
   173   1      18.319085439999998      17.493291030000002      1.4155061900000001
   174   1      22.387880060000001      17.597674000000001      1.5049663799999999
   175   1      26.366635299999999             17.63030075      1.5547668100000001
   176   1      30.374234869999999              17.5885879      1.4297995699999999
   177   1    0.028581909999999999      21.114066950000002      1.4828324100000001
   178   1      4.0126530499999999             20.98319274      1.6123380300000001
   179   1      8.2032741100000006      20.985930020000001              1.47324006
   180   1      12.212516900000001             21.11443191              1.38884133
   181   1      16.196474080000002      21.089096049999998              1.57329867
   182   1      20.288939790000001      21.154408320000002              1.43171183
   183   1             24.32343315      21.066607260000001      1.4700281500000001
   184   1      28.415094889999999             21.07601206              1.41173495
   185   1      2.0191421300000001      24.653417189999999              1.51625984
   186   1              6.00855505      24.655855169999999              1.52857928
   187   1             10.07406834             24.59068809      1.6034805999999999
   188   1             14.14465496      24.529513080000001      1.5160030600000001
   189   1      18.265867400000001      24.557302549999999      1.3689513799999999
   190   1      22.355811450000001             24.59842957      1.4168744099999999
   191   1             26.48050142      24.643435610000001      1.4641466400000001
   192   1      30.350516339999999      24.496303659999999      1.3896553199999999
   193   1      2.0136824899999999              1.06532027      2.5091316799999999
   194   1      6.1321437100000002      1.1702490999999999              2.29943966
   195   1             10.17766095               1.1248331      2.3714241299999999
   196   1             14.05705133      1.2372146500000001      2.4194258999999998
   197   1             18.25535442              1.17591398      2.4391143899999999
   198   1             22.27783372      1.1565396999999999      2.4508261099999999
   199   1      26.293172080000002              1.22373424      2.4171328500000002
   200   1             30.44823967      1.1190948300000001              2.40931191
   201   1              0.04477797      4.7045504899999999      2.3222637599999998
   202   1      4.1588705700000004      4.6607712299999999      2.4386658699999999
   203   1      8.0186241700000007      4.7573355599999996      2.3428727299999998
   204   1             12.14331606      4.6466181799999999      2.4231351800000001
   205   1      16.287394419999998      4.6303702500000004      2.4748465199999998
   206   1      20.334144219999999      4.7127443700000002      2.4837566799999999
   207   1      24.250769720000001      4.6479068000000003              2.33153802
   208   1      28.353514749999999              4.77699987      2.3238146300000002
   209   1              2.06278695      8.1899420500000009              2.40796009
   210   1      6.0784504999999998      8.2633426199999995      2.3723149299999999
   211   1             10.16762203      8.1942640499999992      2.4013330399999999
   212   1      14.232699970000001      8.1454477099999991      2.3468020900000002
   213   1      18.302781079999999      8.1796174799999992      2.5097626499999999
   214   1      22.257767550000001      8.0776760900000006      2.3251330499999998
   215   1      26.486661139999999      8.2083593399999994              2.40044251
   216   1             30.42214255      8.1634351800000005              2.36094537
   217   1             -0.05849116             11.72794073      2.3911003000000002
   218   1      4.0198220100000004             11.73881053      2.4354565699999999
   219   1      8.1423539500000004      11.734517520000001               2.3828421
   220   1      12.102204390000001      11.710253099999999      2.4813519300000002
   221   1      16.201035260000001      11.714563950000001      2.3868604000000002
   222   1      20.373150819999999      11.748054399999999              2.36165972
   223   1      24.292349000000002             11.62485987      2.4822232899999999
   224   1             28.52214897             11.70266457               2.3916643
   225   1              2.03690331      15.325641360000001      2.3355515800000002
   226   1      6.0325651300000001             15.25712658      2.4165968699999998
   227   1             10.15115009             15.28654442      2.4241774199999999
   228   1              14.2202857             15.28779821      2.3756421300000001
   229   1      18.243537669999998      15.207732999999999      2.4189710099999999
   230   1      22.420679140000001              15.1923358      2.4164865899999999
   231   1             26.39558062             15.25449192      2.3158450799999999
   232   1             30.36790014             15.17786065      2.2965019600000001
   233   1             -0.12182703      18.725922799999999      2.4297724999999999
   234   1      3.8589300400000002      18.671089599999998      2.3404455999999998
   235   1      8.0294897200000008             18.66184226              2.49807793
   236   1              12.3125018      18.810012740000001              2.35134116
   237   1      16.298689249999999             18.74872847               2.3510754
   238   1      20.293914399999998      18.780886550000002      2.3565482900000001
   239   1      24.314053359999999      18.791770750000001               2.3655982
   240   1             28.45310903             18.74291303      2.4534838899999998
   241   1      2.0016608599999999      22.317565500000001              2.41787485
   242   1      6.0812545699999996      22.292100349999998      2.3171591199999999
   243   1      10.094298650000001             22.21754645              2.39816882
   244   1      14.123686490000001      22.250336659999999      2.4599606199999999
   245   1      18.189043680000001      22.352112510000001      2.4787338499999998
   246   1             22.29749069             22.29325094      2.3178276100000001
   247   1      26.412253889999999      22.217120340000001      2.4423456099999998
   248   1      30.517494750000001      22.248447410000001      2.5002398000000001
   249   1      32.454217530000001      25.861435849999999      2.4144080200000002
   250   1      3.9489720799999999             25.88101614      2.5313383200000001
   251   1      7.9799875499999997      25.793688979999999      2.4022007699999999
   252   1             12.07260818             25.77319091      2.3735179199999998
   253   1      16.155682540000001      25.836450249999999      2.3976731299999998
   254   1      20.306426689999999             25.76185229      2.4455578999999998
   255   1             24.33408421             25.82395635              2.36994836
   256   1      28.526404329999998             25.75699955              2.38890388
   257   1      32.420122720000002               2.2696087      3.3412873799999998
   258   1      4.0749776200000003              2.37055376              3.32826157
   259   1      8.1165750899999995      2.3541309500000001      3.1174160199999998
   260   1      12.178166579999999      2.3064047599999999      3.2645355700000001
   261   1      16.244788020000001      2.3567705700000001      3.2105778699999998
   262   1      20.234323910000001              2.24246363      3.3293937499999999
   263   1      24.423293789999999      2.3494322099999998      3.2174072699999998
   264   1      28.408700629999998      2.3702656599999998      3.2530012099999999
   265   1              2.06122855      5.9023295200000003              3.14084159
   266   1      6.1484236599999997      5.8217656499999997      3.2991047099999999
   267   1      10.205775239999999      5.8194787899999998              3.31959692
   268   1             14.23868746      5.7597549700000004      3.1672576299999999
   269   1      18.173780699999998      5.7582613900000004      3.2560284400000001
   270   1      22.280595720000001      5.6702243699999997      3.2918490600000001
   271   1             26.40595192      5.7594043499999996      3.3316384700000001
   272   1      30.438892360000001      5.8321903400000004      3.1613160900000001
   273   1             -0.10012436      9.2722141300000001      3.2558927899999999
   274   1      3.9990389999999998      9.4781249699999996      3.1154097799999998
   275   1      8.1667792800000001      9.3957822499999999      3.2250314000000002
   276   1      12.219755709999999      9.3286382700000008      3.2186271500000001
   277   1      16.219465840000002      9.3108004500000003              3.25512296
   278   1      20.290091390000001      9.4049642700000007      3.1657943899999998
   279   1      24.300112009999999      9.3184738100000004              3.24268446
   280   1      28.478817679999999      9.4156554000000003      3.2380758699999999
   281   1              2.07359369             13.05912305      3.2713337600000001
   282   1      6.1133378499999997             12.87919977               3.2120997
   283   1      10.110491639999999      12.893282729999999      3.2571117699999999
   284   1               14.194936             12.90779223              3.31751906
   285   1      18.279644149999999              12.8357866      3.2235539000000002
   286   1      22.277241279999998      12.845681170000001      3.2873062599999998
   287   1      26.310923469999999      12.889684859999999      3.2325202499999999
   288   1      30.534986109999998             12.99359301              3.22330476
   289   1   -0.024495119999999999      16.385512210000002      3.2508143199999999
   290   1              4.11438462      16.519864299999998              3.20437773
   291   1      8.1480860400000008      16.368948629999998              3.21584015
   292   1             12.12453835      16.505442590000001      3.3587995099999999
   293   1             16.25184698             16.49634253      3.1832585899999999
   294   1      20.201378680000001      16.388885760000001      3.1312278500000001
   295   1      24.398801290000002             16.40045336      3.2337317200000002
   296   1             28.38819719      16.330820240000001      3.3004805500000001
   297   1      1.8853219299999999      19.979017249999998      3.2533522700000002
   298   1      6.0236080999999997             19.98463023      3.2180761200000001
   299   1             10.15745952      19.969802250000001      3.2297809700000002
   300   1      14.284686819999999             19.91096078      3.2274898799999998
   301   1      18.340034639999999      19.907631769999998      3.1327218299999999
   302   1      22.351460670000002      19.910306630000001      3.3246079100000001
   303   1             26.42511863      20.018495059999999              3.24200621
   304   1      30.417640299999999      19.949893979999999                3.267188
   305   1   -0.025242730000000001      23.447223600000001      3.2822772100000002
   306   1      4.0703079400000002             23.41730574               3.2759407
   307   1      8.0249124700000003      23.415388440000001              3.18752988
   308   1             12.15819596      23.444096640000001               3.2241442
   309   1             16.18148077             23.45757227      3.2317102200000001
   310   1      20.381794549999999      23.533124440000002      3.2332179999999999
   311   1      24.306608300000001      23.417274580000001      3.2958829999999999
   312   1      28.473773049999998             23.36613577      3.2725930499999998
   313   1      1.9390889200000001      26.998780530000001      3.3200472400000001
   314   1      6.0186342599999998      27.000433080000001      3.3672042900000001
   315   1      10.011519760000001      26.965496659999999      3.2574688699999998
   316   1      14.115630879999999      26.999191790000001      3.2388304300000001
   317   1      18.171154130000001      26.895577379999999      3.2633294799999999
   318   1      22.258723700000001      26.850976240000001      3.2963875699999998
   319   1      26.313970510000001             27.00169077      3.1238516700000001
   320   1             30.38668333      26.947458999999998      3.3687399500000001
   321   1   -0.060966579999999999      28.088222810000001      4.1727408199999996
   322   1      3.9855262300000001             28.16741953      4.0811529699999998
   323   1      8.1027743399999999      28.107977529999999      4.1061711699999996
   324   1      12.188636259999999    -0.18128031999999999      4.0308205399999997
   325   1      16.237616299999999    0.049152429999999997      4.1361928199999998
   326   1      20.235644730000001      28.054586090000001      4.1510507700000003
   327   1      24.303823390000002             -0.04149605              4.02573267
   328   1      28.376099320000002    0.069615410000000003      4.1301489900000004
   329   1      1.9622048000000001      3.6077093900000001      4.0964380499999997
   330   1      6.1851805200000003              3.62376918      4.0846356300000002
   331   1             10.13112594      3.4839152200000001              4.05782124
   332   1             14.25484462              3.40665489      4.1063073399999999
   333   1      18.311958919999999      3.4856923800000001      4.0248214500000001
   334   1      22.388869199999998               3.4141732      4.0127499799999997
   335   1      26.438251399999999      3.4758893199999998      4.0611671400000002
   336   1      30.543793409999999      3.5277208299999998      3.9931646199999999
   337   1   -0.076672119999999996      6.9463922900000004              3.98095263
   338   1      4.0184370100000004      6.9991749199999997      4.1331363100000003
   339   1      8.1283129400000007      6.9530067500000001      3.9817347399999998
   340   1              12.1629226      6.9573032000000001              4.04115308
   341   1      16.179712009999999      6.8544832900000001               4.1621546
   342   1             20.20060857      6.9704001299999998      3.9741587100000002
   343   1             24.28827716      6.9055351500000004              4.10920475
   344   1      28.491830390000001      7.0464691300000002      4.0747612699999998
   345   1      2.0493155500000002             10.63011051      4.0944252600000004
   346   1      6.1744712699999997             10.54324313      4.0164400999999996
   347   1             10.14385257             10.51750535      4.1032364799999996
   348   1             14.30796073             10.64817195              4.04709173
   349   1      18.303120830000001             10.52152684      3.9418437599999998
   350   1             22.38235882      10.449871010000001      4.0308615799999998
   351   1      26.468824219999998             10.50463152      4.0995719499999996
   352   1      30.503574950000001             10.65483847      4.1387053299999996
   353   1      32.472186620000002      14.193208800000001      4.0048132399999998
   354   1      4.0850290400000002      14.148980959999999      4.0081126999999999
   355   1      8.1267025999999998             13.98964814      4.1303646299999999
   356   1      12.167506400000001             14.11862649      4.1093164099999999
   357   1             16.24526629             14.08028891      4.0558234799999999
   358   1             20.21129195             14.16916515      4.0560090300000002
   359   1      24.311694370000001      14.106292720000001      4.0024080399999997
   360   1             28.30356905             14.05096088      4.0716532799999996
   361   1      2.0023851100000001      17.707216030000001      4.1518606299999998
   362   1      6.1593314899999996             17.58190759      4.0079162999999998
   363   1      10.066851420000001      17.557066580000001      4.0389441399999999
   364   1      14.278465219999999      17.531522469999999      4.0175814299999999
   365   1             18.31234594      17.702941630000002      4.0561644100000001
   366   1             22.30140802      17.524957610000001              4.05002262
   367   1      26.455961769999998      17.600339930000001      4.1185971600000002
   368   1      30.430159369999998      17.480921349999999      4.0164619400000001
   369   1             -0.10995951      21.132753080000001      4.1333964700000001
   370   1      4.1528974600000002             21.21266352      4.1296628000000002
   371   1      8.1043196399999999      21.033266260000001      4.0928424699999999
   372   1      12.080889259999999      21.052721340000002      4.0522907899999998
   373   1      16.218878749999998             21.00374819      4.1046872700000003
   374   1             20.18935643             21.14843986      4.1013725699999997
   375   1      24.380643800000001      21.219297149999999      4.1145906099999996
   376   1      28.454285890000001      21.016090169999998      4.1271064300000004
   377   1      2.0519167700000001      24.703659030000001      4.2386815200000001
   378   1              5.99385542      24.591169669999999      4.2028200199999999
   379   1             10.10454953      24.552189420000001      4.0144018600000004
   380   1             14.11994385             24.62768217      4.0817600599999997
   381   1      18.238681419999999             24.63751207      4.0099932000000003
   382   1             22.38271722             24.61587437      4.0274739799999999
   383   1      26.433757409999998      24.630807109999999      4.1250031399999996
   384   1             30.38607025             24.61849234      4.0868453100000002
   385   1      2.0334005099999999      1.1806710899999999      5.0088719700000004
   386   1      6.1138033099999998              1.10412412      4.8099031600000002
   387   1              10.1673931      1.1646951999999999      4.9196014100000003
   388   1              14.0825488              1.14802279      5.0092567399999997
   389   1             18.23314602               1.2845385      5.0735993700000002
   390   1      22.316268319999999      1.1443844999999999      4.8690677200000003
   391   1              26.3683537      1.1770813200000001      4.9077576299999999
   392   1      30.413000719999999      1.2859660500000001      4.8756652699999998
   393   1   0.0014198800000000001      4.6175686899999997      4.7363799200000001
   394   1      4.1298343500000003      4.5926601500000004      4.9612469800000003
   395   1      8.1828330600000001      4.6740326999999997      5.0006176199999999
   396   1             12.00716317      4.5187806000000004               4.9005817
   397   1      16.276951539999999      4.6546397700000002      4.9398549699999998
   398   1             20.30282678      4.6664807699999997      4.9717512700000004
   399   1      24.408548039999999      4.6819802399999997      4.9156190100000003
   400   1      28.384933100000001      4.6460620800000001      4.8911691800000003
   401   1      2.0925021400000001      8.1701376299999993      4.9619293100000004
   402   1      6.2017122499999999      8.1268933099999998      4.8152733100000003
   403   1             10.18802515      8.1642359100000004              4.93173963
   404   1              14.1787996      8.1953044199999994      4.8886369600000004
   405   1      18.245545230000001      8.1729654000000007      4.9412798499999999
   406   1      22.292210300000001      8.1825323999999995              4.86537694
   407   1      26.344184899999998      8.1403567900000002      4.9502259799999999
   408   1      30.451445629999998      8.2908334400000001      4.9318884900000004
   409   1  -0.0015841200000000001             11.76771106      4.8805284100000002
   410   1              4.06815032             11.74423123      4.8872039100000002
   411   1      8.0946902400000003      11.650854300000001      5.0327955400000004
   412   1             12.21383232      11.757564929999999      4.9760054199999999
   413   1      16.424013729999999      11.697654350000001      4.9018140800000003
   414   1      20.373368410000001             11.82001674      4.9036723999999996
   415   1      24.317216500000001             11.68877827              4.92869169
   416   1             28.42088764             11.74695953      4.8827366400000001
   417   1      2.0647141000000002      15.372266850000001      4.9599346799999999
   418   1      6.0580925499999996      15.284919049999999      4.8790079899999999
   419   1      10.149594609999999      15.272473010000001      5.0834585299999997
   420   1      14.143077999999999             15.29821778      4.8874494000000004
   421   1      18.161516460000001      15.353674610000001      4.8918463599999997
   422   1      22.349603649999999             15.24244397      4.8580574099999998
   423   1             26.29563314      15.234381519999999              4.79416434
   424   1      30.436614349999999             15.08350141      4.9086015600000001
   425   1    -0.21983976999999999      18.821126939999999      4.9929503999999998
   426   1              4.02204198      18.897133539999999              4.97235022
   427   1      8.2310260999999993      18.770151729999998      5.0529926200000004
   428   1             12.23818243      18.766717020000002      4.8801754400000004
   429   1      16.246339249999998             18.76141616      4.9119498699999999
   430   1             20.36161186      18.891734020000001      4.9254470599999998
   431   1      24.405094909999999      18.804503230000002      4.7994486299999997
   432   1      28.496573290000001             18.62924937      4.9629733099999997
   433   1      2.0870807500000002             22.31557437      4.9074409699999997
   434   1      6.1795120800000003             22.23605409      4.9646114399999997
   435   1             10.15213997      22.205364070000002      4.9983450300000003
   436   1      14.173327820000001             22.18297965      4.8025818500000002
   437   1      18.290525469999999      22.304032339999999      4.9030935500000004
   438   1      22.278011329999998      22.315127889999999      4.6930809900000003
   439   1             26.39699555      22.253207320000001      4.9215250499999996
   440   1      30.493161430000001      22.304587260000002      5.0652818599999998
   441   1      32.441807750000002      25.897566130000001      4.9113015799999999
   442   1      4.0961933400000001      25.749619089999999      5.0831177600000004
   443   1      8.1378811100000004      25.798705099999999      4.9097194999999996
   444   1      11.998184650000001             25.69478617      4.9489300700000003
   445   1      16.169365240000001             25.79972527      4.8475163300000004
   446   1      20.305192290000001      25.763207420000001      4.8839127199999997
   447   1      24.412492629999999             25.74357491      4.8502661700000003
   448   1             28.44494469      25.862573529999999      4.9999699099999999
   449   1   -0.023715159999999999      2.4510744199999999      5.8044242800000001
   450   1      4.0419627800000004      2.2646521399999999              5.70471108
   451   1      8.1798636499999997      2.2770903499999999      5.6722322700000003
   452   1             12.17719993      2.3723122399999998      5.8584917900000004
   453   1      16.190544259999999      2.3845887399999999      5.8597217600000002
   454   1      20.254757810000001      2.3221729799999999      5.8140281299999996
   455   1             24.32078971      2.3346409100000001      5.6907701199999998
   456   1             28.41419101      2.3735517800000001      5.6400324199999998
   457   1      2.0943677599999999      5.7888142499999997      5.7220628199999997
   458   1      6.1407922599999996      5.8419567900000002      5.8791629099999998
   459   1             10.12767187      5.8281345900000003      5.7585111199999997
   460   1             14.11946818              5.78295402      5.7269519799999999
   461   1      18.315280909999998      5.8909932200000004              5.74636747
   462   1             22.31380794      5.8001320099999996      5.7362192299999997
   463   1      26.331105600000001      5.8539601499999998      5.8336240699999999
   464   1      30.482975840000002              5.88235917      5.7774934699999996
   465   1    0.045846659999999997      9.4003185600000005              5.76180059
   466   1      4.0866896400000003      9.2498052099999999      5.6365549799999997
   467   1      8.1184965099999999      9.2984255200000003      5.8566980099999997
   468   1      12.153585570000001              9.37337694      5.8355157599999998
   469   1      16.194054099999999              9.29356078      5.8115049900000004
   470   1      20.333112180000001      9.3829376100000008      5.6629408000000003
   471   1      24.384653669999999      9.3581790199999997      5.7378662399999998
   472   1             28.39897139      9.3315235899999998      5.7162947199999996
   473   1      2.0291992900000002      12.979437470000001      5.7417224200000003
   474   1      6.1228635300000001      12.819912090000001              5.59200418
   475   1      10.219211639999999             12.76134761      5.7867780900000003
   476   1             14.17691595      13.044251409999999      5.8089814400000002
   477   1      18.254847139999999             12.91894035      5.7958960399999997
   478   1             22.31151646             12.89452683      5.7069539699999998
   479   1      26.358118189999999      12.809046049999999      5.7477270200000001
   480   1      30.518356409999999             12.85218021      5.7058243900000001
   481   1   -0.078554330000000006      16.467729049999999      5.7292609900000002
   482   1      4.0993223900000002             16.55361357      5.7608576400000002
   483   1      8.0915359299999992      16.395594079999999      5.7160202299999998
   484   1      12.141078950000001      16.405667439999998      5.7439624900000004
   485   1      16.147519070000001      16.479958490000001      5.7235432199999998
   486   1      20.335764789999999             16.42486706              5.59749491
   487   1      24.369511559999999             16.43052029      5.7412929400000001
   488   1      28.376858630000001      16.375018180000001              5.68008018
   489   1      1.9227602399999999      20.012339520000001      5.7272429000000002
   490   1      6.1512776000000002      20.008075909999999      5.6693270499999997
   491   1             10.17300345      19.913417419999998      5.8579522700000002
   492   1      14.200327229999999      19.991726379999999      5.7324017700000001
   493   1             18.32292511      20.070391269999998              5.79209058
   494   1      22.431266959999999             19.96436731      5.7864156199999996
   495   1      26.469284349999999      19.893060080000001      5.6289974699999998
   496   1      30.388620469999999      20.045364589999998              5.88788161
   497   1              0.00317819      23.459000759999999      5.6730217700000001
   498   1      4.1561915100000002      23.480950159999999      5.8162879800000002
   499   1      8.1205228399999996             23.41785647      5.7915839900000003
   500   1              12.2421244      23.355587199999999      5.6784871399999997
   501   1      16.226223189999999             23.42978896      5.7598003100000001
   502   1      20.268624020000001      23.439750579999998      5.6904052900000002
   503   1             24.38808058      23.473851289999999      5.7127108299999998
   504   1      28.420279319999999      23.470073150000001      5.7496056900000001
   505   1      2.1017804199999999      26.900973870000001      5.7307986499999997
   506   1      6.1408603299999998             27.03771587      5.8236196800000002
   507   1      10.148238879999999      26.993362770000001      5.7606830100000002
   508   1             14.18737138      26.887392810000001      5.6809466400000002
   509   1              18.1998484      27.004635109999999      5.7406860000000002
   510   1      22.378016509999998      26.914558620000001      5.7682365899999999
   511   1             26.37705425      27.017338760000001      5.8182567699999996
   512   1      30.405597050000001      26.952818560000001      5.6914813000000004
   513   1             -0.11266155              0.01769751              6.62081271
   514   1      4.1258397999999996      28.183838380000001      6.4788676599999997
   515   1      8.1688250900000003             28.15819716      6.5558797799999997
   516   1      12.238110320000001             -0.01491838      6.6565237799999997
   517   1             16.18173758      28.135122859999999      6.5573829899999998
   518   1      20.200390689999999      27.999017899999998      6.7014630500000001
   519   1             24.26541507      28.151373899999999      6.6608975099999999
   520   1      28.415732250000001             -0.02848788      6.6087251299999998
   521   1      1.9903720300000001      3.4459822400000002      6.5527156499999997
   522   1      6.0034360500000004      3.4136377200000001      6.5584858300000004
   523   1      10.030750279999999      3.5971816699999999      6.6309648499999998
   524   1             14.15461928      3.4894294800000001      6.6768078199999996
   525   1      18.215848900000001      3.6001459800000002      6.6734059999999999
   526   1      22.428107919999999      3.5197952400000001      6.6265211600000002
   527   1              26.3861451      3.4327556000000001      6.5830816900000002
   528   1             30.47609834      3.5672742899999998      6.5801805299999998
   529   1             32.52898063      7.0857599899999997      6.5224546800000001
   530   1      4.0782499200000002      6.9701524600000004      6.5383749599999996
   531   1      8.1449831499999998      7.0253630400000002              6.62454944
   532   1             12.18939919      6.9642681900000003      6.5849687100000001
   533   1      16.176999739999999      7.0003370599999997      6.6415741099999996
   534   1      20.304529500000001      7.0652108900000004      6.5386252799999998
   535   1             24.36818499      6.9939293100000004      6.6339767600000004
   536   1      28.408242309999999      6.9455598500000004      6.5567980400000003
   537   1      2.0927278500000002      10.516871099999999              6.56469653
   538   1              6.04218367      10.560951960000001      6.5027234700000003
   539   1             10.13094516             10.44723381      6.7100849900000004
   540   1             14.22498283      10.601448700000001      6.6256812199999997
   541   1      18.164286000000001             10.55661482      6.4724765399999997
   542   1      22.311415799999999             10.54282611              6.57358712
   543   1      26.428301050000002             10.59092564      6.5949341300000004
   544   1      30.470120000000001      10.596556100000001              6.67208632
   545   1      32.430555900000002      14.077011389999999      6.6300612299999999
   546   1      4.0901239800000004             14.15894611      6.4379050800000002
   547   1      8.1317552200000005             14.07341222      6.5719714500000004
   548   1             12.11653555             14.09973815      6.5791834600000003
   549   1             16.16924135             14.16029341      6.6422758399999999
   550   1      20.263492939999999             14.07855341              6.52982817
   551   1      24.353338730000001             14.00533079      6.6477637999999999
   552   1      28.360481029999999             14.01872127      6.5556729200000001
   553   1              1.99677631             17.60928754      6.5776241300000002
   554   1      6.1302960799999999      17.662304219999999      6.6016318299999996
   555   1      10.156422320000001             17.53610462      6.6506270499999998
   556   1             14.21218797      17.667975989999999              6.56308151
   557   1      18.275899729999999      17.747350239999999      6.4890976399999998
   558   1              22.3633363      17.694649810000001      6.5531998900000001
   559   1      26.353060599999999             17.68878608      6.5819743800000001
   560   1      30.480637959999999      17.583562499999999      6.6415130500000004
   561   1             -0.07906001             21.10077179      6.6517894499999999
   562   1              4.14076339      21.118850770000002      6.5514237700000004
   563   1      8.2580708099999995      21.034831189999998      6.6558944100000001
   564   1      12.196668580000001      21.048652430000001      6.5010576599999998
   565   1      16.237714889999999             21.01806174      6.5090036700000002
   566   1      20.331825980000001      21.158045860000001      6.6621028000000004
   567   1      24.335600070000002             21.19854239      6.5892197899999996
   568   1             28.40082511      21.142403819999998              6.71137344
   569   1      2.0519100899999998      24.656458090000001      6.6136952500000001
   570   1      6.1041310800000002      24.640041400000001      6.6077632499999996
   571   1      10.118422669999999             24.58575278      6.5346249600000004
   572   1             14.31924967      24.548419410000001      6.5377852399999998
   573   1      18.302777039999999      24.533197609999998      6.4482216000000001
   574   1      22.315556699999998      24.446329909999999      6.6002372899999999
   575   1      26.350908050000001      24.704737470000001      6.5452418799999998
   576   1      30.502839160000001      24.706556859999999      6.6719144400000001
   577   1              2.03852257      1.2269219200000001      7.4614951300000003
   578   1      6.0479563799999996               1.2272041      7.4806136099999998
   579   1      10.140260960000001      1.1020111800000001      7.6167044700000002
   580   1             14.27111536              1.16118634      7.6343458499999999
   581   1      18.166380839999999                1.134752      7.4738536099999999
   582   1      22.286789049999999      1.1266168700000001                7.603631
   583   1      26.395465550000001              1.09567036      7.4892276000000004
   584   1      30.472199079999999              1.31226742              7.54335763
   585   1      32.537465089999998      4.8187349199999998              7.36046084
   586   1      4.0877726000000001      4.7381662599999999      7.5223425800000001
   587   1      8.1662737199999995              4.72628279      7.5839915500000004
   588   1      12.166363649999999              4.68669826      7.4257872100000002
   589   1      16.169955439999999      4.7006815399999997      7.5045201400000003
   590   1              20.2099905              4.75196358      7.7109369599999997
   591   1      24.457247649999999      4.6388061900000004              7.41393798
   592   1      28.319476080000001      4.7241009500000004      7.4540008100000001
   593   1      2.1772164200000002      8.1512001400000003      7.3691644500000004
   594   1              6.14151296      8.1202351000000004      7.3891624299999998
   595   1             10.22458952      8.1748114600000008      7.6091327599999996
   596   1              14.1325178      8.1550195700000003      7.4494090999999996
   597   1      18.215120089999999      8.3133199100000006      7.5414688200000004
   598   1      22.300351970000001      8.1552734400000002      7.4626856799999999
   599   1      26.439077879999999      8.1213011900000005      7.5454429300000001
   600   1      30.362233230000001      8.2063735300000005      7.5097854000000002
   601   1    0.029542530000000001      11.711194709999999      7.4216643800000002
   602   1      3.8877671500000002             11.68576339      7.4812151099999999
   603   1      8.0579760900000004      11.754796150000001      7.5615164200000002
   604   1      12.147801769999999             11.73273116      7.5316469699999997
   605   1             16.35781631              11.7183648      7.6405148000000001
   606   1      20.261793140000002      11.695384110000001      7.4231025199999996
   607   1      24.337982830000001      11.638945400000001      7.6497498100000003
   608   1      28.372074850000001      11.780491380000001      7.4539557199999997
   609   1      2.0265823200000002             15.33169719      7.4644753599999998
   610   1      5.9713803199999997             15.33223183      7.5633321599999999
   611   1      10.120072049999999      15.104353339999999      7.7795541400000001
   612   1      14.136723529999999      15.294361869999999      7.5698885000000002
   613   1      18.138066519999999      15.467811940000001      7.4588095799999996
   614   1      22.347439260000002      15.160228740000001      7.4060200600000003
   615   1      26.322745059999999      15.266037389999999      7.4001249900000001
   616   1             30.47838144      15.131567309999999              7.56187743
   617   1      32.375512630000003             18.79019791      7.5926168499999998
   618   1      4.0877761699999997      18.831334940000001      7.4760452500000003
   619   1      8.1260769100000001      18.753298959999999      7.5816753200000004
   620   1      12.145789969999999      18.663204990000001      7.5940298100000003
   621   1      16.287307640000002      18.850593010000001      7.4814901899999997
   622   1      20.287105199999999      18.840614080000002      7.3736698399999998
   623   1      24.352972340000001      18.785746140000001      7.2533012499999998
   624   1             28.38186572      18.717804600000001      7.6288661299999996
   625   1      2.1875858899999998      22.422335409999999      7.4597319799999999
   626   1      6.1896568700000003      22.228644920000001      7.6002779699999996
   627   1      10.260942139999999      22.256042069999999      7.6066666999999999
   628   1              14.3185745      22.190013799999999      7.5707558800000001
   629   1             18.32417839      22.277415130000001      7.4926874200000002
   630   1      22.400193819999998      22.213858099999999      7.5645934300000004
   631   1      26.376386570000001      22.427965220000001              7.48384304
   632   1      30.502309149999999      22.232584960000001      7.7560960999999997
   633   1    0.060032469999999998      25.806653570000002      7.5071277099999998
   634   1      4.1556521699999998             25.95691776      7.5985608300000003
   635   1      8.1540219500000006      25.844612649999998      7.4690931200000001
   636   1      12.123878830000001              25.7777487      7.4061302500000004
   637   1      16.179207819999998      25.781305339999999      7.4642902800000002
   638   1               20.209864      25.719388649999999      7.3767104799999998
   639   1              24.2608435      25.726538730000001      7.5293704999999997
   640   1             28.37574918      25.868401739999999      7.4076584800000003
   641   1    0.088431129999999997                2.467209      8.2683888700000008
   642   1      4.0383336099999996      2.2904090300000002      8.1123707199999995
   643   1      8.0220478800000006      2.3770743599999999      8.0561458899999998
   644   1      12.202947780000001      2.3470285099999999      8.2842723399999993
   645   1      16.391674989999999              2.29685586      8.2423434600000007
   646   1             20.34046785              2.34041195      8.1934591399999999
   647   1      24.360298799999999      2.2885610000000001      8.1643754499999996
   648   1             28.36103516      2.3898826099999999      8.1058808100000004
   649   1              1.96135985      5.9128001699999997      8.1940069399999995
   650   1      6.0714053699999999      5.8361282599999997      8.2177780299999998
   651   1             10.17834161      5.8982232799999998      8.3611476400000004
   652   1      14.131488940000001      5.8859949199999999      8.1868252899999998
   653   1      18.169348469999999      5.9198893200000002      8.0647608700000006
   654   1      22.296108400000001      5.7755761999999997      8.0598699200000006
   655   1             26.44271882      5.9640633699999999      8.3369158199999998
   656   1             30.39400741      5.8741488000000004      8.2207865800000004
   657   1      32.528908510000001      9.3269615899999998      8.0756082199999994
   658   1      4.1391670700000001               9.3792583      8.0661447200000005
   659   1      8.0345616199999998      9.3538115299999998      8.2307420400000009
   660   1             12.13471217      9.4743782200000002      8.2078027799999997
   661   1      16.204371219999999      9.3813678599999992      8.2107524499999993
   662   1      20.241728370000001      9.3264562800000004      8.0952473499999993
   663   1      24.438146639999999      9.2778336100000001      8.2492480700000002
   664   1             28.41292649      9.4044916000000001      8.1009093199999995
   665   1               2.0483984             12.96501101      8.1992026300000003
   666   1      5.8700590200000002      12.840023390000001      8.0869654299999993
   667   1      10.055970840000001             12.91041601      8.3927192300000009
   668   1      14.164282200000001              12.9509708      8.1410028299999997
   669   1      18.425438020000001             13.09371883      8.1367727100000007
   670   1             22.18539947      12.822862300000001      8.2194231500000008
   671   1             26.41375017             13.04205876      8.3019738099999998
   672   1      30.575202539999999             12.84455348      8.2277026600000003
   673   1              32.5016465      16.389345949999999      8.2449154399999998
   674   1              3.90915101      16.559974069999999      8.2200895599999999
   675   1      8.0826361099999993      16.390778189999999      8.2738745700000003
   676   1              12.1701257      16.359716129999999      8.1341391400000003
   677   1      16.123489410000001              16.4823488      8.1695284000000008
   678   1             20.19113827      16.574412160000001      7.9505238499999997
   679   1             24.47906047      16.516944930000001      8.1939311200000002
   680   1             28.36993292             16.41340361      8.0876095299999999
   681   1              2.01836021             20.07262879      8.1600939300000004
   682   1              6.11294263      19.747479240000001      8.2440170399999992
   683   1      10.143833969999999      19.900226190000001      8.1925136399999996
   684   1      14.206607249999999      20.021986269999999      8.2270883300000008
   685   1      18.326423349999999             19.95919215      8.1946462899999997
   686   1      22.440974239999999      19.802834600000001      8.2182634399999994
   687   1      26.359073389999999      20.008837660000001      8.2755494800000005
   688   1      30.325761450000002      19.805654730000001      8.3517385199999996
   689   1               0.1115705      23.399906430000001      8.1836076299999991
   690   1      4.1186304399999996      23.462975530000001      8.2807876399999998
   691   1              8.28109188             23.56892436      8.2367802000000001
   692   1      12.261207840000001      23.439543539999999      8.1656262300000009
   693   1      16.080400699999998             23.46540195      8.2298697099999991
   694   1             20.36209075             23.40489741      8.1860593399999999
   695   1             24.33061683      23.466747120000001      8.2059037200000002
   696   1      28.555080449999998      23.682140140000001      8.1836331999999992
   697   1              2.06289831             26.96733437      8.1739134500000006
   698   1      6.0869780100000002             27.08998278      8.4245241899999996
   699   1             10.08756573      26.871803679999999      8.2972266599999998
   700   1      14.110476820000001             26.99771204      8.0379153799999994
   701   1      18.299386009999999             26.96989494      8.1940135999999999
   702   1      22.206127479999999      26.845120560000002      8.2624195100000009
   703   1      26.373095450000001             26.92301659      8.2555429799999995
   704   1      30.394428439999999      27.083227950000001      8.1121636699999993
   705   1             32.49328878             -0.03539577      8.9588050399999997
   706   1      3.8855693800000002      28.149339950000002      9.1088590299999996
   707   1      8.1743651600000007      28.534140010000002      9.1236357600000009
   708   1             12.13142785              -0.0579625      8.9865284499999998
   709   1      16.138396010000001   -0.033149810000000002      8.9378897599999991
   710   1             20.23802586             28.29847483              9.13308243
   711   1      24.446523800000001      27.989752800000002      8.9805397199999994
   712   1      28.510183510000001    0.049817279999999999      8.9990530199999998
   713   1               2.3313747      3.7178599499999998      9.0300810600000005
   714   1      5.9332205699999996      3.5150403200000002      8.9782726200000003
   715   1             10.10115218              3.32877154      8.9775276000000002
   716   1      14.334104979999999      3.5460115499999998      8.9633021100000008
   717   1      18.280105120000002      3.7058686999999999      9.1326573900000003
   718   1      22.359181039999999      3.5607828800000001      9.0486014499999996
   719   1             26.34620619      3.5206915300000001      9.0103809100000003
   720   1      30.356900419999999      3.4444838500000001      8.9316375099999998
   721   1             32.39629721      6.9557888999999999      8.9816691800000008
   722   1              4.03203332      7.1508940499999998      8.9351061000000005
   723   1      8.1336499900000003      7.1039595699999998      8.9615935100000002
   724   1             12.17097826              7.14719733      8.9709611599999999
   725   1      16.224081170000002      7.1059387000000003      8.9720318300000006
   726   1      20.276497150000001      7.1168837399999996      8.9522513700000008
   727   1      24.342953550000001      6.9230432200000003      9.1256122099999999
   728   1             28.40641548      7.0832747500000002      8.9235431599999995
   729   1      2.0919879899999998             10.40390571      8.8593782399999998
   730   1      6.0572024999999998             10.51933794      8.9030554399999993
   731   1             10.07771587             10.35687323      9.0571954600000009
   732   1             14.32431648      10.614346810000001      8.9162907300000001
   733   1             18.21862921             10.77672986      9.0004126400000004
   734   1             22.24179024      10.440081790000001      8.8961485699999994
   735   1      26.350416639999999      10.637016839999999      8.9891749900000004
   736   1      30.527030499999999             10.63325744      9.0468154900000002
   737   1              0.11762162      14.126193300000001      9.0715400400000004
   738   1              4.00813329      14.195115189999999      8.8050853500000006
   739   1      7.8874909400000002      14.045921910000001      9.0205166499999994
   740   1             12.19133194      14.051421360000001      8.9470564100000001
   741   1      16.162891500000001             14.15800995      8.9809003399999998
   742   1      20.325097169999999      14.620590630000001      9.0069243700000001
   743   1      24.186548200000001             14.09509368      9.2195256600000004
   744   1      28.610156740000001      13.932311869999999      8.8451412200000004
   745   1                1.807596      17.845694519999999      9.0763943400000002
   746   1      6.2000061000000004              17.4340391      9.0995368400000007
   747   1      10.082996509999999              17.5442547      8.9881803599999994
   748   1             14.28583504      17.770913140000001      9.0493265699999998
   749   1      18.330863189999999      17.554594789999999      8.9672354199999997
   750   1      22.263855370000002      17.287182850000001      8.9912559000000005
   751   1      26.431204220000001      17.681715019999999      9.0704755099999996
   752   1      30.378987250000002      17.410459700000001      9.0532380400000001
   753   1   -0.077404509999999996      20.971433950000002      8.9884169899999993
   754   1      4.1037752100000002      21.162783430000001      8.8775680599999998
   755   1      8.2387078900000006      21.148278309999998      8.9803123899999999
   756   1             12.18524264      21.064786999999999      8.9812148199999999
   757   1             16.25653982             21.07732004      8.9011190300000003
   758   1      20.418499600000001      21.027695600000001      9.0596026100000007
   759   1             24.39927368             21.21191597      8.9189968799999999
   760   1      28.508648310000002      21.324863839999999      9.0417445999999995
   761   1      2.0219349499999999      24.629784749999999      8.9985832899999991
   762   1      6.2734693999999998              24.4675081      9.0206572900000008
   763   1             10.31363116      24.412993709999999      8.9579753199999992
   764   1             14.28673841      24.680085519999999      8.9013556699999992
   765   1      18.261716140000001             24.64216081      8.8981683999999994
   766   1      22.333421690000002      24.403947540000001      9.0528695799999994
   767   1      26.431727089999999      24.614164630000001      8.8820005500000008
   768   1             30.49349011      24.795979899999999      9.0360779000000004
   769   2             22.13798177             14.25627912      9.4782489499999993
   770   2      23.205020399999999      15.688363750000001      9.4217352699999992
