N2-dn2-coord-10bar/300K/snapshots/frame-36679/run-000/../data.lammps (written by ASE) 

770 	 atoms 
2  atom types
0.0      32.470343392086264  xlo xhi
0.0      28.120142247150884  ylo yhi
0.0      31.213473999158239  zlo zhi


Atoms 

     1   1      2.0293964600000001      1.1716090800000001    0.023552650000000001
     2   1      6.0880008999999999              1.17168918              0.02556874
     3   1      10.146952280000001              1.17170328    0.025416459999999998
     4   1      14.205754900000001      1.1716496700000001              0.02501565
     5   1             18.26456816              1.17166478              0.02504435
     6   1             22.32338141      1.1716496700000001              0.02501565
     7   1      26.382184030000001              1.17170328    0.025416459999999998
     8   1      30.441135410000001              1.17168918              0.02556874
     9   1  9.1780000000000006e-05      4.6866847900000002    0.025581599999999999
    10   1      4.0587011400000002      4.6866847900000002    0.025581599999999999
    11   1      8.1174961000000003      4.6866290399999997    0.025584639999999999
    12   1             12.17638011      4.6866852999999997              0.02491202
    13   1             16.23517979      4.6866942700000003    0.025006210000000001
    14   1      20.293956519999998      4.6866942700000003    0.025006210000000001
    15   1      24.352756209999999      4.6866852999999997              0.02491202
    16   1      28.411640219999999      4.6866290399999997    0.025584639999999999
    17   1      2.0293964600000001      8.2016395800000002    0.026613040000000001
    18   1      6.0881071599999999      8.2016314300000008              0.02543782
    19   1             10.14701835               8.2017045    0.025156850000000001
    20   1      14.205766049999999      8.2017080900000003    0.024990459999999999
    21   1             18.26456816      8.2017077599999997    0.025091249999999999
    22   1      22.323370260000001      8.2017080900000003    0.024990459999999999
    23   1      26.382117969999999               8.2017045    0.025156850000000001
    24   1      30.441029149999999      8.2016314300000008              0.02543782
    25   1  9.2789999999999998e-05             11.71671873    0.025573410000000001
    26   1              4.05870014             11.71671873    0.025573410000000001
    27   1      8.1176017700000003             11.71668698              0.02497914
    28   1             12.17637068             11.71673069    0.025001590000000001
    29   1      16.235177310000001      11.716730249999999    0.025074039999999999
    30   1      20.293959009999998      11.716730249999999    0.025074039999999999
    31   1      24.352765640000001             11.71673069    0.025001590000000001
    32   1      28.411534549999999             11.71668698              0.02497914
    33   1      2.0293964600000001             15.23167155              0.02525285
    34   1      6.0881728300000004      15.231678799999999    0.025062859999999999
    35   1             10.14698486      15.231762639999999               0.0250786
    36   1             14.20578841             15.23176782    0.025201990000000001
    37   1             18.26456816              15.2317707    0.025149979999999999
    38   1      22.323347900000002             15.23176782    0.025201990000000001
    39   1      26.382151459999999      15.231762639999999               0.0250786
    40   1      30.440963480000001      15.231678799999999    0.025062859999999999
    41   1      32.470327990000001      18.746748629999999    0.024951939999999999
    42   1      4.0588083299999997      18.746748629999999    0.024951939999999999
    43   1      8.1175770200000006      18.746803499999999    0.025222040000000001
    44   1             12.17637459      18.746799750000001    0.025428470000000002
    45   1      16.235159400000001      18.746805200000001    0.025487360000000001
    46   1      20.293976919999999      18.746805200000001    0.025487360000000001
    47   1      24.352761730000001      18.746799750000001    0.025428470000000002
    48   1             28.41155929      18.746803499999999    0.025222040000000001
    49   1      2.0293964600000001      22.261939099999999    0.025844880000000001
    50   1      6.0881419299999999      22.261841799999999    0.025489439999999999
    51   1             10.14692954             22.26176895              0.02551757
    52   1             14.20573559      22.261804690000002    0.025639160000000001
    53   1             18.26456816             22.26178625    0.025640119999999999
    54   1      22.323400729999999      22.261804690000002    0.025639160000000001
    55   1      26.382206780000001             22.26176895              0.02551757
    56   1             30.44099439      22.261841799999999    0.025489439999999999
    57   1  5.6450000000000003e-05      25.776936450000001              0.02613327
    58   1      4.0587364700000004      25.776936450000001              0.02613327
    59   1      8.1175325399999991              25.7767713    0.024734180000000001
    60   1      12.176376469999999      25.776831090000002              0.02545323
    61   1      16.235145939999999      25.776775220000001    0.025273360000000002
    62   1             20.29399038      25.776775220000001    0.025273360000000002
    63   1      24.352759840000001      25.776831090000002              0.02545323
    64   1      28.411603769999999              25.7767713    0.024734180000000001
    65   1  0.00024266000000000001              2.34304215     0.80166565000000001
    66   1      4.0585502699999996              2.34304215     0.80166565000000001
    67   1      8.1157394600000003              2.34454954     0.80169402000000001
    68   1             12.17601256      2.3433829099999999     0.80116898000000003
    69   1      16.235258170000002      2.3433209100000001     0.80090046999999998
    70   1      20.293878150000001      2.3433209100000001     0.80090046999999998
    71   1      24.353123750000002      2.3433829099999999     0.80116898000000003
    72   1      28.413396859999999              2.34454954     0.80169402000000001
    73   1      2.0293964600000001      5.8582218700000004     0.80119762000000005
    74   1      6.0870566899999998      5.8583336700000004              0.80194851
    75   1             10.14649655              5.85853131     0.80121584000000001
    76   1             14.20597894      5.8582938599999999     0.80086840999999998
    77   1             18.26456816      5.8583798500000004               0.8010794
    78   1      22.323157380000001      5.8582938599999999     0.80086840999999998
    79   1             26.38263976              5.85853131     0.80121584000000001
    80   1      30.442079629999999      5.8583336700000004              0.80194851
    81   1  0.00019438999999999999      9.3717771800000005     0.80082061000000004
    82   1      4.0585985400000002      9.3717771800000005     0.80082061000000004
    83   1      8.1175070500000004      9.3725002699999997     0.80149060999999999
    84   1      12.176590020000001      9.3733583399999993     0.80088261999999999
    85   1             16.23512199      9.3733789200000004              0.80106506
    86   1             20.29401433      9.3733789200000004              0.80106506
    87   1      24.352546289999999      9.3733583399999993     0.80088261999999999
    88   1      28.411629269999999      9.3725002699999997     0.80149060999999999
    89   1      2.0293964600000001             12.88692854     0.80220621000000003
    90   1      6.0883212999999996             12.88743848     0.80138414999999996
    91   1      10.147128609999999             12.88859852     0.80085256000000005
    92   1             14.20571782      12.888558189999999     0.80113791000000001
    93   1             18.26456816      12.888409899999999     0.80109381000000002
    94   1      22.323418490000002      12.888558189999999     0.80113791000000001
    95   1             26.38200771             12.88859852     0.80085256000000005
    96   1      30.440815019999999             12.88743848     0.80138414999999996
    97   1              0.00012365      16.403222639999999     0.80145666999999998
    98   1      4.0586692700000002      16.403222639999999     0.80145666999999998
    99   1      8.1174337899999998      16.403825260000001     0.80097196999999998
   100   1              12.1761021             16.40390721     0.80133072000000005
   101   1             16.23503496      16.403861750000001     0.80140014999999998
   102   1      20.294101359999999      16.403861750000001     0.80140014999999998
   103   1      24.353034220000001             16.40390721     0.80133072000000005
   104   1      28.411702529999999      16.403825260000001     0.80097196999999998
   105   1      2.0293964600000001      19.919205120000001     0.80066369999999998
   106   1              6.08752564             19.91894023     0.80122479000000002
   107   1      10.146078839999999             19.91919038     0.80159137999999996
   108   1      14.204993419999999              19.9192584     0.80178742000000003
   109   1             18.26456816      19.919377350000001     0.80194975999999996
   110   1      22.324142899999998              19.9192584     0.80178742000000003
   111   1      26.383057470000001             19.91919038     0.80159137999999996
   112   1      30.441610669999999             19.91894023     0.80122479000000002
   113   1              0.00142012      23.434536609999999     0.80178442000000005
   114   1      4.0573728100000004      23.434536609999999     0.80178442000000005
   115   1      8.1165862000000004      23.433936769999999     0.80182306000000003
   116   1             12.17555218      23.433996919999998     0.80156656000000004
   117   1             16.23465491      23.434040110000002     0.80170828999999999
   118   1      20.294481409999999      23.434040110000002     0.80170828999999999
   119   1      24.353584130000002      23.433996919999998     0.80156656000000004
   120   1      28.412550110000002      23.433936769999999     0.80182306000000003
   121   1      2.0293964600000001      26.949875330000001              0.80297246
   122   1      6.0858208300000003      26.950066320000001              0.80215291
   123   1             10.14598146      26.949241430000001     0.80165810000000004
   124   1             14.20520604      26.948673230000001     0.80131923999999999
   125   1             18.26456816             26.94858318     0.80108193999999999
   126   1      22.323930279999999      26.948673230000001     0.80131923999999999
   127   1      26.383154860000001      26.949241430000001     0.80165810000000004
   128   1             30.44331549      26.950066320000001              0.80215291
   129   1      32.447527999999998      28.062124860000001              1.47153018
   130   1      4.0397949899999999   0.0024403799999999998              1.43615453
   131   1      8.2058646599999996             28.07091673              1.45818118
   132   1             12.25485973             28.10332708      1.3445502600000001
   133   1      16.265878879999999      28.026163589999999      1.4002696100000001
   134   1             20.24561671    0.042173530000000001      1.4231655400000001
   135   1      24.366150350000002              28.1296307              1.58290693
   136   1      28.362170549999998   -0.016560620000000002              1.46633649
   137   1      1.9991743900000001              3.41777328              1.37275014
   138   1      5.9695840499999999      3.5190697100000001      1.4278192199999999
   139   1             10.13924791      3.5560683000000002      1.5383216900000001
   140   1             14.23108635      3.4764325999999999              1.60341628
   141   1      18.283422420000001      3.4410645199999998              1.55440471
   142   1      22.293822500000001      3.5369471699999999      1.4006879400000001
   143   1      26.478157280000001              3.57835642              1.50464088
   144   1      30.469939709999998      3.4197847600000002      1.3629614999999999
   145   1      32.497757550000003              6.95965305      1.3423506599999999
   146   1      4.0187042899999996      6.9904311200000002              1.43022665
   147   1      8.0880221700000003      7.0509823100000002      1.5407441399999999
   148   1      12.216989160000001      6.9378726799999999              1.36023882
   149   1      16.324694690000001      6.9909629500000001      1.4566905800000001
   150   1      20.323965900000001      7.0157590000000001              1.57438129
   151   1      24.434838710000001      7.1446313999999997      1.5043127999999999
   152   1             28.50545829      7.0628276799999998      1.4231578600000001
   153   1              1.98046553      10.520061099999999              1.48354802
   154   1      5.9887344000000002             10.61915903              1.44617938
   155   1             10.21206875             10.59230007              1.44343698
   156   1      14.192984279999999             10.50076874              1.35459124
   157   1             18.28610222      10.565841239999999              1.36441747
   158   1      22.310088619999998             10.44415469              1.32256884
   159   1      26.455539760000001      10.524169860000001      1.3740554300000001
   160   1      30.484421749999999             10.56193041      1.4528079300000001
   161   1   -0.089875590000000005             14.03006573              1.42271978
   162   1      4.0569812599999997             14.06912414      1.4224922799999999
   163   1              8.04098398      14.082288910000001              1.46056801
   164   1      12.195462600000001      14.021873340000001      1.4335077899999999
   165   1             16.34507747      14.053553300000001      1.4274189500000001
   166   1             20.27630332      14.042780199999999              1.48811559
   167   1      24.332609170000001             14.05055404              1.44854883
   168   1             28.36322942      14.007995490000001      1.4984846700000001
   169   1      2.0561143099999999      17.560095690000001      1.4491591500000001
   170   1      6.1278858600000001             17.70287415      1.4464695999999999
   171   1      10.059840919999999      17.566607040000001              1.43807128
   172   1             14.21348467             17.65139727              1.61575571
   173   1      18.259035730000001             17.54796331      1.3763310900000001
   174   1      22.208783360000002      17.567359310000001      1.6066931200000001
   175   1      26.426166649999999      17.490891260000001              1.57297569
   176   1      30.498709049999999      17.631404289999999      1.5831493400000001
   177   1    0.049629779999999998      20.997981880000001      1.5485527400000001
   178   1      4.0893783700000004             21.14944655      1.4396275199999999
   179   1              8.13568216      21.103421480000002               1.3590157
   180   1             12.17800137      21.102794750000001      1.3634763299999999
   181   1             16.35172176             20.99016043              1.37824207
   182   1      20.323730650000002      20.997180759999999      1.4701941999999999
   183   1      24.382531719999999      21.118104410000001              1.50892005
   184   1      28.398738850000001      21.146226590000001              1.53547261
   185   1      2.0491815199999999      24.519487470000001      1.5733856100000001
   186   1      6.2365895499999997             24.64642181              1.43783843
   187   1             10.18208119      24.678029599999999      1.4154750899999999
   188   1      14.170399420000001      24.663617070000001      1.5046457099999999
   189   1      18.309059179999998      24.583947999999999      1.4552675399999999
   190   1      22.273465869999999      24.540449450000001              1.35601876
   191   1      26.324089959999998      24.668741659999998      1.4421725599999999
   192   1             30.49138537      24.701659549999999      1.5012867000000001
   193   1      2.0333684700000001              1.18809334      2.4662800800000002
   194   1      6.0885963800000003              1.16536193      2.4326615600000001
   195   1             10.18435596      1.0866530299999999      2.3872585399999999
   196   1             14.20191769               1.0595367      2.4195824300000002
   197   1      18.394234690000001              1.11617148      2.4250266200000001
   198   1      22.297482080000002      1.2716575800000001              2.38336178
   199   1      26.371893010000001              1.21018355              2.42713241
   200   1      30.459461810000001      1.0804493399999999      2.3378494700000001
   201   1     0.11564199999999999      4.6755762199999999      2.4235664200000002
   202   1              3.99702066      4.6291246800000003      2.4197131500000002
   203   1      8.0804249099999996      4.7386136800000003              2.44880465
   204   1      12.212208560000001      4.5930832400000003      2.4549072700000001
   205   1      16.233874910000001      4.7369148000000001      2.3996817300000002
   206   1      20.334618500000001      4.6413525399999997              2.36519243
   207   1      24.474489770000002      4.6837484299999996      2.3486611800000001
   208   1             28.46930558      4.7105153499999997      2.3267153199999999
   209   1      2.0368046899999999      8.1966223100000004      2.4466257100000002
   210   1      6.1206375900000003      8.1455522600000005              2.40128684
   211   1             10.23576255      8.2935690300000005      2.3033518000000002
   212   1             14.26336798      8.1786304399999992      2.3317210099999999
   213   1      18.261941650000001      8.3243214600000002              2.39288371
   214   1      22.323661950000002      8.2064662500000001      2.4347015299999999
   215   1             26.45955837      8.3400536699999996              2.45762832
   216   1             30.52731562      8.1907476599999995      2.3026517000000002
   217   1      32.545342040000001             11.69878089      2.5248900500000002
   218   1      3.9529792700000002             11.84837888      2.4750699699999998
   219   1      8.1264787500000004             11.65627945      2.4355377900000001
   220   1             12.33508625             11.63019186      2.3156704100000001
   221   1      16.283182159999999      11.726188779999999      2.4179250099999998
   222   1      20.356416620000001      11.755400290000001      2.4584335799999999
   223   1      24.314777639999999             11.70863786      2.3488110799999999
   224   1      28.423452829999999             11.76845116      2.4562779300000002
   225   1      2.0625974899999999             15.21124382      2.4138872199999999
   226   1      6.0768339500000002      15.370089500000001      2.2420684500000001
   227   1             10.05361926      15.110507309999999               2.3728715
   228   1             14.20621369             15.22294273      2.3577464799999999
   229   1      18.323066669999999      15.327198599999999      2.3816415599999998
   230   1      22.274639010000001      15.223111319999999      2.3580761899999998
   231   1      26.429912940000001      15.212351719999999      2.3171388099999999
   232   1      30.445401610000001             15.24131964      2.3600587599999998
   233   1    0.092686080000000004      18.684036970000001      2.4397058600000001
   234   1      4.0906363700000004             18.85593179      2.4529339299999999
   235   1      8.1887039000000001             18.78307547              2.51326041
   236   1      12.210939079999999              18.7487225              2.44813956
   237   1             16.24660235      18.638011689999999              2.39639822
   238   1      20.337594670000001      18.698286580000001      2.4422379699999999
   239   1      24.258429140000001      18.821162090000001      2.4831751999999998
   240   1             28.45081575             18.72301933      2.4199812299999999
   241   1      2.0572131300000001             22.22132208      2.4043733899999999
   242   1              6.15014547      22.149637859999999      2.3838942699999999
   243   1      10.181869580000001      22.323514939999999      2.3646043699999999
   244   1      14.187453209999999      22.109790919999998      2.3460651000000001
   245   1      18.253603429999998             22.22852009      2.4775862900000001
   246   1      22.412931520000001      22.225472700000001      2.5319174699999998
   247   1      26.425498520000001      22.331145209999999      2.4763511299999998
   248   1      30.457072589999999             22.20748012      2.3523116100000001
   249   1             32.52165608              25.6965006      2.4903938700000001
   250   1      4.1128258600000001             25.76108687              2.50261654
   251   1              8.12343613             25.74365448      2.3598153900000001
   252   1             12.23239927      25.831215329999999      2.3135091600000002
   253   1      16.335654300000002      25.754907320000001      2.3876689799999999
   254   1      20.395737449999999              25.8541527              2.32842342
   255   1      24.287304429999999      25.774121439999998      2.4468238100000002
   256   1             28.48636497      25.907841600000001      2.4455761800000002
   257   1      32.428595369999996      2.2603194700000002      3.1615455200000002
   258   1      4.0994080899999998              2.31438378      3.2610920600000002
   259   1      8.2317808299999999      2.3342207699999999      3.1767851899999999
   260   1              12.2287292      2.2259236200000001      3.2881110599999999
   261   1      16.400236620000001      2.3228588299999999      3.2794468000000001
   262   1      20.352475909999999      2.3865172600000002              3.27806606
   263   1      24.502443970000002              2.30285707      3.3056256999999998
   264   1      28.394983239999998      2.2951922200000001              3.21646309
   265   1      2.1337548200000001      5.7992439200000003              3.25718145
   266   1      5.9781803599999996      5.7511942300000003      3.3159774299999998
   267   1             10.22278977      5.8493504300000003      3.2384978499999999
   268   1             14.22970823      5.9595811300000001      3.2819488099999998
   269   1      18.330431390000001      5.9150097400000003              3.30582295
   270   1      22.304580609999999      5.7603938299999999      3.2089914500000001
   271   1             26.46015117      5.9433100400000001      3.3458636799999999
   272   1      30.505840339999999      5.7847713499999998              3.16496888
   273   1      32.495829360000002      9.2636301099999994              3.30118775
   274   1              4.02160283      9.4356582600000003              3.29251045
   275   1      8.0135873199999992      9.3264570599999992      3.1973197999999998
   276   1      12.200378730000001      9.3537092899999994              3.22643411
   277   1      16.152183520000001      9.4371269099999999      3.2726857100000002
   278   1      20.305688199999999      9.3830313699999994      3.2844085299999999
   279   1             24.35409465      9.4141346600000002      3.2373076799999998
   280   1      28.558199049999999      9.4377644200000006      3.1446240200000002
   281   1      2.0936446100000001              12.8971613      3.2305486999999999
   282   1      6.1245596999999998      12.823790929999999      3.1872771100000001
   283   1             10.17645332             12.84652174      3.1677895899999999
   284   1             14.31489994      12.894993039999999      3.2140695500000001
   285   1      18.294277810000001      12.862817010000001      3.2189359299999998
   286   1              22.2367727             13.00436423      3.2324942999999999
   287   1      26.285119330000001             13.10671426      3.1475167100000001
   288   1             30.41858504             12.82272468              3.24281197
   289   1      32.429039920000001             16.36184781              3.23251797
   290   1      4.0818587700000002      16.437167479999999              3.23934846
   291   1      8.1055599199999993      16.340726249999999      3.2183014700000001
   292   1      12.060950679999999      16.354032069999999      3.3008653300000002
   293   1      16.223447199999999             16.38050462      3.2667318600000002
   294   1      20.434603249999999      16.366218979999999      3.1661412200000001
   295   1      24.287046969999999      16.394501949999999              3.22436437
   296   1             28.38246483      16.395673519999999      3.2956733900000001
   297   1      2.0198958600000001      19.939701280000001      3.3144059299999999
   298   1      6.0619019700000001      19.846069910000001              3.25340206
   299   1             10.10940637      19.970851509999999              3.25415688
   300   1      14.251134540000001             19.92169251      3.2900850300000002
   301   1      18.282340359999999      19.858440359999999      3.3050756400000001
   302   1      22.335363000000001      19.904182169999999      3.2713386400000002
   303   1             26.37488969      19.936963080000002      3.2028471999999999
   304   1      30.371353419999998      19.815059959999999      3.2714177900000001
   305   1      32.548928850000003             23.40694624              3.21305839
   306   1      4.1517091300000004      23.464247619999998              3.29222101
   307   1      8.1874625999999999      23.530536990000002      3.1836673000000002
   308   1      12.356929969999999      23.356782240000001              3.19709406
   309   1             16.28928277      23.355171989999999              3.20800755
   310   1              20.2933655      23.449347670000002      3.2227523200000001
   311   1      24.361267359999999             23.49113157      3.1871930700000002
   312   1      28.327552369999999      23.540732519999999      3.3332628400000002
   313   1      2.0181547100000001      26.872154439999999      3.2862612599999999
   314   1      6.2711713800000002      26.919282039999999              3.30175449
   315   1      10.194240410000001      26.991120250000002      3.2398347300000001
   316   1      14.289154379999999             26.80251805      3.1615073599999999
   317   1      18.404448290000001      26.888846900000001      3.2734255600000002
   318   1      22.318819789999999      27.036502670000001      3.2556368400000002
   319   1      26.305010630000002      26.962663339999999      3.2496836299999998
   320   1      30.503587889999999      26.949685779999999              3.23806745
   321   1      32.538314069999998      28.111854099999999      4.0218048700000004
   322   1      4.0134393900000003              28.0643745      4.0669249599999997
   323   1      8.2343321899999999      28.153521680000001      3.9973050899999998
   324   1             12.29112915   -0.027018779999999999      4.0093103499999998
   325   1      16.360203330000001   -0.078503000000000003      4.0035788099999996
   326   1      20.327264580000001      28.163918559999999      4.0405891499999997
   327   1      24.407991419999998    0.057142079999999998      4.1773673699999998
   328   1      28.384785409999999             -0.02617104      4.0084522500000004
   329   1      2.0799082100000001      3.4324361799999998      4.0417940000000003
   330   1      6.1456223300000001      3.4176125599999998      4.0586054599999999
   331   1              10.1977487      3.5343852199999999              4.13503723
   332   1             14.23835347      3.4429944200000002      4.1144892100000003
   333   1             18.27357619      3.6583461499999999      4.0655298899999996
   334   1             22.41296105              3.48736845      4.0527456500000003
   335   1      26.560497420000001      3.6148292500000001      3.9706847700000001
   336   1      30.361606219999999      3.4381162000000001      3.8842230199999999
   337   1      32.486696530000003      6.8609282800000004      4.0512176499999999
   338   1      4.0730491600000001              7.01818046      4.0761426700000003
   339   1      8.0615034600000008      6.9521723199999998      4.1738660000000003
   340   1             12.19721301      6.8798333100000004      4.0076627800000004
   341   1      16.300370139999998      7.1377158600000001      4.0316610800000001
   342   1      20.359289929999999      7.0035104600000002      4.0363466099999998
   343   1      24.325346029999999              7.08050158      4.0663956199999998
   344   1      28.461203699999999      7.0523334899999996      3.8999635499999998
   345   1              1.90966751             10.50708886              4.16396765
   346   1      6.0459626599999998             10.50001934      4.0935598100000004
   347   1             10.11792093             10.53390948      3.9760379700000001
   348   1      14.214735429999999             10.55477907      4.1447358200000002
   349   1             18.17497286      10.604195320000001      4.0569661100000003
   350   1      22.354042100000001      10.585588769999999      3.9726791800000001
   351   1      26.483012339999998      10.641588219999999              3.93151034
   352   1      30.474974899999999             10.62422671      4.1628785700000002
   353   1    0.079587130000000006              14.0729525              3.98453451
   354   1      4.0806258399999997      14.123917349999999      3.9936223800000001
   355   1      8.0534867400000003      14.098280819999999      4.0378225900000002
   356   1      12.127428739999999      13.919942170000001      4.0282104900000002
   357   1      16.252969610000001             14.06333411      4.0474390800000002
   358   1      20.255218790000001      14.172841379999999              4.02195035
   359   1      24.330153200000002      13.959102079999999      4.0243168699999998
   360   1      28.461326140000001             14.06136925      4.0684003000000004
   361   1              1.96409291      17.469865939999998              4.10259923
   362   1      6.1546108799999999      17.608772099999999      4.1264095999999997
   363   1             10.13431559             17.53268752      3.8383843400000002
   364   1             14.18835932      17.594562539999998              4.00560925
   365   1      18.236095420000002      17.439250099999999      4.0170428400000002
   366   1      22.378470279999998             17.47673636      4.1252406300000004
   367   1             26.30120011      17.594831020000001      4.1157044200000001
   368   1             30.44822375      17.583990799999999      4.1641593099999996
   369   1   -0.028672429999999999      20.987729959999999      4.1296485699999996
   370   1      4.1220773900000003      21.050577789999998      4.0287393500000004
   371   1      8.1616194699999998      21.130280809999999      3.9896615299999998
   372   1             12.13067386      21.074319129999999      3.9569057399999998
   373   1      16.328103850000002      20.993645050000001               3.9933771
   374   1      20.240936300000001      21.149442879999999      4.1808465300000002
   375   1      24.363696000000001      21.169821089999999      4.0492335300000004
   376   1             28.38054679      21.081590989999999      3.8973139899999998
   377   1      2.1245708900000002      24.474334519999999      4.2073632600000002
   378   1      6.2685499199999999             24.63979982      4.0431672399999998
   379   1             10.30304686      24.631887339999999      3.8827663800000001
   380   1             14.21746952      24.564191659999999      4.1567238599999996
   381   1      18.264937870000001      24.673827880000001      4.1159248100000001
   382   1      22.341342740000002      24.534913570000001      4.1744330400000003
   383   1             26.29683215              24.7070927              4.12937172
   384   1             30.59993669      24.560601170000002      4.0397628299999999
   385   1              2.21798786      1.0971597399999999      4.9775570800000004
   386   1      6.1782900600000001      1.0535110999999999      4.9005541199999998
   387   1      10.025005480000001      1.1233114399999999      4.9228151699999998
   388   1             14.33589227      1.0968318800000001      5.0271477200000003
   389   1             18.37870075      1.1983896999999999              4.96839575
   390   1      22.311078389999999      1.1755039199999999      4.8508970099999997
   391   1      26.505039459999999              1.15110292      4.9507244100000003
   392   1      30.499418290000001               1.0856412      4.9010321399999999
   393   1    0.044547730000000001      4.5003630399999999      4.8072337599999999
   394   1      4.1246489300000002      4.6570426999999999      4.9405969900000004
   395   1      8.0208677900000005      4.6805024399999997      4.9221971599999996
   396   1             12.27841973      4.7064971699999996      4.9469010400000002
   397   1      16.286949440000001      4.7839980200000003      4.9250578000000003
   398   1      20.309179480000001              4.77860744      4.8926100300000002
   399   1      24.436947669999999      4.7078782800000001      4.7893279900000003
   400   1      28.388497019999999      4.6981408199999999      4.7676208799999999
   401   1      2.0170156000000001      8.2317789500000007      4.9631598400000003
   402   1      5.9563847299999999      8.1381891900000003              4.87363883
   403   1             10.24906208      8.1992682899999991      4.8158561500000001
   404   1             14.20904144      8.2152072500000006      4.9361446600000001
   405   1             18.38622728      8.2644030900000001      4.7691987100000004
   406   1             22.37413815      8.2846040900000002      4.8364181400000001
   407   1      26.465421840000001      8.2735863199999997               4.9110391
   408   1             30.45715629      8.3016786400000004      4.8319664199999997
   409   1    0.010684630000000001      11.777613089999999      4.9546252900000001
   410   1      4.0590364699999997             11.71640887      4.9432846499999998
   411   1      8.0921264399999995      11.671199530000001              4.85259426
   412   1             12.13763462      11.702717420000001      4.8450761599999996
   413   1      16.245654460000001      11.699547089999999      4.9908714700000001
   414   1      20.254753640000001      11.676475160000001      4.9227158500000003
   415   1      24.399075929999999      11.739259280000001      4.8429726300000002
   416   1             28.47650097      11.651571710000001              4.94009505
   417   1      2.1142580799999999             15.12216987      4.9762707099999997
   418   1              6.07838396             15.15791619      4.8933533499999999
   419   1              10.1926653             15.28543953      4.8988619599999996
   420   1      14.208718319999999             15.29385793      4.7947826100000004
   421   1      18.300243869999999             15.31322707      4.9670234400000002
   422   1      22.342244910000002      15.111675099999999      4.8826893599999996
   423   1             26.35337243      15.194408810000001      4.8435829300000002
   424   1      30.370822369999999      15.249397829999999      4.8600606199999996
   425   1      32.482080809999999      18.785732150000001      5.0340793899999996
   426   1      4.0703432700000004      18.669076860000001      4.9725606600000001
   427   1      8.0755470200000001      18.850357519999999      4.8958467399999996
   428   1             12.09487734             18.79661501      4.9094197599999996
   429   1              16.1676845             18.68019911      4.8873031500000002
   430   1             20.34031032             18.65143883      5.0086760400000001
   431   1      24.333267330000002      18.820043470000002      4.9376405099999996
   432   1      28.391128510000001      18.734842690000001      4.9273454399999999
   433   1      2.0965001399999998      22.218188659999999      4.8828139999999998
   434   1      6.0295191600000004      22.195077789999999      4.9682657199999998
   435   1             10.11334991      22.246771429999999      4.8528758700000001
   436   1             14.32118227             22.21101024      4.8150025599999999
   437   1             18.34445637      22.227116179999999      4.9799412399999996
   438   1      22.378284399999998      22.204012710000001      5.0001352399999996
   439   1      26.396417719999999      22.121924880000002      4.9292522500000002
   440   1      30.359878429999998      22.162954580000001      4.9247939900000004
   441   1      32.575928810000001      25.811507760000001      4.9416695199999996
   442   1      4.2841983099999998      25.649532449999999      4.9356142199999997
   443   1      8.3303536400000002             25.62542058      4.7747353400000003
   444   1             12.22898706      25.792826219999998      4.8693375999999997
   445   1      16.366497710000001      25.681895569999998      4.8727514200000002
   446   1      20.402245749999999      25.812237849999999      4.9166154200000003
   447   1      24.372927229999998      25.818423500000002      4.9869483299999997
   448   1      28.487628780000001             25.86655846      4.9294182600000003
   449   1      32.471632800000002      2.2107547900000002      5.6450061399999996
   450   1      4.1724568700000004              2.36519441      5.6360623199999997
   451   1              8.07035093              2.31649197      5.7364010199999997
   452   1      12.070828130000001      2.3401459999999998      5.7334334499999997
   453   1      16.266528000000001      2.5062735300000001      5.7639011699999996
   454   1      20.378263149999999      2.4886557599999999      5.7369053299999999
   455   1      24.379136559999999      2.3438269200000001      5.7339747799999996
   456   1             28.38033385               2.3868931      5.6479201999999997
   457   1      1.9808057800000001      5.7235368700000002      5.7315385599999997
   458   1      6.0971603500000002      5.9407283900000003      5.8135373399999999
   459   1             10.10423419      5.7900273899999997      5.8202670000000003
   460   1      14.267259749999999      5.8697062799999999      5.7267482000000003
   461   1      18.234713849999999      6.0129068400000003      5.8412526099999997
   462   1             22.44718129      5.9521081000000002      5.6550259599999997
   463   1      26.388926139999999      5.9745051900000004      5.6615305600000001
   464   1             30.48743691      5.7649141899999998      5.6005475799999997
   465   1   0.0039175099999999999      9.4012121000000004      5.7704951800000002
   466   1      4.0897470900000004      9.3425624700000007      5.6298273200000004
   467   1      8.2200977099999992      9.2591873600000003      5.7666096299999996
   468   1             12.14214718      9.3457365800000005      5.7344339800000004
   469   1      16.303982739999999      9.4271539999999998      5.7483755600000004
   470   1      20.369067090000001      9.4648971700000004      5.6528087600000001
   471   1      24.330831759999999      9.4549516499999999      5.6866144199999997
   472   1      28.434596330000002      9.3971853599999999      5.6363019699999999
   473   1      2.0441410900000001             12.79071304      5.7848368199999998
   474   1      6.0954981799999999             12.77768242      5.7127941199999999
   475   1      10.171888149999999      12.836991060000001      5.6861121800000003
   476   1             14.20243949             13.02652325      5.6873275799999998
   477   1      18.197354170000001             12.88839078      5.8023906399999996
   478   1      22.376348289999999      12.848615240000001      5.7228104799999997
   479   1      26.348517659999999             12.94552109      5.7026480099999999
   480   1      30.426334579999999             12.91071618      5.7560013200000002
   481   1   -0.088457740000000007      16.379906420000001      5.7385914199999997
   482   1      4.0010485999999998      16.400825189999999      5.7221725899999996
   483   1      8.1497567499999999      16.389655520000002      5.7317623099999997
   484   1             12.14700833      16.446374609999999      5.6475614600000004
   485   1      16.161797230000001      16.378428719999999      5.6315124499999998
   486   1      20.373976989999999      16.383246069999998              5.61434459
   487   1      24.316500999999999             16.47764986      5.7342099900000001
   488   1      28.360200249999998      16.339451159999999      5.7592142099999997
   489   1      1.9938607500000001      19.793794439999999      5.7546094300000004
   490   1              6.00795206      19.921405579999998              5.76805637
   491   1             10.06465695      19.946745660000001      5.5739763599999996
   492   1             14.29695609      19.924996610000001      5.7617916400000002
   493   1      18.232358640000001             19.85969519      5.7864972799999999
   494   1      22.338494359999999      19.883860559999999      5.6875801499999996
   495   1              26.4242995             19.97946086      5.7593927200000001
   496   1      30.342846040000001      19.878838989999998      5.8411243500000003
   497   1      32.490731179999997      23.435893629999999      5.7089995299999998
   498   1      4.0598961500000001      23.430553849999999      5.7540860800000004
   499   1      8.0949152099999999      23.432703100000001      5.6755599999999999
   500   1              12.1683634      23.431318130000001              5.62547993
   501   1      16.187609819999999      23.446482140000001      5.6276167199999998
   502   1      20.356746810000001             23.37455937      5.7190250799999998
   503   1      24.463743789999999             23.41251609              5.63445325
   504   1             28.39140312      23.506107499999999      5.7207207200000001
   505   1      2.1823567399999999      26.916278559999999      5.7508701999999996
   506   1      6.2801184699999997             26.83882131      5.7991527999999999
   507   1      10.219185250000001      26.959012640000001      5.7058794400000004
   508   1             14.39625848      26.876548339999999              5.70005396
   509   1      18.401326659999999      26.790692119999999      5.8280139899999996
   510   1      22.389552559999998      26.954544070000001      5.8803122999999999
   511   1      26.355106129999999             26.87990791      5.8359210199999998
   512   1      30.549375439999999             27.00546816      5.7055716099999998
   513   1              0.17664621    0.018867709999999999      6.5321730699999998
   514   1      4.3314365800000001   -0.047960490000000001      6.6153751999999999
   515   1      8.1642323700000006      28.094305599999998               6.5295299
   516   1             12.38931169   -0.073863949999999998      6.5120513600000001
   517   1      16.378773280000001     0.14082848000000001      6.4817110199999997
   518   1      20.440288649999999    0.028282959999999999      6.5714103799999997
   519   1             24.49343738    0.039542330000000001      6.6905310299999998
   520   1      28.456393590000001              0.12350192      6.5525951999999998
   521   1      2.0599614900000001      3.4409504900000001      6.5487936700000002
   522   1              6.12831613              3.54772416      6.5791218200000001
   523   1               10.179409      3.5245970799999999      6.5427847699999999
   524   1             14.20545609      3.5194915099999999      6.5791018499999998
   525   1      18.334263069999999      3.6050274299999998      6.5146699799999999
   526   1      22.516585190000001              3.46882219      6.6145109900000003
   527   1      26.373557590000001      3.6437363500000002      6.4776116100000003
   528   1      30.429553850000001              3.54997761              6.41325901
   529   1      32.471008470000001      6.9953351699999997      6.5668624900000001
   530   1      3.9749548099999998      7.0428039699999996      6.5748938299999997
   531   1      8.1446310499999992      7.0245562399999999      6.5773816199999997
   532   1             12.25865479      7.0384683600000004      6.5667336199999999
   533   1      16.220422660000001      7.0845949700000004      6.7011060499999999
   534   1      20.381290589999999      7.0474010600000003      6.4083242900000004
   535   1      24.350742759999999      6.9857507200000004      6.4647033699999996
   536   1             28.52355274      7.0609076899999996      6.3682891599999998
   537   1      2.1393658900000001             10.44816061      6.6439001199999996
   538   1      6.1425181899999997               10.542019      6.5770855700000004
   539   1             10.20091882             10.50080822      6.5624996800000002
   540   1             14.20532581             10.58854124      6.5381203299999999
   541   1      18.210301340000001             10.52472738      6.6324865600000003
   542   1      22.255554849999999             10.77770308      6.5082433399999999
   543   1      26.360493640000001      10.585991870000001      6.5874609299999998
   544   1      30.431147930000002      10.591790809999999                6.687392
   545   1      32.489850339999997             14.09102543      6.5038572200000004
   546   1      4.1417409899999997             14.13214898      6.5194637699999998
   547   1      8.1111968599999997             13.99147417      6.4958037199999996
   548   1      12.179070319999999             14.12637746      6.6264090400000004
   549   1      16.209322060000002             14.02250057      6.6053627099999996
   550   1      20.260049500000001      13.977659450000001      6.5978672400000002
   551   1             24.32513737             14.04358247      6.4921707599999996
   552   1      28.367584950000001             14.09853442      6.5922275399999997
   553   1              1.85544047      17.625369890000002      6.6984901399999996
   554   1      6.1276455600000004      17.602155020000001      6.6115745700000002
   555   1      10.173977539999999      17.528480760000001      6.5246927799999996
   556   1      14.129872860000001      17.517045889999999      6.5842111299999999
   557   1      18.308409910000002             17.41647815      6.5480396699999996
   558   1      22.279402390000001             17.51004485      6.5510984900000002
   559   1      26.358991280000001      17.622664310000001      6.5712822800000001
   560   1      30.351341099999999      17.559617589999998      6.6203677299999999
   561   1   -0.060258430000000002      21.095839229999999      6.6542090900000002
   562   1      3.9921110299999998      21.139059660000001      6.5362955500000002
   563   1      8.0949427299999996      21.083003399999999               6.5173771
   564   1             12.26252165             21.08911453      6.4064154599999998
   565   1      16.179675450000001      21.122908249999998              6.54580918
   566   1             20.35527776      21.042184859999999      6.6495613799999997
   567   1             24.32060276      21.023952680000001      6.5991105900000004
   568   1      28.446100000000001             21.19328192      6.5346333400000001
   569   1      2.0597786400000002      24.547363730000001              6.66159473
   570   1      6.1705747200000003      24.572453530000001      6.5856457199999996
   571   1             10.19147519      24.549161999999999      6.4728319299999999
   572   1             14.25718211      24.591459700000001      6.4988975099999999
   573   1             18.30374458      24.434992319999999      6.4747127500000001
   574   1      22.484130180000001      24.586938480000001      6.6503894299999997
   575   1      26.350788380000001      24.639114559999999      6.6370889599999998
   576   1      30.581819289999999      24.652805690000001      6.5132492500000003
   577   1              2.29914927      1.1241718599999999      7.4240263799999999
   578   1      6.3031134099999999      1.1680165499999999      7.5026953599999997
   579   1      10.191759709999999              1.05584064      7.4799313700000001
   580   1      14.394249869999999              1.14760924      7.5045014200000004
   581   1      18.459217559999999      1.2306711800000001      7.5857200499999999
   582   1      22.424490639999998              1.12669043      7.5303613599999997
   583   1      26.486190919999999      1.3907604200000001      7.5096610400000001
   584   1             30.51405308      1.1883500300000001      7.4329270999999997
   585   1 -0.00091193000000000003      4.7026206400000001      7.3727860700000001
   586   1      4.1131692800000001              4.77514824      7.5206601900000001
   587   1      8.1103147300000007      4.6162642500000004      7.6504954999999999
   588   1             12.11824509      4.6675867899999997      7.5185933399999998
   589   1              16.3918593      4.6323053600000001      7.5264560700000001
   590   1             20.46770939      4.7275419300000001      7.6120399900000004
   591   1      24.341971180000002      4.6911482600000003      7.4436552799999998
   592   1      28.468228029999999              4.79105486      7.0704187799999998
   593   1              2.05371266      8.1215146199999992      7.5052440100000002
   594   1      6.1964366499999999              8.20815479      7.4733020100000003
   595   1             10.25008755      8.2203015100000005      7.4877991799999997
   596   1             14.18278961      8.1803989000000001      7.4888728000000002
   597   1             18.31312999      8.3234501699999992      7.4920370099999998
   598   1      22.356150450000001      8.2584229800000006      7.5347090000000003
   599   1             26.31699424      8.2886596099999998      7.5035273900000004
   600   1             30.46971199      8.1527514399999994      7.3849363800000001
   601   1      32.494128349999997             11.61230099      7.6849638100000002
   602   1      4.2165856899999996      11.688368540000001      7.4448975900000001
   603   1      8.3006832799999994      11.659494649999999      7.3899965300000003
   604   1      12.172836370000001      11.760491780000001      7.2491679600000003
   605   1             16.22274342      11.728349850000001              7.41660889
   606   1      20.351525580000001      11.804730729999999      7.3753950499999998
   607   1      24.395269110000001             11.70444107      7.4144512899999997
   608   1      28.475475930000002             11.89141162      7.6681781899999999
   609   1              2.01882085      15.304671580000001      7.6342151400000002
   610   1      6.1915606199999997              15.2420841      7.4078609799999997
   611   1      10.120505919999999             15.22044013      7.3735521899999998
   612   1             14.06002013             15.16354907      7.4736469799999998
   613   1      18.304501649999999      15.193931790000001      7.4422577800000003
   614   1             22.28480424             15.17525796      7.5566953300000002
   615   1      26.267400240000001             15.17547165      7.4222513899999996
   616   1              30.5560972             15.32758216      7.4293577400000004
   617   1   -0.078500260000000002      18.764122489999998      7.6767818400000003
   618   1      3.9558830399999998      18.726240780000001      7.4450190100000002
   619   1      8.1126421900000008      18.571647129999999      7.4884800499999997
   620   1      11.974669049999999              18.8144268      7.3602886700000001
   621   1             16.14381058      18.726879350000001      7.3401113000000002
   622   1      20.211728279999999      18.706404790000001      7.4408561000000004
   623   1             24.27125324      18.675493899999999      7.4078037999999999
   624   1             28.32519344      18.793784710000001      7.5489405999999999
   625   1      2.0231428600000001             22.30049472      7.5970247400000002
   626   1      6.1234668599999997      22.114910160000001      7.5142601200000003
   627   1             10.13601923      22.226621770000001      7.3484373099999996
   628   1      14.207706050000001      22.246644270000001      7.5231690100000002
   629   1      18.273435020000001              22.1563634      7.6930400199999998
   630   1      22.372813090000001      22.253421169999999               7.6108661
   631   1      26.530262059999998             22.29010821      7.4476538799999998
   632   1             30.51697253             22.25081514      7.3799694899999997
   633   1      32.675457340000001             25.85439659      7.5415821999999997
   634   1      4.0844750999999997      25.742498300000001      7.4693087800000004
   635   1      8.3228715100000006      25.699224449999999      7.3118363799999999
   636   1      12.231897460000001      25.691814690000001      7.4037535200000004
   637   1      16.414706970000001      25.943450510000002              7.51852404
   638   1             20.44513512      25.604449599999999              7.41945107
   639   1      24.353553040000001      25.905564800000001      7.6172717600000004
   640   1              28.5333644             25.89951301      7.4928758000000002
   641   1               0.2028576              2.33438759      7.9886254000000001
   642   1      4.2663896399999999      2.3683442399999999      8.1109109400000001
   643   1      8.3816463500000005      2.2883815900000002      8.2173490699999991
   644   1      12.184585800000001      2.3160503000000001      8.0823828100000004
   645   1      16.345889029999999      2.3530609400000002      8.1465424300000002
   646   1      20.319021830000001      2.4988322699999999      8.1749579699999995
   647   1      24.453540390000001      2.4055550299999999      8.3508455700000006
   648   1      28.512453109999999      2.5023630300000002      8.2346761300000004
   649   1      2.1117259700000002      5.7642304900000001      8.1464846000000009
   650   1      6.1536444599999998      6.0023766600000004      8.2354763500000008
   651   1             10.21426791      5.7720456000000002      8.1511823900000007
   652   1             14.21715902      5.7836174199999997      8.2818318899999994
   653   1      18.331368489999999      5.8576561299999996      8.2970069800000008
   654   1      22.405739000000001      5.9481110599999996      8.2407547999999995
   655   1      26.460689819999999      5.9599403799999999      8.0342684700000007
   656   1      30.436246180000001      5.7799573899999999      8.0671595899999993
   657   1             -0.11499157      9.3136758499999992      8.2853520599999992
   658   1      4.0915288600000004      9.4497151400000003      8.1938440900000007
   659   1      8.2598296300000005      9.3972365599999996      8.2309369599999993
   660   1             12.25312383      9.6693698900000005      8.2335034900000004
   661   1      16.216508829999999      9.4078314499999998      8.2793821100000002
   662   1             20.28978644      9.3802376600000006      8.1081968500000006
   663   1      24.310102409999999      9.4323868500000003      8.1458639599999998
   664   1      28.350407449999999      9.2807967700000003      7.9948756899999998
   665   1      2.2398467800000001             12.91347244      8.0618991399999995
   666   1      6.2013435299999999      12.947214929999999      7.8620316700000004
   667   1      10.248957730000001      12.949507880000001      8.0771709200000004
   668   1      14.032618149999999      12.955171740000001      8.2542370599999995
   669   1      18.280240299999999             12.85709975      8.1757651500000001
   670   1             22.44299183      12.841778769999999      8.1248635199999999
   671   1      26.281430889999999             12.83010494      8.2409528600000002
   672   1      30.527608350000001             12.88195853      8.2397687299999998
   673   1   -0.084611770000000003      16.457180650000002      8.2003717100000006
   674   1              4.14471978      16.456702379999999      8.2740382100000005
   675   1      8.1547420200000005      16.364600540000001      8.2564116399999996
   676   1      12.148571110000001             16.59783105      8.2017796399999998
   677   1      16.196709550000001             16.34847572      7.9281993000000002
   678   1      20.331752210000001      16.314193809999999      8.0227725000000003
   679   1             24.23801117             16.45890984      8.0843234800000001
   680   1             28.32625917      16.282852179999999      8.2181645099999994
   681   1      2.0432837199999998             19.86705791      8.1889500399999999
   682   1      6.0477009400000004             19.78468015      8.1027871900000008
   683   1             10.04358934      19.874632739999999      8.1737265499999996
   684   1      14.021405700000001      19.792802999999999      8.2391328999999995
   685   1      18.197441380000001      19.741987290000001      8.2209616099999998
   686   1             22.27686349      19.772144860000001      8.1848389299999997
   687   1      26.303301149999999             19.99351321      8.2579678199999993
   688   1      30.413742160000002      20.019468580000002      8.1964035099999997
   689   1     0.17291591000000001      23.613709589999999      8.0534192200000003
   690   1      4.1840972599999997      23.449886559999999      8.0983713300000009
   691   1      8.1861593799999994      23.352024780000001      8.0260990900000007
   692   1      12.147629309999999      23.355857050000001      8.0435700000000008
   693   1      16.219418149999999      23.414655140000001      8.1103707000000007
   694   1      20.362959440000001      23.274723080000001      8.2366248199999994
   695   1             24.40808393      23.488583460000001      8.0750176800000002
   696   1      28.421976699999998             23.58437292      8.1966693300000006
   697   1      2.1516046200000001      26.905490570000001              8.29588869
   698   1      6.2870201899999998      26.756974190000001      8.1470798000000002
   699   1              10.3253757      26.936649849999998      8.1800174600000002
   700   1             14.18150168      26.863219709999999      8.0303051100000005
   701   1             18.48760502      26.988806480000001      8.2629190099999992
   702   1      22.369010079999999             26.96558915      8.4285849600000002
   703   1             26.53476753             27.03138942      8.2473516799999995
   704   1      30.584727300000001      26.971524500000001      8.0784867400000007
   705   1      32.653089960000003     0.19926213000000001      9.0008702100000004
   706   1              4.41131662    0.024112499999999999      8.8545075099999995
   707   1      8.2277273500000003      28.042354400000001      9.0641569000000004
   708   1             12.49081133    0.088778360000000001      8.9376140599999996
   709   1      16.457456109999999   -0.034970580000000001      8.9017152999999993
   710   1      20.398963720000001     0.20524448000000001      9.0559303999999994
   711   1      24.556820999999999    0.087955149999999996      9.0403181799999999
   712   1      28.686292720000001               0.2126489              8.90910987
   713   1      2.1815056400000001      3.4026591900000001      8.9088465299999999
   714   1      6.2875793599999996              3.45302299      8.9301235800000001
   715   1             10.32400634      3.5526800399999998      9.0655035300000009
   716   1             14.24235345      3.3205490100000001      8.8893794899999996
   717   1             18.36245581      3.6139436200000001      8.9121053099999994
   718   1      22.391183659999999      3.4414954299999998      8.9589612899999995
   719   1      26.394580950000002              3.70514243      8.9320784500000006
   720   1             30.81374267              3.36534523      8.8689500500000005
   721   1      32.423628430000001      6.7020265999999999      8.9311578699999998
   722   1      3.9540420900000002      7.0882669299999996      9.0455141999999995
   723   1      8.1448648699999993      6.9157426800000001      8.9506301300000004
   724   1      12.164613810000001      7.3149757800000001      8.9065257899999999
   725   1             16.27153354      6.8209179200000003      9.0058763600000002
   726   1      20.357641050000002      7.1921975099999997      8.8602510799999994
   727   1             24.52263039      7.1070376599999996      8.8692008199999997
   728   1      28.385002799999999      7.0287559100000001      8.9764176199999994
   729   1              1.93729182             10.63556837      9.0032990700000006
   730   1      6.1720021599999999             10.71415818      8.8605487000000007
   731   1             10.17613029              10.7486792      8.9572577899999999
   732   1             14.34059422             10.66802571      9.0129502400000003
   733   1      18.311377060000002      10.586516960000001      9.0747849299999999
   734   1      22.340214979999999             10.43183821              9.01646109
   735   1      26.332517429999999             10.50090441      9.0017665600000001
   736   1             30.25902353             10.47653996      8.9924074300000001
   737   1              32.4842394      13.972209530000001      8.8313347899999997
   738   1      4.1191902300000001              14.1098827      8.8614834400000007
   739   1      8.1372935799999997      13.995533180000001      8.8700571200000002
   740   1             11.88249544      14.525489350000001      9.0417486100000009
   741   1      16.079732979999999      13.889842870000001      8.9255679099999998
   742   1      20.335214919999999             14.11441791      8.9278951600000003
   743   1             24.16525202      14.085332899999999      8.9505676399999992
   744   1      28.321680480000001              13.9421427      9.0038654900000008
   745   1              1.88973093              17.6444726              9.01514624
   746   1      6.1629309799999996      17.558930799999999      9.0382724999999997
   747   1      10.166915059999999      17.583608819999998      9.0753634900000009
   748   1             14.14617063      17.370892739999999      8.9416055599999993
   749   1      18.203709360000001      17.418730660000001      8.8882536900000009
   750   1      22.240907199999999             17.60163468      8.9264639399999997
   751   1             26.42175928      17.534650039999999      8.8591650600000005
   752   1      30.272247329999999      17.637053269999999      9.0152728599999996
   753   1      32.461138130000002             21.25306659      8.9777187999999999
   754   1      4.0854773499999997      21.183666460000001      8.9012613799999993
   755   1      7.9786073899999996      21.056714639999999      8.8499547300000003
   756   1      11.938750629999999      21.074786329999998      8.7884179499999995
   757   1      16.176822349999998             21.03758818      8.9405117399999998
   758   1             20.34373154      20.933766349999999      8.9888715399999999
   759   1             24.27730137      21.302706560000001      8.9584127900000006
   760   1      28.368193120000001      21.030201829999999      8.9260021300000005
   761   1      2.2476297299999999      24.513737930000001      9.0907204900000007
   762   1      6.1628071100000001             24.46641211      9.0297062100000005
   763   1      9.9305548899999998      24.642219839999999      8.8719902299999998
   764   1      14.348463880000001      24.708007859999999      8.9374387199999994
   765   1      18.109878200000001      24.593348649999999      8.7535708099999994
   766   1      22.443003650000001      24.486863920000001      9.0744320799999993
   767   1      26.430686269999999             24.41226752      8.9361596999999993
   768   1             30.79558978      24.662564750000001      8.9831992100000004
   769   2      29.160998500000002      4.3451355100000004      8.6733036800000001
   770   2             27.72137785      5.1384955300000001      9.0806727800000004
