N2-dn2-coord-10bar/700K/snapshots/frame-127723/run-000/../data.lammps (written by ASE) 

770 	 atoms 
2  atom types
0.0      32.470343392086264  xlo xhi
0.0      28.120142247150884  ylo yhi
0.0      31.213473999158239  zlo zhi


Atoms 

     1   1      2.0293964600000001      1.1716090800000001    0.023552650000000001
     2   1      6.0880008999999999              1.17168918              0.02556874
     3   1      10.146952280000001              1.17170328    0.025416459999999998
     4   1      14.205754900000001      1.1716496700000001              0.02501565
     5   1             18.26456816              1.17166478              0.02504435
     6   1             22.32338141      1.1716496700000001              0.02501565
     7   1      26.382184030000001              1.17170328    0.025416459999999998
     8   1      30.441135410000001              1.17168918              0.02556874
     9   1  9.1780000000000006e-05      4.6866847900000002    0.025581599999999999
    10   1      4.0587011400000002      4.6866847900000002    0.025581599999999999
    11   1      8.1174961000000003      4.6866290399999997    0.025584639999999999
    12   1             12.17638011      4.6866852999999997              0.02491202
    13   1             16.23517979      4.6866942700000003    0.025006210000000001
    14   1      20.293956519999998      4.6866942700000003    0.025006210000000001
    15   1      24.352756209999999      4.6866852999999997              0.02491202
    16   1      28.411640219999999      4.6866290399999997    0.025584639999999999
    17   1      2.0293964600000001      8.2016395800000002    0.026613040000000001
    18   1      6.0881071599999999      8.2016314300000008              0.02543782
    19   1             10.14701835               8.2017045    0.025156850000000001
    20   1      14.205766049999999      8.2017080900000003    0.024990459999999999
    21   1             18.26456816      8.2017077599999997    0.025091249999999999
    22   1      22.323370260000001      8.2017080900000003    0.024990459999999999
    23   1      26.382117969999999               8.2017045    0.025156850000000001
    24   1      30.441029149999999      8.2016314300000008              0.02543782
    25   1  9.2789999999999998e-05             11.71671873    0.025573410000000001
    26   1              4.05870014             11.71671873    0.025573410000000001
    27   1      8.1176017700000003             11.71668698              0.02497914
    28   1             12.17637068             11.71673069    0.025001590000000001
    29   1      16.235177310000001      11.716730249999999    0.025074039999999999
    30   1      20.293959009999998      11.716730249999999    0.025074039999999999
    31   1      24.352765640000001             11.71673069    0.025001590000000001
    32   1      28.411534549999999             11.71668698              0.02497914
    33   1      2.0293964600000001             15.23167155              0.02525285
    34   1      6.0881728300000004      15.231678799999999    0.025062859999999999
    35   1             10.14698486      15.231762639999999               0.0250786
    36   1             14.20578841             15.23176782    0.025201990000000001
    37   1             18.26456816              15.2317707    0.025149979999999999
    38   1      22.323347900000002             15.23176782    0.025201990000000001
    39   1      26.382151459999999      15.231762639999999               0.0250786
    40   1      30.440963480000001      15.231678799999999    0.025062859999999999
    41   1      32.470327990000001      18.746748629999999    0.024951939999999999
    42   1      4.0588083299999997      18.746748629999999    0.024951939999999999
    43   1      8.1175770200000006      18.746803499999999    0.025222040000000001
    44   1             12.17637459      18.746799750000001    0.025428470000000002
    45   1      16.235159400000001      18.746805200000001    0.025487360000000001
    46   1      20.293976919999999      18.746805200000001    0.025487360000000001
    47   1      24.352761730000001      18.746799750000001    0.025428470000000002
    48   1             28.41155929      18.746803499999999    0.025222040000000001
    49   1      2.0293964600000001      22.261939099999999    0.025844880000000001
    50   1      6.0881419299999999      22.261841799999999    0.025489439999999999
    51   1             10.14692954             22.26176895              0.02551757
    52   1             14.20573559      22.261804690000002    0.025639160000000001
    53   1             18.26456816             22.26178625    0.025640119999999999
    54   1      22.323400729999999      22.261804690000002    0.025639160000000001
    55   1      26.382206780000001             22.26176895              0.02551757
    56   1             30.44099439      22.261841799999999    0.025489439999999999
    57   1  5.6450000000000003e-05      25.776936450000001              0.02613327
    58   1      4.0587364700000004      25.776936450000001              0.02613327
    59   1      8.1175325399999991              25.7767713    0.024734180000000001
    60   1      12.176376469999999      25.776831090000002              0.02545323
    61   1      16.235145939999999      25.776775220000001    0.025273360000000002
    62   1             20.29399038      25.776775220000001    0.025273360000000002
    63   1      24.352759840000001      25.776831090000002              0.02545323
    64   1      28.411603769999999              25.7767713    0.024734180000000001
    65   1  0.00024266000000000001              2.34304215     0.80166565000000001
    66   1      4.0585502699999996              2.34304215     0.80166565000000001
    67   1      8.1157394600000003              2.34454954     0.80169402000000001
    68   1             12.17601256      2.3433829099999999     0.80116898000000003
    69   1      16.235258170000002      2.3433209100000001     0.80090046999999998
    70   1      20.293878150000001      2.3433209100000001     0.80090046999999998
    71   1      24.353123750000002      2.3433829099999999     0.80116898000000003
    72   1      28.413396859999999              2.34454954     0.80169402000000001
    73   1      2.0293964600000001      5.8582218700000004     0.80119762000000005
    74   1      6.0870566899999998      5.8583336700000004              0.80194851
    75   1             10.14649655              5.85853131     0.80121584000000001
    76   1             14.20597894      5.8582938599999999     0.80086840999999998
    77   1             18.26456816      5.8583798500000004               0.8010794
    78   1      22.323157380000001      5.8582938599999999     0.80086840999999998
    79   1             26.38263976              5.85853131     0.80121584000000001
    80   1      30.442079629999999      5.8583336700000004              0.80194851
    81   1  0.00019438999999999999      9.3717771800000005     0.80082061000000004
    82   1      4.0585985400000002      9.3717771800000005     0.80082061000000004
    83   1      8.1175070500000004      9.3725002699999997     0.80149060999999999
    84   1      12.176590020000001      9.3733583399999993     0.80088261999999999
    85   1             16.23512199      9.3733789200000004              0.80106506
    86   1             20.29401433      9.3733789200000004              0.80106506
    87   1      24.352546289999999      9.3733583399999993     0.80088261999999999
    88   1      28.411629269999999      9.3725002699999997     0.80149060999999999
    89   1      2.0293964600000001             12.88692854     0.80220621000000003
    90   1      6.0883212999999996             12.88743848     0.80138414999999996
    91   1      10.147128609999999             12.88859852     0.80085256000000005
    92   1             14.20571782      12.888558189999999     0.80113791000000001
    93   1             18.26456816      12.888409899999999     0.80109381000000002
    94   1      22.323418490000002      12.888558189999999     0.80113791000000001
    95   1             26.38200771             12.88859852     0.80085256000000005
    96   1      30.440815019999999             12.88743848     0.80138414999999996
    97   1              0.00012365      16.403222639999999     0.80145666999999998
    98   1      4.0586692700000002      16.403222639999999     0.80145666999999998
    99   1      8.1174337899999998      16.403825260000001     0.80097196999999998
   100   1              12.1761021             16.40390721     0.80133072000000005
   101   1             16.23503496      16.403861750000001     0.80140014999999998
   102   1      20.294101359999999      16.403861750000001     0.80140014999999998
   103   1      24.353034220000001             16.40390721     0.80133072000000005
   104   1      28.411702529999999      16.403825260000001     0.80097196999999998
   105   1      2.0293964600000001      19.919205120000001     0.80066369999999998
   106   1              6.08752564             19.91894023     0.80122479000000002
   107   1      10.146078839999999             19.91919038     0.80159137999999996
   108   1      14.204993419999999              19.9192584     0.80178742000000003
   109   1             18.26456816      19.919377350000001     0.80194975999999996
   110   1      22.324142899999998              19.9192584     0.80178742000000003
   111   1      26.383057470000001             19.91919038     0.80159137999999996
   112   1      30.441610669999999             19.91894023     0.80122479000000002
   113   1              0.00142012      23.434536609999999     0.80178442000000005
   114   1      4.0573728100000004      23.434536609999999     0.80178442000000005
   115   1      8.1165862000000004      23.433936769999999     0.80182306000000003
   116   1             12.17555218      23.433996919999998     0.80156656000000004
   117   1             16.23465491      23.434040110000002     0.80170828999999999
   118   1      20.294481409999999      23.434040110000002     0.80170828999999999
   119   1      24.353584130000002      23.433996919999998     0.80156656000000004
   120   1      28.412550110000002      23.433936769999999     0.80182306000000003
   121   1      2.0293964600000001      26.949875330000001              0.80297246
   122   1      6.0858208300000003      26.950066320000001              0.80215291
   123   1             10.14598146      26.949241430000001     0.80165810000000004
   124   1             14.20520604      26.948673230000001     0.80131923999999999
   125   1             18.26456816             26.94858318     0.80108193999999999
   126   1      22.323930279999999      26.948673230000001     0.80131923999999999
   127   1      26.383154860000001      26.949241430000001     0.80165810000000004
   128   1             30.44331549      26.950066320000001              0.80215291
   129   1      32.454345840000002   0.0042324199999999998      1.3767419599999999
   130   1              3.98692059             -0.03122014      1.4018893100000001
   131   1      7.9702683499999996    0.032902599999999997               1.3561812
   132   1             12.25602295             28.16648335               1.2522373
   133   1      16.206283460000002             28.22956782      1.4790871999999999
   134   1      20.258280630000002             -0.10519587              1.35248765
   135   1      24.383925470000001             -0.11457472              1.34027406
   136   1      28.385145550000001    0.021202660000000002              1.29029824
   137   1      1.9720569400000001      3.5377726200000001      1.6210020300000001
   138   1      6.1104310799999997      3.4167496700000002      1.5036734700000001
   139   1      9.9847698099999995      3.6180878000000001      1.3834884999999999
   140   1             14.27497232      3.4475594799999998      1.5834921900000001
   141   1             18.36090914      3.5754498699999999      1.6232251900000001
   142   1      22.245861940000001      3.4632316099999998              1.57961402
   143   1      26.270722760000002      3.7182886900000001      1.4843932900000001
   144   1             30.35302905      3.3045697600000001      1.5790304399999999
   145   1   -0.085717929999999998      7.0636909000000001              1.65769425
   146   1      4.0987059199999996      7.0287354000000004      1.5094822400000001
   147   1              7.92068057               6.9996421      1.6437672400000001
   148   1      12.147014990000001      6.9801454700000001      1.4351828600000001
   149   1      16.147522420000001      7.0007630000000001      1.4688468699999999
   150   1      20.086633979999998      7.0928056599999998      1.5752310199999999
   151   1             24.32480249              7.09862722      1.5413434500000001
   152   1      28.506144299999999      7.1860879600000001      1.5672949899999999
   153   1      2.0429955999999998      10.564651810000001      1.4962958900000001
   154   1      6.0591880299999996              10.5223023      1.4866688699999999
   155   1             10.08511854      10.548567220000001      1.2172465100000001
   156   1             14.25740667             10.62314447      1.6652896500000001
   157   1             18.38522983      10.583191490000001      1.4253498499999999
   158   1      22.370353139999999      10.491811370000001      1.4476001599999999
   159   1             26.44670339      10.495514139999999              1.42624719
   160   1      30.447945099999998             10.52389651      1.3885762800000001
   161   1  -0.0085580499999999993      13.941241870000001              1.40853121
   162   1      4.0753611300000001             13.97549596      1.5945870499999999
   163   1      8.1454310299999992             13.97512585      1.2756571800000001
   164   1             12.12017837             14.22984454              1.59101468
   165   1      16.312188450000001             14.19588422      1.6067186200000001
   166   1      20.206151259999999               14.006269      1.2010219900000001
   167   1      24.265655989999999             14.10927972      1.4143284300000001
   168   1      28.452126719999999             14.02275332      1.5757167599999999
   169   1      2.0961382300000002      17.638003739999998              1.48954952
   170   1      6.1508432199999996             17.54333591              1.69849378
   171   1      10.048821119999999      17.608137150000001      1.4519044800000001
   172   1              14.2551573      17.583544150000002      1.5978600000000001
   173   1      18.114462339999999      17.596564860000001      1.4114428800000001
   174   1      22.277136330000001             17.47730898               1.4262161
   175   1      26.369091090000001      17.502127380000001      1.4831154900000001
   176   1             30.36241588      17.559013019999998              1.48418348
   177   1   -0.081386440000000004      21.115554549999999      1.4318118900000001
   178   1      4.0082018799999997      21.063445990000002              1.42949024
   179   1      7.9992707599999999      20.972117000000001      1.3684914100000001
   180   1      12.333213280000001      21.206224989999999      1.4745998499999999
   181   1      16.248768909999999             21.15242091      1.5050947100000001
   182   1      20.356812659999999      21.156338040000001      1.4463862700000001
   183   1      24.358072910000001      21.075070820000001              1.60637312
   184   1      28.277161759999998      21.050725539999998              1.53314364
   185   1      2.1450893600000001      24.274315909999999      1.7176144200000001
   186   1      6.1055948899999999      24.531800480000001      1.2699417900000001
   187   1      10.218192760000001      24.637852460000001      1.4887233799999999
   188   1      14.191571100000001      24.439127119999998      1.4565462199999999
   189   1      18.219369230000002      24.569295310000001      1.2461300900000001
   190   1      22.447528810000001              24.6742037      1.5052202400000001
   191   1      26.335708830000002      24.700373240000001      1.3288507199999999
   192   1             30.43428724      24.580727710000001              1.39044718
   193   1      2.1270404599999999              1.29281121              2.43034142
   194   1      6.0468117299999999      1.0798104399999999      2.2722343600000001
   195   1             10.11004735              1.26320641      2.5008089099999999
   196   1             14.18814972              1.23932295      2.3600010899999999
   197   1             18.31280001      1.1031565800000001              2.34663165
   198   1      22.270989270000001              1.09636252      2.4369198999999999
   199   1      26.525799970000001              1.14415439      2.3356685499999998
   200   1      30.432208190000001               1.1279147      2.4133547499999999
   201   1    -0.12783784000000001              4.68194541      2.4471227500000001
   202   1      4.1450830600000002      4.8430153300000001      2.3155864799999999
   203   1      7.9952750699999999      4.6177847200000004      2.4511731700000001
   204   1             12.05303861              4.67730274              2.11075057
   205   1             16.27634595      4.6148420799999998      2.4714013000000001
   206   1             20.21749646      4.6328116799999997      2.4785940399999999
   207   1      24.478040759999999              4.67081853              2.36266204
   208   1      28.505802209999999      4.7629325900000001      2.4646685599999998
   209   1      1.9623260899999999              8.00972273               2.4348703
   210   1      5.8697660999999997      8.2077769800000002      2.4016881300000001
   211   1      9.8930346399999998      8.3833662899999997              2.29701377
   212   1             14.05753513      8.1866062700000004      2.3776839500000002
   213   1      18.243593189999999      8.2670632400000006      2.3477407800000001
   214   1      22.225076380000001      8.1989464600000002      2.3974612400000002
   215   1      26.406418810000002      8.1318824000000003              2.49258012
   216   1             30.47102186      8.1860525299999995              2.38922751
   217   1     0.15920005000000001      11.763878030000001      2.2894266000000001
   218   1      4.1714899799999996             11.73668428      2.5352708900000001
   219   1      7.9884536400000004             11.75445712              2.45865702
   220   1             11.97993333      11.647630270000001      2.3964869499999999
   221   1      16.411438820000001              11.6874582      2.4561121799999999
   222   1             20.39857228      11.505367359999999      2.4099666200000001
   223   1      24.416085670000001      11.695445960000001      2.4455844600000001
   224   1      28.523455169999998      11.724194519999999      2.4994075499999999
   225   1      2.0121541700000001             15.13474517      2.4524124999999999
   226   1      6.2949669999999998      15.267374909999999      2.5392356299999999
   227   1             10.13383451             15.15649193      2.4067146899999998
   228   1              14.3128706             15.10831194              2.47366011
   229   1             18.39214685             15.28685619      2.5445101399999999
   230   1      22.291775810000001             15.18857171      2.5217510299999999
   231   1      26.496667299999999      15.172830279999999      2.3646673800000002
   232   1      30.519244480000001      15.272206260000001      2.5440119299999999
   233   1      32.448954579999999      18.710427119999999      2.4415591399999999
   234   1      3.9097405799999998      18.685933510000002      2.4857700199999999
   235   1      8.0017230500000007      18.619880510000002      2.4663481100000002
   236   1             12.30635464      18.827865840000001              2.36831879
   237   1      16.136834749999998      18.759583689999999      2.4622583599999999
   238   1      20.320482999999999             18.88609134              2.49777549
   239   1      24.279320080000002      18.602884599999999      2.4799621799999998
   240   1      28.454966989999999      18.911109069999998      2.4249134799999998
   241   1      1.9891676300000001      22.040690510000001      2.2864423299999999
   242   1      5.9538192600000004             22.14424537      2.5092957199999999
   243   1             10.17644097      22.283903890000001      2.5807151899999998
   244   1             14.25007403      22.097820370000001      2.4928578400000001
   245   1      18.418878070000002      22.315949629999999      2.3536646399999999
   246   1      22.309177999999999      22.284493909999998      2.3281391199999999
   247   1      26.354385329999999      22.361462660000001              2.52607252
   248   1      30.335543000000001             22.31184871              2.36111286
   249   1      32.588129559999999      25.653288849999999              2.30036861
   250   1              4.02606062      25.870668970000001      2.3269367999999999
   251   1      8.2085879800000008      25.588173189999999              2.50561582
   252   1      12.018436769999999             25.88965812      2.4311475699999998
   253   1      15.999995159999999              25.8145168      2.3435958399999999
   254   1             20.27881799      25.552331179999999      2.4760638500000001
   255   1      24.368485379999999      25.631215569999998      2.4429579100000001
   256   1             28.45721657      25.753194260000001      2.3237778499999999
   257   1   -0.092727970000000007      2.3511355599999999      3.2654606500000001
   258   1      4.1007212700000002      2.5740702500000001              3.36309535
   259   1      8.0063297299999991      2.4339733300000002      3.3348438800000002
   260   1      12.085882489999999              2.28980161      3.1971668599999998
   261   1      16.273700680000001      2.4184982399999999      3.2517849299999999
   262   1      20.243535990000002              2.27156044              3.43782634
   263   1             24.27100605      2.4064348999999998      3.1146496199999998
   264   1             28.42823593      2.5272388800000001      3.2892377900000001
   265   1              2.05320042      5.7841558199999996      3.2943910700000001
   266   1      6.1517348800000002      5.8639818100000003      3.2408157599999998
   267   1             10.07664651      5.9943299000000003      3.2598000300000001
   268   1             14.07109896              5.63773795              3.30158357
   269   1             18.18827314      5.9552268799999997              3.09878236
   270   1      22.475423419999998      5.7671242600000001      3.1141851200000001
   271   1      26.397666730000001      5.9254015400000002      3.2276274200000001
   272   1      30.453373790000001      5.9764416200000001              3.44795417
   273   1   -0.064610169999999995      9.3584878699999994      3.1222278800000001
   274   1              3.84730119      9.4818720699999997      3.5247217399999999
   275   1      7.8860378500000001      9.3036622599999994      3.3595994400000002
   276   1             12.05394325      9.1230437700000007      3.2562500000000001
   277   1      16.219565339999999      9.2480512899999994      3.0388305199999999
   278   1      20.329909069999999      9.3701581800000007      3.2250117600000001
   279   1             24.39949438      9.3012911799999998      3.2756706900000001
   280   1             28.56535736      9.4883501599999995              3.16797738
   281   1      2.1008733500000001      12.685775189999999      3.2985594100000002
   282   1      6.0954477100000002             13.04413463      3.2877111800000001
   283   1      10.081790209999999      12.902898759999999      3.2450886200000002
   284   1             14.23452093      12.880813789999999      3.2741523300000002
   285   1             18.44118112      12.867820549999999      3.3476417399999998
   286   1             22.28777419      12.833558549999999      3.2099104399999998
   287   1      26.517886579999999              12.9797055      3.3807646899999999
   288   1      30.544499630000001             12.82596326      3.3256019700000001
   289   1      32.621266910000003      16.462677330000002      3.2586435599999999
   290   1      4.1847056599999997      16.276169750000001      3.3548857999999999
   291   1      8.3178226899999999      16.430923199999999      3.3034643199999998
   292   1      12.150000329999999      16.420327409999999      3.1640507699999998
   293   1      16.505929699999999             16.42188148      3.3412319199999998
   294   1      20.463543430000001      16.621424380000001      3.2355643700000001
   295   1             24.34120003      16.451455719999998              3.24022977
   296   1      28.374327409999999      16.477524599999999      3.1758547500000001
   297   1      2.0689676000000001             19.86429128      3.2886589900000001
   298   1      6.1638983700000001             19.74436296      3.2118435000000001
   299   1      10.100389420000001             19.84516485              3.33198376
   300   1             14.22994997      19.865915529999999      3.4637224199999999
   301   1      18.342538650000002      19.934102960000001              3.21807804
   302   1      22.255832989999998      20.052919410000001      3.2765531499999998
   303   1      26.404634519999998      19.860740289999999      3.3484421000000002
   304   1             30.54894869             19.97247758              3.40351033
   305   1    0.094292000000000001      23.367200279999999              3.37475346
   306   1      4.0471709300000001      23.176489459999999      3.3418564700000002
   307   1      8.1927087899999993      23.396318969999999      3.1976752199999998
   308   1             12.30218524             23.51702293      3.2161235000000001
   309   1             16.32099539      23.484699379999999      3.2948875200000001
   310   1      20.227566150000001      23.395703569999998      3.2800661099999999
   311   1      24.286826009999999      23.263463460000001      3.1261530199999998
   312   1      28.341986890000001      23.425068670000002      3.3011372400000001
   313   1              2.03948047      27.001130230000001      3.2081504299999999
   314   1      6.1384938699999996             27.03503796              3.33079978
   315   1      9.9302520199999993      26.844237759999999      3.4676831199999998
   316   1              14.0022742      26.989686970000001              3.18404548
   317   1      18.208483439999998      26.814179469999999      3.1877091100000001
   318   1      22.418273580000001      26.790550419999999               3.2772942
   319   1      26.363214630000002      26.902804490000001      3.1810034699999998
   320   1      30.399226609999999             26.89709276      3.2669118799999999
   321   1   -0.024084870000000001              0.02658249      4.1706745300000003
   322   1               4.1489094             -0.04029812      4.0027980100000002
   323   1      8.0649233900000006      28.219293950000001      4.0736307199999997
   324   1      12.130626960000001    0.068715979999999996      3.9194352100000001
   325   1      16.187571040000002      28.060429360000001              3.98396777
   326   1      20.343560780000001             -0.10906964      4.0018224199999999
   327   1             24.34478575      28.018406590000001      4.0746170700000004
   328   1      28.269820729999999 -0.00036430000000000002      4.0694696600000002
   329   1              1.91493713      3.7153062700000001      4.2919814900000004
   330   1      6.0938420600000001      3.4974120000000002      4.2059200700000003
   331   1              10.2213514              3.51456692      4.0984307800000002
   332   1      14.153577070000001      3.4917338299999998      4.0805055100000001
   333   1      18.386703579999999      3.4244140700000001      4.1341975900000003
   334   1      22.422904249999998      3.5382430399999998      4.1650232799999998
   335   1             26.43923135      3.6077134200000001      4.1589342399999998
   336   1             30.51511854              3.66022677              4.10682671
   337   1      32.548590660000002      7.1223791900000002      4.0713381499999999
   338   1      4.1585789799999997      7.2044468799999999      4.1127310699999997
   339   1      7.8509609200000003      6.9817817700000004      4.1869916500000004
   340   1      12.074946779999999      6.8206567400000004              3.99544758
   341   1      16.162480410000001      6.9460843099999998      3.9364796900000001
   342   1             20.30154821      6.9421605399999997      4.0327890599999998
   343   1      24.294000910000001      6.9855959199999997      4.2132142899999998
   344   1      28.445222940000001      7.2267689400000004      4.0865218399999996
   345   1      1.9738889799999999             10.47726776      4.0448548500000001
   346   1      6.0290635300000002               10.695098      4.2050936200000004
   347   1      9.9953399100000002              10.6031341      3.8880243299999999
   348   1             14.43469606             10.29724463      3.9707033799999998
   349   1      18.299052580000001      10.525887089999999              3.92416184
   350   1      22.451144960000001      10.678126779999999      4.0858201899999997
   351   1             26.62042645             10.49316702      3.8627157300000001
   352   1      30.493203990000001      10.646556820000001      3.9958132100000001
   353   1    0.030270910000000002             14.01448205      4.1205742399999998
   354   1      4.0031678499999996             14.00229154      4.1285914100000003
   355   1      8.1224089300000006      14.066045320000001      3.9578272499999998
   356   1      12.096050849999999             14.02490678      4.0996413799999996
   357   1      16.487227140000002             13.90547522              4.08785256
   358   1             20.23333736      14.330522609999999      4.0880664500000004
   359   1      24.338415080000001             14.02400394              3.95425863
   360   1      28.599502040000001      14.049002059999999              4.05044366
   361   1      2.0725189099999999      17.565638140000001      4.1004691900000001
   362   1      6.1694428300000004      17.426408049999999      4.0921942099999997
   363   1      10.196139390000001      17.540815519999999              4.19147713
   364   1             14.39688761      17.285477539999999              3.85506679
   365   1      18.401260090000001      17.634478300000001      3.9582154799999998
   366   1      22.519958290000002             17.57717018      4.1443372299999996
   367   1      26.309531079999999             17.48842286      4.2791732099999997
   368   1             30.48108122             17.44345964      4.0697576299999998
   369   1             32.72297871      20.998837380000001      4.0770285700000004
   370   1              4.14007419      20.876175709999998      4.1476509200000002
   371   1              8.19209897      21.003913959999998      4.3135476400000003
   372   1      12.354798089999999             20.97977624              3.93268694
   373   1      16.279348760000001      21.114644699999999      4.1633666299999996
   374   1             20.44963903      21.177646880000001      4.0179237399999996
   375   1      24.366857020000001      20.978460900000002      4.2388862500000002
   376   1      28.570928739999999      21.208444740000001      4.1052403699999997
   377   1      2.0582454100000001      24.565158109999999      4.1078520100000002
   378   1      6.1326477700000002              24.5154748      3.9110614300000002
   379   1      10.173266119999999      24.493478209999999      4.1141554899999999
   380   1             14.17975163      24.516484930000001      4.1937175800000004
   381   1             18.36032458      24.598263150000001      4.1369757099999998
   382   1      22.483359969999999      24.629124189999999               4.1859804
   383   1      26.345944679999999      24.376287520000002      3.9310078100000001
   384   1             30.43335149             24.49836955      4.0921595999999996
   385   1               2.1506683      1.1076085200000001      4.7146019199999998
   386   1      6.1304844300000001              1.08065272      5.0112093399999997
   387   1      9.9900145299999998              1.14954683      5.0898066799999997
   388   1             14.29209288      1.0749992500000001      4.8472525700000002
   389   1             18.33183202      1.1751174499999999      5.0486288400000001
   390   1      22.376029750000001              1.04264508      4.7623554300000004
   391   1      26.371031349999999      1.2553390200000001              4.80196691
   392   1             30.37575661      1.3697228400000001              4.89664652
   393   1      32.494435780000003      4.7312270600000002      5.0278214700000001
   394   1      4.1248131900000002      4.6887018400000002      4.9596157500000002
   395   1      8.1628810400000003      4.7192012600000002      4.9738924400000002
   396   1             12.16424376      4.6076767299999997      4.9421997600000003
   397   1      16.194201150000001      4.6475693500000004      4.8214210199999998
   398   1      20.313953949999998      4.6927120499999999      4.8480255999999997
   399   1      24.563278350000001      4.7016306999999999      4.9006105800000004
   400   1      28.402093950000001      4.7715796299999997      4.9797560299999999
   401   1      2.2086848899999998      8.1630040000000008      5.0198332600000004
   402   1      6.1022061499999998      8.2733593400000007              5.14916062
   403   1      10.031512879999999      8.1877583600000001      4.8995151000000003
   404   1      14.240874379999999      8.0969852400000004      4.8198759000000004
   405   1      18.366800940000001      8.1370147199999998              4.67298159
   406   1             22.31453746      8.2275618599999998      4.7139229299999998
   407   1      26.258938709999999      8.2116644999999995      5.0275773800000003
   408   1      30.479991259999998      8.3850995600000005      5.0028362900000003
   409   1              0.02857316      11.672552619999999      4.7649674900000001
   410   1      3.9144323299999999      11.667533280000001      5.0228987800000002
   411   1              8.07634835      11.641613680000001      4.9520263199999999
   412   1      12.134991469999999      11.701353750000001      4.9390418199999999
   413   1      16.308714739999999             11.68481147              5.04248048
   414   1      20.458861410000001      11.701909240000001      4.8791167700000004
   415   1             24.46755254             11.68041259      4.9519813299999997
   416   1      28.437593939999999      11.684648599999999      5.1578483999999998
   417   1      2.0769125399999999             15.13399313      4.9139922199999999
   418   1      6.1071989999999996             15.12137699              5.00986083
   419   1      10.083796339999999             15.20779149      4.8534122599999998
   420   1             14.41560614             15.27222357      4.8526933100000003
   421   1      18.383760880000001             15.42773392      4.8742087600000001
   422   1      22.364064110000001      15.329771729999999      4.9858249499999996
   423   1             26.52072304             15.20312116      4.8953659299999996
   424   1      30.594225309999999      15.176780150000001      5.1367451900000001
   425   1   -0.033667420000000003             18.81942883      4.8901188199999996
   426   1      4.1750061000000001      18.518568040000002      4.9962547099999997
   427   1      8.1024108899999998      18.795521709999999              5.13645833
   428   1      12.311438219999999      18.589080190000001      4.7731185500000004
   429   1      16.345036449999998             18.61567715      4.9274302900000002
   430   1      20.269703839999998      18.867653579999999      5.0777054399999999
   431   1      24.368895989999999             18.86262009      4.8516617000000002
   432   1      28.470027590000001      18.698679779999999              4.88409972
   433   1      2.1369659300000001             22.19747452              4.93622929
   434   1      6.1098068300000001      22.143991750000001      5.0323146799999998
   435   1              10.4194434      22.139519010000001      4.8783529000000003
   436   1             14.31209007      22.170825749999999      5.0670115600000001
   437   1      18.535499309999999      22.247929280000001      4.6974866100000003
   438   1      22.457807729999999      22.237412930000001      4.9391216399999998
   439   1             26.39334152      22.167911459999999      5.1006659599999997
   440   1      30.468436369999999      22.349111270000002      5.0767005799999998
   441   1  -0.0099930399999999999             25.71469673      5.0196164899999998
   442   1      4.2824340400000001             25.75728131      4.9319598300000003
   443   1      8.0381356499999992      25.655381160000001      4.9726457000000002
   444   1      12.229966640000001      25.844783209999999      5.0264601000000004
   445   1      16.194422079999999             25.64618604      4.8734287099999998
   446   1      20.414327799999999      25.810505890000002               4.9504028
   447   1      24.386173790000001             25.74587747      5.0686249999999999
   448   1      28.372791790000001      25.857131389999999      4.8852115100000004
   449   1             32.49729962      2.3450833800000002      5.7139971000000003
   450   1      3.9609721200000001               2.4716893      5.7252328600000002
   451   1      8.0740879099999994      2.2558548300000001      5.8752311600000002
   452   1      11.986518869999999      2.4197644299999999      5.7958597999999997
   453   1      16.248164979999999      2.5604350199999999      5.9834703600000001
   454   1      20.414886920000001      2.3726530399999999      5.7370864700000004
   455   1             24.48272171      2.2135119099999998      5.7475684600000001
   456   1             28.29410343      2.4038838999999999      5.7627821900000002
   457   1      2.3592739900000002      5.8757042200000003      5.8661067300000003
   458   1              6.21917557      5.9134099100000004              6.03205218
   459   1             10.27982886      5.7999066900000003      5.6070210400000002
   460   1      14.053499889999999              5.80110349      5.6272473300000003
   461   1      18.080159649999999      5.8095714599999999      5.6690478100000004
   462   1             22.36166115      5.8655643099999999      5.7251037599999997
   463   1      26.218483330000002      5.9481233099999997      5.8572575599999999
   464   1      30.266914450000002      5.7674081599999996      5.9731715599999999
   465   1     0.14322391000000001      9.4788439800000006      5.7395370400000001
   466   1      4.0293331500000003      9.4519846100000002      5.8792643399999998
   467   1      8.1525407399999992      9.4543295700000005      5.9684641100000002
   468   1              12.1377477      9.4504446899999994              5.84991722
   469   1      16.505397519999999      9.2970310000000005      5.7270130899999998
   470   1      20.248537859999999      9.2699516000000006      5.8206514900000004
   471   1             24.29674966      9.3317296499999998      5.8124427799999996
   472   1      28.282191099999999      9.3809662800000009              5.53048099
   473   1      2.0163305999999999      12.723954450000001      5.8242457099999996
   474   1      5.9233436099999999      12.689818900000001      5.7693416400000004
   475   1      10.116720819999999             12.97072393      5.6884823000000004
   476   1      14.338999490000001             13.03959204      5.8710088100000002
   477   1      18.457424490000001             13.11374547      5.8142337299999998
   478   1             22.53084995      12.951636069999999              5.70989126
   479   1      26.404624399999999             12.78465128      5.8494207400000002
   480   1      30.482879310000001             12.92526097      5.8858418199999996
   481   1      32.596341719999998             16.42036212      5.8058340599999996
   482   1      3.9057413799999998      16.348126529999998      5.7454232699999999
   483   1      8.1190001400000007      16.288873840000001      5.8514866899999998
   484   1      12.360090769999999      16.340789310000002      5.6344146899999998
   485   1      16.360872759999999             16.33254209      5.7529624100000003
   486   1      20.408000340000001      16.518902690000001      5.8429015199999998
   487   1      24.392783680000001             16.32760983      5.7746032500000002
   488   1      28.366317299999999      16.314795530000001      5.6879087100000003
   489   1      2.1833865100000001      19.820022689999998      5.6896340800000003
   490   1      6.0223776999999998      19.829148589999999      5.7515413300000002
   491   1      10.282717229999999             19.93121146      5.7661727999999997
   492   1             14.33338318             19.81048667      5.9565670500000003
   493   1      18.202182090000001             19.76443875      5.7852181299999996
   494   1      22.319137649999998      19.723498339999999      5.8638035799999999
   495   1               26.565462              19.7880763      6.2435584999999998
   496   1      30.561787949999999      20.111770979999999      5.8161052399999997
   497   1    0.080514489999999994      23.536020189999999      5.7850610400000004
   498   1      4.0906361100000002      23.433178290000001      5.8314453799999999
   499   1      8.3406617799999996      23.276243529999999      5.6482557299999998
   500   1             12.21412922      23.508728179999999      5.9226462199999999
   501   1      16.339111849999998             23.29516134      5.8562510200000002
   502   1      20.352450449999999             23.60288207      5.8898937800000004
   503   1      24.356907530000001      23.288809910000001      5.9378927299999997
   504   1             28.34303611      23.655075539999999      5.7430114899999998
   505   1              2.02771817             26.77506773      5.6038507299999996
   506   1      6.0241061399999998             26.72634678      5.9365081499999999
   507   1      10.096129919999999      27.023156820000001      5.9186115199999998
   508   1              14.3045676      26.850906089999999      5.6957560200000001
   509   1      18.156437029999999      26.926189149999999      5.7787583500000004
   510   1      22.402386310000001      26.882800570000001      5.7717470200000003
   511   1             26.33077381      26.994878069999999      5.7681081399999998
   512   1      30.454488520000002      27.179350929999998      5.7366150500000002
   513   1      32.594419250000001             28.31539149      6.5451353000000001
   514   1              4.01504174      28.162371619999998      6.4638461999999999
   515   1      8.0060450500000009      28.165792199999999      6.8060236300000003
   516   1      12.090619630000001              0.01729091      6.7499855200000001
   517   1      16.336272439999998      28.325179380000002      6.5235779799999998
   518   1             20.22066186   -0.066076369999999995      6.4580604299999997
   519   1      24.241920870000001      28.214900310000001      6.6543453100000001
   520   1      28.251992009999999      28.306747489999999      6.5806327500000004
   521   1      1.9269182499999999      3.5135880500000001      6.7476159400000002
   522   1      6.0263796599999999      3.5105439700000001      6.5855008399999999
   523   1      10.020359880000001      3.5032359500000001      6.8265389599999997
   524   1             14.05669024      3.4219509499999998      6.5029336999999998
   525   1      18.462355779999999      3.5452972300000001      6.6510765999999997
   526   1      22.513165229999998      3.6208315400000002      6.5450297500000003
   527   1             26.51167658      3.5667854600000002      6.6389223900000003
   528   1      30.411124709999999      3.4002292199999999      6.5835543100000002
   529   1              0.15521109      7.0401959300000003      6.3747934600000002
   530   1      4.2204307700000001      7.1582492799999997      6.6691238200000003
   531   1      8.3175483999999997      7.0057395400000004      6.7683238499999998
   532   1      12.227268240000001      7.1632310500000003      6.7089980000000002
   533   1             16.18270527              7.02823683      6.3401444600000003
   534   1      20.259208600000001      7.0212043499999996      6.5076288699999996
   535   1      24.247449530000001      7.0323824300000002      6.7383249699999999
   536   1      28.372288489999999      7.1234805300000001      6.5931071299999999
   537   1      2.0244892000000001      10.565042569999999      6.5997341599999997
   538   1      6.1144192000000004      10.637877059999999      6.8869339500000004
   539   1             10.28831561             10.56539332      6.8763891599999996
   540   1             14.25791823             10.42199514      6.4912415699999997
   541   1      18.228392729999999             10.66480602      6.6919411000000002
   542   1             22.39761386             10.47517515      6.5408294099999997
   543   1      26.474288600000001             10.55570631              6.63633088
   544   1      30.539499070000002      10.664580239999999      6.6787420800000001
   545   1      32.596647349999998              14.0892287      6.5921039199999996
   546   1      3.9244089099999999      13.954994559999999              6.54439496
   547   1      8.0984352400000006      13.976788429999999      6.5949864399999996
   548   1      12.150730100000001      14.250283189999999      6.5672988999999999
   549   1      16.349745909999999             13.94942859      6.7759626099999997
   550   1      20.557685599999999      14.189587100000001      6.5261914900000004
   551   1             24.52859226             14.18714795      6.5042276299999999
   552   1      28.508823469999999             13.96698046      6.7755759800000002
   553   1      2.1342941500000001      17.568397310000002      6.5601473500000003
   554   1              6.25661706             17.51314726      6.5952721700000003
   555   1             10.28584736      17.689439010000001      6.5950703099999997
   556   1      14.360425559999999      17.393206169999999      6.4807918600000001
   557   1      18.349858510000001      17.594014250000001      6.5249064199999998
   558   1      22.526081300000001             17.59904165      6.6877746399999998
   559   1      26.455545310000002      17.388446269999999      6.6045326900000001
   560   1      30.633982710000002      17.284873210000001      6.5897917100000001
   561   1   0.0076558700000000004             21.09424795      6.5204085000000003
   562   1      4.0538464200000002      21.152522260000001              6.71281032
   563   1      8.2673236699999997      21.061208400000002      6.8234000799999999
   564   1      12.453341010000001      21.229936729999999      6.6877219400000003
   565   1      16.481964690000002      21.051971129999998      6.8158830699999999
   566   1      20.420387949999999             21.10495899      6.5526029799999996
   567   1             24.24774523      20.937979330000001      6.6881489900000002
   568   1      28.520760299999999      21.269207260000002      6.5476891500000001
   569   1      2.2723182899999999      24.506107490000002      6.8568649600000002
   570   1      6.3028677200000001             24.56091206      6.6958994299999999
   571   1      10.175565710000001      24.829926990000001      6.5915088700000002
   572   1              14.3018845              24.5894184      6.7765774299999997
   573   1      18.519934930000002      24.648729249999999      7.0124889599999998
   574   1      22.288522180000001      24.541825299999999      6.7176125999999998
   575   1      26.335752379999999             24.78547764      6.4282196899999997
   576   1             30.41666695      24.524241369999999      6.5076281500000004
   577   1      2.2013440399999999              1.07302188      7.2322537100000002
   578   1      5.9540805399999996      1.1927307700000001              7.45748093
   579   1      10.017901930000001      1.1928627700000001      7.7735672100000004
   580   1             14.25717079     0.94965162000000003      7.7530620299999997
   581   1             18.23464225              1.26121729      7.7037892599999998
   582   1      22.349103750000001      1.2858898999999999      7.4061526200000003
   583   1      26.251781739999998      1.1080143099999999      7.5533311999999997
   584   1      30.519909680000001              1.20044029      7.4048291099999997
   585   1      32.333841450000001      4.7293426500000004      7.5783336200000004
   586   1      4.2696872700000004      4.7022094900000004      7.5519928099999998
   587   1      7.9102258699999997      4.6328887200000004      7.6831928300000003
   588   1      9.8628996299999994      3.4970780700000001      9.1927573799999998
   589   1      16.302591339999999              4.71509847              7.43666421
   590   1      20.526771279999998              4.60047856      7.3475207300000003
   591   1      24.483066279999999      4.8356418100000003      7.7933675400000002
   592   1              28.4592083      4.7312372800000002      7.6287043800000003
   593   1              2.16079344      8.0256564600000004      7.6730188000000004
   594   1      6.4366676900000002      8.3801738300000004      7.5489923499999998
   595   1             10.24916528      8.0341883200000002      7.3721198299999999
   596   1      14.431209730000001      8.2298472100000009      7.7060069200000001
   597   1      18.296274350000001      8.0487023200000003      7.2861648499999996
   598   1      22.135716370000001      8.1453401900000006      7.5578712699999997
   599   1             26.02537976      8.4617192899999996      7.4576416700000001
   600   1      30.673242370000001      8.2312161699999997      7.4541924499999999
   601   1   0.0088000700000000001             11.72510621      7.4483936100000001
   602   1      3.9496842600000002      11.628056880000001      7.4863007699999997
   603   1      8.1010510700000005             11.75757735      7.5329627700000001
   604   1             12.28442031      11.840996199999999              7.47232685
   605   1      19.926711279999999      9.4526810599999997      8.1513747300000006
   606   1             20.34273099      11.625594250000001      7.3030320299999998
   607   1             24.34709222      11.628980029999999      7.4305814200000002
   608   1             24.11914573      9.4138837399999993      8.3946233100000001
   609   1      2.1099357799999998      15.045028609999999      7.5213134999999998
   610   1      6.0610679999999997      15.292503699999999      7.3359714900000004
   611   1             12.01437336      16.233924819999999      8.0382676499999999
   612   1      14.074271850000001             15.27897565      7.4392530700000004
   613   1      18.447309189999999             15.29654889      7.5867687000000004
   614   1             22.67540936      15.298370480000001      7.6130690799999998
   615   1             26.56004823             15.16380623      7.3591248800000004
   616   1      30.615779570000001             15.11799564      7.7095892900000003
   617   1     0.14288403999999999             18.84349387      7.4418355500000004
   618   1              4.16315291             18.68909644      7.4276684199999998
   619   1      8.3455764800000001      18.681907079999998      7.5115981700000001
   620   1      12.334383470000001      18.880843809999998      7.4178830400000004
   621   1      16.285683120000002      18.557764989999999      7.4626641100000004
   622   1      20.546923100000001      18.684669450000001      7.9251680499999999
   623   1      24.512824200000001             18.75655162      7.4170079199999996
   624   1      28.731956820000001      18.502622129999999              7.28112314
   625   1      2.0918848900000002      22.092839470000001              7.53399705
   626   1      6.1289768599999999      22.259544689999998              7.81217308
   627   1      12.351757340000001             21.41988692      9.0960275300000006
   628   1             14.61564737      22.309402800000001      7.7474278400000003
   629   1             18.45457463      22.180836060000001      7.4848676699999999
   630   1             22.34136784      22.181479679999999      7.7140783800000001
   631   1             26.45634256             22.22252529      7.5031281099999996
   632   1      30.622820950000001      22.213244339999999              7.73356507
   633   1      32.524665159999998             25.70640513              7.55851147
   634   1      4.3561055299999998      25.687166009999999      7.4033323199999996
   635   1      8.1746655399999995      25.933413439999999      7.4719987000000003
   636   1             12.14752646      25.918340659999998      7.6094060600000004
   637   1              16.3008016             25.88238436      7.2048459300000003
   638   1      20.369288050000002             25.93007029      7.5740756300000003
   639   1             24.38706664      25.585515950000001      7.6053758299999998
   640   1      28.283743210000001      25.944668119999999      7.6717822299999998
   641   1      4.1476843299999997      6.9107797399999997      9.0556070799999997
   642   1     0.38622472000000002      2.4017470300000001      8.1359576400000009
   643   1      6.0589746699999996      8.5384717999999999      9.9794076199999999
   644   1             12.35623481    0.083504599999999998      9.1658596600000006
   645   1      10.516073090000001      22.546891349999999      7.3517413300000003
   646   1      24.296724569999999      28.262422010000002      9.1596673099999997
   647   1      22.340181829999999      5.9544556899999996      8.6840099500000001
   648   1      6.2677274000000001      26.996856900000001      8.5879819699999995
   649   1      4.1130073300000003      16.414426290000002      8.2099347300000005
   650   1      4.2112620200000004      23.601469470000001      8.3202069200000004
   651   1             18.17501425      26.744607609999999      8.3636511599999999
   652   1      18.474890240000001      5.6786429199999997      7.9278095100000003
   653   1      22.499266810000002             12.99102345      8.1673117099999999
   654   1      3.9871393500000001             28.15771968      8.8262939899999999
   655   1      22.444340140000001      26.858135489999999      8.4121433400000001
   656   1      2.2586376600000002             26.77897488              7.99015465
   657   1      12.235186580000001      9.2830383600000008      8.3473901999999995
   658   1             14.12394756             17.59906153      8.8568388599999999
   659   1      1.8549414500000001             10.42460861      9.1246218100000007
   660   1      16.520495459999999      7.1226270500000002      8.7897771099999993
   661   1      26.233101909999998      26.955331659999999      8.3362531299999993
   662   1      28.325192430000001      2.0970174799999999      8.3388235099999992
   663   1             20.16122627             28.20679706      8.9925642099999994
   664   1      2.0821682500000001      12.760515379999999      8.3744914700000006
   665   1                10.16536      12.206163159999999      8.6069432399999997
   666   1      14.227416529999999      19.984566269999998      8.4939521899999999
   667   1              6.11324369      17.630014920000001      8.9836929800000007
   668   1      16.074078159999999             11.63672712      7.5212386799999997
   669   1      3.7263398400000001      14.244719310000001      9.2748197300000008
   670   1             30.53834646             10.22009617      8.9821083099999992
   671   1      4.6291029699999999      11.861433809999999      9.8188088800000006
   672   1              2.25353271              19.8506219      8.4829951900000005
   673   1              0.16670509      23.344335109999999      8.3625859400000007
   674   1      4.0838669000000003      18.846255769999999      9.6875641800000007
   675   1      24.767216489999999             16.50443044      8.2990314000000005
   676   1      10.808703209999999      24.771166480000002      8.9711063299999996
   677   1      22.291743369999999      8.2057730699999993             10.10132482
   678   1      22.619363889999999      19.902733130000001      8.4835181199999994
   679   1      26.839938029999999      6.5134559699999999      8.3288731200000008
   680   1      28.579058289999999             11.66131504      7.7023408399999997
   681   1                0.193189      6.8921820800000004      8.6827774699999996
   682   1      10.091283450000001             15.20393808      7.2721247699999996
   683   1      8.4710287700000002      23.431633260000002      8.3769656399999999
   684   1             14.27133691      13.115361780000001      8.3593977800000001
   685   1             22.34374248      17.596031140000001      9.0528870700000006
   686   1      20.572556209999998             14.08478315      8.8317855699999992
   687   1             16.44695741      13.887441750000001      9.2486249100000002
   688   1      24.899223200000002             14.30080611      9.0183553399999994
   689   1      20.364194489999999      21.226655579999999      8.9724678200000003
   690   1      32.651343709999999             16.60701134      8.1933911699999999
   691   1      28.605125959999999              9.10487264      8.1207887999999997
   692   1              16.2493345    0.019385690000000001      9.0048303000000001
   693   1             18.31447202      12.860272399999999      8.2229532899999995
   694   1      22.021679890000001      10.810435869999999      8.9855892700000002
   695   1      25.367132470000001      20.676673739999998      8.8539691000000005
   696   1              2.09873172      17.465728160000001      8.8773656299999999
   697   1      8.3207126000000002      7.1501702700000003      9.3149536899999994
   698   1      16.690841370000001      23.335645920000001      8.2523795900000003
   699   1      20.369615150000001              2.45059972      8.3858505999999995
   700   1      16.004228789999999      2.7731357399999998              8.57518286
   701   1      12.200278340000001      2.3395277000000001      8.4585894699999997
   702   1      26.880880059999999      18.493767720000001      8.8425819099999998
   703   1             20.22777052      4.6865784699999997      9.7836714300000001
   704   1      28.087687880000001      20.824665159999999      8.9173170299999995
   705   1      2.1454979500000002      5.4118592699999999      8.4046839000000002
   706   1      3.7556816400000002              2.40874867      8.2598153399999994
   707   1      14.327904609999999      26.613993700000002      8.6103849700000001
   708   1      18.395965960000002      17.582328990000001      9.0330968699999996
   709   1      22.426928740000001      3.3840384499999998      9.0125700700000007
   710   1      18.351050449999999      19.822890279999999      8.4120175899999996
   711   1      30.221494310000001      5.9581197499999998      8.5357939199999997
   712   1              0.15979066      21.088285800000001      9.1607681400000001
   713   1             28.42441444              27.9481526      9.1855262599999996
   714   1      3.9789329100000002      21.318023780000001      9.1907364699999992
   715   1              0.21985114              0.03976594      8.8725292699999994
   716   1      12.584723479999999      23.533474959999999      8.2127733999999997
   717   1      26.281365099999999      24.406900459999999      8.9285274399999999
   718   1      30.573046779999999      12.866282480000001      8.4392153600000004
   719   1    -0.19808471999999999      11.769153279999999      9.7810214900000005
   720   1      30.369026139999999              3.42759641      9.0607047499999993
   721   1      4.1543387300000001      9.2800603400000004      8.5209400199999994
   722   1      8.0956923500000002      20.889116619999999      9.0328256400000004
   723   1      8.5113977300000005              9.54059247      8.4441250500000002
   724   1      6.5139322499999999             10.64219698      9.4968964699999994
   725   1             14.22658019      5.6615222200000002      8.1883890099999999
   726   1             14.29275062      10.659278090000001      8.8902063699999996
   727   1      16.125949219999999      18.912231040000002      9.8116640200000003
   728   1             26.49610217      12.673302120000001              8.44554166
   729   1      8.3967168900000004      13.891269810000001      8.8136223699999992
   730   1             12.27116537      4.6591625900000002      7.4693277599999996
   731   1             12.13978945      6.8011330599999997      9.0495289000000003
   732   1      16.592165080000001      9.4319227399999992      8.0322330199999996
   733   1              16.1279392             16.20826405               8.1989535
   734   1      30.473380389999999      24.401270090000001      9.0801727700000008
   735   1             24.52590489              2.45342956      8.1919821000000006
   736   1      8.1315609000000002      16.193890750000001      8.1945730399999999
   737   1             30.33644082      19.889526419999999      8.3863005899999994
   738   1      32.650000220000003      9.3440294000000002      8.1811708999999997
   739   1              12.0800138      13.825056119999999      9.1121097100000004
   740   1      24.438043050000001               6.8878835      9.2205924400000008
   741   1      24.330723299999999             11.41947832      9.7578372400000006
   742   1      26.498975160000001      3.7101176800000002      9.0380992199999994
   743   1             20.19747564      7.2163831600000004      9.1572440000000004
   744   1    0.044705099999999998             14.12273514      9.0518354500000004
   745   1      30.540296550000001      17.507893549999999      9.2583518300000005
   746   1      5.9199408599999996             13.12899052      8.3190962800000001
   747   1      10.061662760000001      17.301710379999999      8.8770907099999992
   748   1             10.29403621             20.09781211      8.1714088599999997
   749   1      20.568037690000001      16.230754910000002      8.2544166000000008
   750   1      28.663057800000001             13.76826307      9.3193855499999998
   751   1      24.416228329999999              23.0887338      8.3748548399999994
   752   1      5.9858072900000003             15.15928132      9.6194543199999991
   753   1      5.8984643500000002      19.732457570000001              8.29192967
   754   1      6.0238917000000001      3.4742558200000002      8.9826970100000008
   755   1      6.1742673899999998      5.9575523099999996      8.3069816599999999
   756   1             10.07333723      27.110730780000001      8.5178663399999994
   757   1      6.4202081499999997             24.69799051      9.1905702100000006
   758   1             26.55374759      1.3350188300000001      9.8264825299999998
   759   1             28.49712899      16.182824180000001      8.5451642799999998
   760   1      22.366827900000001              1.14991581      9.8068728000000007
   761   1      16.403789010000001      21.159754639999999      9.3912440200000002
   762   1      26.456164149999999             10.41465124      9.2580933699999992
   763   1      10.085927890000001      5.5400589499999997      8.0799992799999991
   764   1      8.0241443100000005      2.0310016700000002      8.5783156100000006
   765   1      18.083104980000002      3.4618759200000002      9.2994074599999994
   766   1      20.369625750000001             23.65025906      8.2857792000000003
   767   1      28.554676400000002      23.464824620000002      8.0498383899999997
   768   1      30.428667059999999      26.903571299999999      8.2331330999999999
   769   2      29.073480579999998      19.313614009999998      9.5277099100000004
   770   2      28.404361399999999             17.67832233      9.5767193400000004
