N2-dn2-coord-10bar/300K/snapshots/frame-68190/run-000/../data.lammps (written by ASE) 

770 	 atoms 
2  atom types
0.0      32.470343392086264  xlo xhi
0.0      28.120142247150884  ylo yhi
0.0      31.213473999158239  zlo zhi


Atoms 

     1   1      2.0293964600000001      1.1716090800000001    0.023552650000000001
     2   1      6.0880008999999999              1.17168918              0.02556874
     3   1      10.146952280000001              1.17170328    0.025416459999999998
     4   1      14.205754900000001      1.1716496700000001              0.02501565
     5   1             18.26456816              1.17166478              0.02504435
     6   1             22.32338141      1.1716496700000001              0.02501565
     7   1      26.382184030000001              1.17170328    0.025416459999999998
     8   1      30.441135410000001              1.17168918              0.02556874
     9   1  9.1780000000000006e-05      4.6866847900000002    0.025581599999999999
    10   1      4.0587011400000002      4.6866847900000002    0.025581599999999999
    11   1      8.1174961000000003      4.6866290399999997    0.025584639999999999
    12   1             12.17638011      4.6866852999999997              0.02491202
    13   1             16.23517979      4.6866942700000003    0.025006210000000001
    14   1      20.293956519999998      4.6866942700000003    0.025006210000000001
    15   1      24.352756209999999      4.6866852999999997              0.02491202
    16   1      28.411640219999999      4.6866290399999997    0.025584639999999999
    17   1      2.0293964600000001      8.2016395800000002    0.026613040000000001
    18   1      6.0881071599999999      8.2016314300000008              0.02543782
    19   1             10.14701835               8.2017045    0.025156850000000001
    20   1      14.205766049999999      8.2017080900000003    0.024990459999999999
    21   1             18.26456816      8.2017077599999997    0.025091249999999999
    22   1      22.323370260000001      8.2017080900000003    0.024990459999999999
    23   1      26.382117969999999               8.2017045    0.025156850000000001
    24   1      30.441029149999999      8.2016314300000008              0.02543782
    25   1  9.2789999999999998e-05             11.71671873    0.025573410000000001
    26   1              4.05870014             11.71671873    0.025573410000000001
    27   1      8.1176017700000003             11.71668698              0.02497914
    28   1             12.17637068             11.71673069    0.025001590000000001
    29   1      16.235177310000001      11.716730249999999    0.025074039999999999
    30   1      20.293959009999998      11.716730249999999    0.025074039999999999
    31   1      24.352765640000001             11.71673069    0.025001590000000001
    32   1      28.411534549999999             11.71668698              0.02497914
    33   1      2.0293964600000001             15.23167155              0.02525285
    34   1      6.0881728300000004      15.231678799999999    0.025062859999999999
    35   1             10.14698486      15.231762639999999               0.0250786
    36   1             14.20578841             15.23176782    0.025201990000000001
    37   1             18.26456816              15.2317707    0.025149979999999999
    38   1      22.323347900000002             15.23176782    0.025201990000000001
    39   1      26.382151459999999      15.231762639999999               0.0250786
    40   1      30.440963480000001      15.231678799999999    0.025062859999999999
    41   1      32.470327990000001      18.746748629999999    0.024951939999999999
    42   1      4.0588083299999997      18.746748629999999    0.024951939999999999
    43   1      8.1175770200000006      18.746803499999999    0.025222040000000001
    44   1             12.17637459      18.746799750000001    0.025428470000000002
    45   1      16.235159400000001      18.746805200000001    0.025487360000000001
    46   1      20.293976919999999      18.746805200000001    0.025487360000000001
    47   1      24.352761730000001      18.746799750000001    0.025428470000000002
    48   1             28.41155929      18.746803499999999    0.025222040000000001
    49   1      2.0293964600000001      22.261939099999999    0.025844880000000001
    50   1      6.0881419299999999      22.261841799999999    0.025489439999999999
    51   1             10.14692954             22.26176895              0.02551757
    52   1             14.20573559      22.261804690000002    0.025639160000000001
    53   1             18.26456816             22.26178625    0.025640119999999999
    54   1      22.323400729999999      22.261804690000002    0.025639160000000001
    55   1      26.382206780000001             22.26176895              0.02551757
    56   1             30.44099439      22.261841799999999    0.025489439999999999
    57   1  5.6450000000000003e-05      25.776936450000001              0.02613327
    58   1      4.0587364700000004      25.776936450000001              0.02613327
    59   1      8.1175325399999991              25.7767713    0.024734180000000001
    60   1      12.176376469999999      25.776831090000002              0.02545323
    61   1      16.235145939999999      25.776775220000001    0.025273360000000002
    62   1             20.29399038      25.776775220000001    0.025273360000000002
    63   1      24.352759840000001      25.776831090000002              0.02545323
    64   1      28.411603769999999              25.7767713    0.024734180000000001
    65   1  0.00024266000000000001              2.34304215     0.80166565000000001
    66   1      4.0585502699999996              2.34304215     0.80166565000000001
    67   1      8.1157394600000003              2.34454954     0.80169402000000001
    68   1             12.17601256      2.3433829099999999     0.80116898000000003
    69   1      16.235258170000002      2.3433209100000001     0.80090046999999998
    70   1      20.293878150000001      2.3433209100000001     0.80090046999999998
    71   1      24.353123750000002      2.3433829099999999     0.80116898000000003
    72   1      28.413396859999999              2.34454954     0.80169402000000001
    73   1      2.0293964600000001      5.8582218700000004     0.80119762000000005
    74   1      6.0870566899999998      5.8583336700000004              0.80194851
    75   1             10.14649655              5.85853131     0.80121584000000001
    76   1             14.20597894      5.8582938599999999     0.80086840999999998
    77   1             18.26456816      5.8583798500000004               0.8010794
    78   1      22.323157380000001      5.8582938599999999     0.80086840999999998
    79   1             26.38263976              5.85853131     0.80121584000000001
    80   1      30.442079629999999      5.8583336700000004              0.80194851
    81   1  0.00019438999999999999      9.3717771800000005     0.80082061000000004
    82   1      4.0585985400000002      9.3717771800000005     0.80082061000000004
    83   1      8.1175070500000004      9.3725002699999997     0.80149060999999999
    84   1      12.176590020000001      9.3733583399999993     0.80088261999999999
    85   1             16.23512199      9.3733789200000004              0.80106506
    86   1             20.29401433      9.3733789200000004              0.80106506
    87   1      24.352546289999999      9.3733583399999993     0.80088261999999999
    88   1      28.411629269999999      9.3725002699999997     0.80149060999999999
    89   1      2.0293964600000001             12.88692854     0.80220621000000003
    90   1      6.0883212999999996             12.88743848     0.80138414999999996
    91   1      10.147128609999999             12.88859852     0.80085256000000005
    92   1             14.20571782      12.888558189999999     0.80113791000000001
    93   1             18.26456816      12.888409899999999     0.80109381000000002
    94   1      22.323418490000002      12.888558189999999     0.80113791000000001
    95   1             26.38200771             12.88859852     0.80085256000000005
    96   1      30.440815019999999             12.88743848     0.80138414999999996
    97   1              0.00012365      16.403222639999999     0.80145666999999998
    98   1      4.0586692700000002      16.403222639999999     0.80145666999999998
    99   1      8.1174337899999998      16.403825260000001     0.80097196999999998
   100   1              12.1761021             16.40390721     0.80133072000000005
   101   1             16.23503496      16.403861750000001     0.80140014999999998
   102   1      20.294101359999999      16.403861750000001     0.80140014999999998
   103   1      24.353034220000001             16.40390721     0.80133072000000005
   104   1      28.411702529999999      16.403825260000001     0.80097196999999998
   105   1      2.0293964600000001      19.919205120000001     0.80066369999999998
   106   1              6.08752564             19.91894023     0.80122479000000002
   107   1      10.146078839999999             19.91919038     0.80159137999999996
   108   1      14.204993419999999              19.9192584     0.80178742000000003
   109   1             18.26456816      19.919377350000001     0.80194975999999996
   110   1      22.324142899999998              19.9192584     0.80178742000000003
   111   1      26.383057470000001             19.91919038     0.80159137999999996
   112   1      30.441610669999999             19.91894023     0.80122479000000002
   113   1              0.00142012      23.434536609999999     0.80178442000000005
   114   1      4.0573728100000004      23.434536609999999     0.80178442000000005
   115   1      8.1165862000000004      23.433936769999999     0.80182306000000003
   116   1             12.17555218      23.433996919999998     0.80156656000000004
   117   1             16.23465491      23.434040110000002     0.80170828999999999
   118   1      20.294481409999999      23.434040110000002     0.80170828999999999
   119   1      24.353584130000002      23.433996919999998     0.80156656000000004
   120   1      28.412550110000002      23.433936769999999     0.80182306000000003
   121   1      2.0293964600000001      26.949875330000001              0.80297246
   122   1      6.0858208300000003      26.950066320000001              0.80215291
   123   1             10.14598146      26.949241430000001     0.80165810000000004
   124   1             14.20520604      26.948673230000001     0.80131923999999999
   125   1             18.26456816             26.94858318     0.80108193999999999
   126   1      22.323930279999999      26.948673230000001     0.80131923999999999
   127   1      26.383154860000001      26.949241430000001     0.80165810000000004
   128   1             30.44331549      26.950066320000001              0.80215291
   129   1      32.464121230000003      28.119574419999999      1.5600697100000001
   130   1      4.1085112600000002      28.132883410000002      1.5001490099999999
   131   1              8.15508436   -0.052368730000000002      1.3818483399999999
   132   1             12.11875978      28.008839590000001      1.4202119099999999
   133   1      16.153544849999999             28.22048762      1.3639954700000001
   134   1      20.333501900000002   0.0031903700000000001              1.56153126
   135   1      24.332528610000001             28.13285054              1.36191504
   136   1             28.41090629    0.030878050000000001              1.47189865
   137   1      2.0171472600000002      3.4370983100000001      1.3857087800000001
   138   1      6.1308890600000003               3.5349469      1.4871120900000001
   139   1             10.24607335      3.4410133799999998               1.4468566
   140   1      14.279523040000001              3.55781159              1.50893202
   141   1      18.305068259999999      3.4891833999999999              1.44194117
   142   1             22.27573391              3.48303122      1.4137509800000001
   143   1      26.373916059999999              3.50563007      1.2637282000000001
   144   1             30.33364323               3.5114904      1.5230330700000001
   145   1    0.043865880000000003              7.07598883      1.4892045300000001
   146   1              3.95683491      7.0865394100000003      1.6329590899999999
   147   1      8.0709613000000004      6.9746399600000002      1.5241102900000001
   148   1      12.222905190000001      6.9464955000000002      1.4182963799999999
   149   1      16.233129890000001      6.9645481800000004                1.346414
   150   1             20.24090094      6.9402846399999998              1.46886853
   151   1      24.253103209999999      7.0122082099999998      1.5297940000000001
   152   1      28.473934060000001      6.8872911300000004      1.4235404300000001
   153   1      1.9894938799999999             10.54088754              1.44174427
   154   1      5.9511925200000002             10.53219395              1.38187332
   155   1      10.227459870000001             10.59197842      1.5122133099999999
   156   1             14.19843165             10.56844096      1.4737808800000001
   157   1      18.205976060000001             10.54683747      1.5004988500000001
   158   1      22.350688860000002             10.44829446              1.55386899
   159   1              26.5263445             10.55078934      1.5881718499999999
   160   1             30.45133753             10.50683995      1.4212080899999999
   161   1   0.0075932500000000002             14.04398731              1.52102541
   162   1      3.9918035600000001             13.99159281      1.3864321399999999
   163   1      8.0160477300000004      14.045667269999999      1.4873686800000001
   164   1      12.191286870000001             14.01136928      1.5584633299999999
   165   1      16.244646769999999             14.07006477      1.5987023499999999
   166   1      20.191124009999999             14.10728613              1.47746249
   167   1             24.38846105             14.06678335      1.4913180399999999
   168   1      28.450434359999999             14.02131254      1.6293939900000001
   169   1              2.02833883             17.60062778              1.50513407
   170   1      6.1189490400000004      17.457973119999998      1.3898121999999999
   171   1             10.18793455             17.53977716      1.4782511300000001
   172   1      14.209526650000001             17.60217325      1.4193925999999999
   173   1      18.315414820000001      17.517132719999999      1.3516361800000001
   174   1      22.222869979999999             17.52229573              1.48201936
   175   1      26.441416419999999      17.448535769999999      1.4588727399999999
   176   1      30.390732960000001      17.659192950000001      1.3784928400000001
   177   1      32.481482470000003      21.136893730000001              1.49177424
   178   1      4.1922549299999998      21.069851060000001              1.46609688
   179   1      8.1154555199999994      21.065150110000001      1.3873040000000001
   180   1             12.09342359      21.162483940000001              1.42059621
   181   1             16.31195035      21.095879279999998      1.3461306500000001
   182   1             20.37409456             21.19633833               1.4057941
   183   1      24.274414780000001      21.132103059999999              1.44068464
   184   1      28.462576080000002      21.172151299999999              1.37740807
   185   1      2.0343753200000001             24.63487327              1.53319647
   186   1      6.1357048799999996             24.72703538      1.4625980599999999
   187   1             10.10501983             24.58799119              1.52728124
   188   1             14.28186281             24.65322334              1.31904705
   189   1      18.225661559999999      24.591668080000002      1.4805073200000001
   190   1      22.411371509999999              24.5247283              1.55189917
   191   1      26.478961980000001      24.629095589999999      1.5198804299999999
   192   1      30.508620579999999      24.671656970000001              1.61070074
   193   1      1.9859865000000001              1.19681923      2.3711517099999999
   194   1      6.2150540200000002      1.2396707899999999      2.3527896799999999
   195   1      10.228438730000001              1.14251875      2.2969168199999999
   196   1             14.07501641              1.15354559      2.3633128800000001
   197   1      18.267314110000001      1.0491571900000001      2.5686942699999999
   198   1      22.266526249999998      1.2142223700000001      2.3381840899999999
   199   1             26.42779045              1.26473211      2.4142237600000001
   200   1      30.440882989999999      1.1436636099999999      2.4469882300000001
   201   1      32.564178259999998      4.7139753100000004              2.29664409
   202   1      4.1298524099999998      4.6215378200000004      2.4530477199999998
   203   1      8.2694478199999999      4.5276227599999999      2.4221751399999998
   204   1             12.19800555      4.5930146299999999      2.4410146699999999
   205   1      16.185856730000001              4.66763145      2.3596242200000002
   206   1      20.260044409999999      4.6700906299999998              2.45896392
   207   1      24.372439839999998              4.68946562      2.3093885699999999
   208   1      28.393820829999999      4.7804486900000001      2.3803777099999999
   209   1              1.94597862      8.2695466100000008              2.47149493
   210   1              6.15595172      8.1376256300000005      2.4462295599999999
   211   1             10.22454314      8.2212766100000003      2.3293693700000002
   212   1             14.22658332      8.2594508599999994      2.3194093100000002
   213   1              18.1919611      8.2131856800000005              2.40119098
   214   1             22.35252315      8.2627509299999993      2.5406384700000002
   215   1      26.335578649999999      8.1858604699999997      2.4170223399999999
   216   1      30.509387969999999      8.2247912000000003              2.41144376
   217   1      32.518133370000001      11.570227900000001              2.45435099
   218   1      4.0939090800000004             11.62408795      2.5396898299999999
   219   1      8.0788449100000008      11.724466720000001      2.4052538000000001
   220   1             12.10216228             11.68531409      2.3806508499999999
   221   1      16.169745120000002             11.70955745              2.34218218
   222   1      20.261645600000001             11.70141696              2.50875015
   223   1      24.419958659999999      11.638572529999999      2.5778669700000001
   224   1      28.464204509999998      11.596055590000001      2.4345314899999999
   225   1      2.1199785699999998             15.20903219      2.4219159800000001
   226   1      6.0699866099999999             15.31247602      2.4897903399999999
   227   1              10.0462077             15.21680752              2.38374255
   228   1      14.105636860000001      15.210883300000001              2.40517008
   229   1      18.132846579999999             15.21777535              2.36781643
   230   1      22.304802760000001             15.15092711      2.4201230599999999
   231   1      26.355067869999999      15.072897380000001      2.4037867300000002
   232   1      30.414013829999998               15.320155      2.3821718500000002
   233   1    0.011199270000000001      18.812875439999999               2.3951061
   234   1      4.0994316499999996      18.750077709999999      2.4141195199999999
   235   1      8.1078190800000005      18.798392849999999      2.4091376000000002
   236   1             12.26268101             18.76034804      2.3647120400000001
   237   1             16.21228009      18.710854019999999              2.36853062
   238   1             20.31722298      18.818237830000001      2.4036120699999999
   239   1      24.312249080000001      18.711405710000001      2.3093267800000001
   240   1      28.402623519999999      18.810598890000001               2.4376224
   241   1      2.0461556299999999      22.271528629999999      2.4602618000000001
   242   1      6.0905020299999997      22.412712930000001              2.33182439
   243   1      10.169887559999999      22.316335970000001      2.5025353099999998
   244   1             14.16300603             22.27269458      2.4283598999999998
   245   1      18.326982739999998      22.252513350000001      2.4781807200000001
   246   1      22.332316859999999      22.227102850000001              2.44158331
   247   1             26.38042724      22.283869079999999      2.3950664499999998
   248   1      30.512260869999999      22.281989840000001      2.4912431900000001
   249   1    0.078787399999999994      25.761083760000002              2.40926536
   250   1      3.9479846200000002              25.8775908              2.28946782
   251   1      8.2074031200000004             25.77840273      2.5017052799999999
   252   1             12.15018705      25.759739830000001              2.31977923
   253   1      16.274214659999998      25.768704190000001      2.4290711300000001
   254   1      20.232134640000002      25.786372010000001      2.4171836600000001
   255   1      24.434115680000001      25.793126839999999      2.3673338099999999
   256   1      28.474200840000002      25.787295019999998              2.45434887
   257   1   -0.041136220000000001      2.4597062200000002              3.19470864
   258   1      4.1565122700000003              2.31623315      3.2304118700000002
   259   1      8.1720503900000008      2.2322576000000001      3.2399871299999998
   260   1             12.20187584              2.31860271      3.3058588100000001
   261   1      16.189026559999999      2.3741822199999998      3.2577363099999999
   262   1      20.196062640000001      2.4098300799999999      3.2827798000000001
   263   1      24.388473130000001      2.4025205000000001              3.22629484
   264   1      28.528054220000001              2.39145523      3.2388115599999998
   265   1               2.0070147      5.9426846400000004      3.1816033099999999
   266   1      6.1029603200000002      5.7422319899999996      3.3329537999999999
   267   1      10.201000069999999      5.9090298600000004              3.14588863
   268   1             14.20625706      5.8362024100000003      3.2019362600000001
   269   1      18.211518099999999      5.8556925900000003      3.0809175899999999
   270   1      22.343043829999999      5.8789041099999997      3.2114063000000002
   271   1      26.315388680000002      5.8126797300000002      3.3246699199999998
   272   1             30.46278972      5.8865809499999999      3.1378989100000001
   273   1   -0.034327549999999998      9.3775203400000002      3.2683421899999998
   274   1      4.0959193999999997      9.2962936599999999      3.3484785499999998
   275   1      8.1013357199999998      9.3556198699999999      3.1699290000000002
   276   1             12.10381198      9.3930220599999998      3.2206436900000002
   277   1      16.233837220000002      9.4291744400000006      3.2837922900000001
   278   1      20.162116309999998      9.5105045300000004      3.2435516299999998
   279   1      24.463954699999999      9.3852150999999999      3.3277324699999999
   280   1             28.57033814      9.2475303199999992      3.2811315699999999
   281   1      2.1680827100000002      12.850219190000001      3.2851377500000001
   282   1              6.01539234             12.85850602      3.2957514699999999
   283   1             10.09114561              12.9269599      3.2126945899999999
   284   1             14.16253946             12.87707775      3.2710476399999999
   285   1              18.2108068             12.95247979              3.18727326
   286   1      22.380110930000001             12.85677057              3.31189519
   287   1             26.54018503             12.80014375      3.2640294500000002
   288   1             30.58148327      12.853401140000001      3.3227221299999998
   289   1              0.02497139      16.373646950000001      3.2038205099999999
   290   1      4.0417078999999996      16.449699649999999      3.2530177400000002
   291   1      8.1340028699999998      16.413329000000001      3.3097759299999998
   292   1      12.164677960000001      16.527004949999998      3.2101690600000001
   293   1      16.180377719999999      16.318115939999998              3.25059568
   294   1      20.270792140000001             16.56347736      3.3047776199999999
   295   1      24.308393039999999      16.419007270000002      3.2831613700000002
   296   1      28.382274630000001             16.42070996      3.2416111600000002
   297   1      2.0067540899999998      20.020136260000001      3.3889896799999999
   298   1      6.1877707400000004      20.014739389999999      3.2467426399999999
   299   1             10.07428898              19.8439461              3.19410186
   300   1      14.250482890000001      19.929379969999999      3.1600591800000002
   301   1             18.27612967      19.952196579999999      3.2350995600000001
   302   1             22.28415442      19.950686919999999      3.1583687999999999
   303   1      26.305093979999999      19.974537489999999              3.21239849
   304   1             30.41306823      19.835145600000001      3.1802820600000001
   305   1   -0.021871870000000002      23.370432229999999      3.3215973399999998
   306   1      4.0243071300000004      23.528152939999998      3.1126542000000001
   307   1      8.0954896099999996             23.45762135      3.2513482800000002
   308   1              12.1484766      23.453468950000001      3.1802419400000002
   309   1             16.16642989      23.334556249999999      3.2991554299999999
   310   1      20.409946049999999      23.442027320000001      3.2473918300000002
   311   1             24.46885631      23.342732340000001      3.3177112900000001
   312   1             28.44617852      23.442505480000001              3.31214334
   313   1      1.9588622099999999      27.018091760000001      3.2292977399999998
   314   1      5.9868724499999999             26.94073792      3.2212202099999998
   315   1      10.270045870000001      26.992052520000001      3.2144237000000002
   316   1      14.169403689999999             26.89501864      3.2179212700000002
   317   1      18.331128769999999      26.930813180000001              3.37520986
   318   1      22.317256130000001      26.903004370000001              3.20089669
   319   1      26.429222889999998      27.024406219999999      3.0905631499999999
   320   1      30.446614820000001             26.96045887              3.37588373
   321   1   -0.078089309999999995      28.136762569999998      4.1296295699999996
   322   1              3.97025272    0.047520359999999998      4.0630096399999998
   323   1      8.2762027899999993             -0.02228198      3.9812475699999998
   324   1             12.20568503   -0.017426799999999999      4.0160791600000003
   325   1      16.201824219999999    0.035370239999999997      4.0400213999999997
   326   1      20.381693949999999      28.080798810000001              4.09311588
   327   1             24.34717698   -0.064449500000000007      4.0607893600000002
   328   1      28.458033189999998      28.128524460000001      4.2048641599999996
   329   1      2.0201912499999999               3.6555057              3.93623382
   330   1      6.1487173500000001      3.5335795499999998      4.0599247299999996
   331   1      10.159502789999999      3.5975559499999998      4.0293770699999998
   332   1             14.32864487      3.5615645499999999      4.1173343200000003
   333   1      18.235077960000002              3.55506681      4.0202970200000001
   334   1      22.342677040000002      3.5156613499999998      4.0103763199999998
   335   1      26.384604379999999      3.4373550399999999      4.1147611499999996
   336   1             30.56347804      3.6182767899999999      4.1091262799999999
   337   1      32.391629420000001      7.0875322699999996      4.0675038399999996
   338   1      4.0357889599999996      6.9622329799999996      4.2352503500000003
   339   1      8.1958925499999999      6.9236238800000001              4.09456533
   340   1             12.24303403      7.0035543699999998      4.0078689599999997
   341   1      16.130842430000001      7.1226574999999999      3.8554864000000002
   342   1             20.19908101      7.1526538400000002              4.03065885
   343   1      24.310135420000002      7.0849685999999998              4.14196454
   344   1      28.386923469999999      6.9642525800000001      4.1364674099999998
   345   1      1.9936017399999999      10.523534310000001      4.0439752799999997
   346   1      6.2184301800000004             10.49728451      4.0948389799999996
   347   1      10.084914510000001             10.50285732      4.0506531900000002
   348   1      14.099515200000001             10.57038339      4.0909276500000002
   349   1             18.14252724             10.76903871              4.06945465
   350   1      22.300751930000001             10.51007199              4.09002847
   351   1             26.49605266      10.534574539999999      4.2077142299999997
   352   1             30.41436362             10.62353218      4.1526996199999999
   353   1      32.659644470000003      14.083011239999999      4.1051792699999998
   354   1      4.1396319699999999              14.1475074      4.1429994399999996
   355   1      8.0355577399999998      14.085933539999999      4.1175633200000004
   356   1             12.18342876      14.142008540000001      4.0116571099999998
   357   1      16.109851630000001             13.99849156      3.9894154400000001
   358   1              20.3047608             14.15861456      4.0346613500000004
   359   1             24.30083291      14.137173929999999      4.1290981599999999
   360   1      28.469480699999998             13.93137082      4.0639645900000003
   361   1               2.0586316      17.575352519999999              4.05888632
   362   1      6.1079955500000001             17.62495672      4.0464019599999999
   363   1      10.137359350000001      17.610836500000001      4.0869207100000002
   364   1             14.35007965      17.635906030000001      3.9824723999999998
   365   1      18.295101949999999             17.45577862      4.0663704100000002
   366   1             22.33559108      17.543411039999999      4.0825311600000003
   367   1      26.458108230000001             17.56394113      4.0944679700000002
   368   1      30.465223420000001      17.580644459999998      4.0545619100000003
   369   1      32.415727310000001      20.973530409999999      4.1258982700000004
   370   1      4.0580793999999996      21.070028369999999      4.0934433600000002
   371   1      8.1814910899999997             21.08516324      4.1694908000000002
   372   1             12.16627813      21.109162170000001      3.9593915700000002
   373   1      16.229368709999999             21.01032163      4.0652490600000002
   374   1      20.439839500000001      21.163299250000001      4.1356940499999997
   375   1      24.236301659999999      21.040688509999999      4.0434742100000003
   376   1      28.363254269999999      21.041618570000001               4.0629982
   377   1      1.9457370700000001      24.622570979999999              3.95966212
   378   1      5.9297448099999999             24.62549082              4.02350604
   379   1             10.12672227      24.541019309999999      4.0959247799999998
   380   1      14.118135150000001      24.621437369999999      3.9397723199999999
   381   1      18.271789139999999      24.622850020000001      4.0855586600000002
   382   1             22.30780991             24.58325314      4.1332904700000004
   383   1             26.51408971      24.520667150000001      4.0088253900000002
   384   1      30.476172699999999             24.52942518      4.1322193199999999
   385   1      2.1503508099999999              1.29611422      4.8660772899999998
   386   1      6.1509794900000001              1.12314822      4.7772187500000003
   387   1             10.26434633              1.11342874      4.8960586099999999
   388   1             14.19996684              1.26758595      4.9786425799999998
   389   1      18.289274800000001      1.0913504000000001      4.9374964400000003
   390   1      22.362148869999999      1.2749272899999999      4.8317551099999996
   391   1      26.451312789999999              1.01609572      4.9532246200000003
   392   1             30.44146465      1.3053056700000001               5.0020479
   393   1    0.071377700000000002      4.7841898299999999      4.9089091199999997
   394   1      3.9618057800000002      4.6233610900000004      4.9135923899999998
   395   1      8.1932256199999998      4.6383028399999997      4.9417225399999998
   396   1             12.26215397      4.6697818399999997      4.8675821499999996
   397   1      16.279918609999999      4.7431901099999996      4.8936058200000003
   398   1      20.330328470000001              4.81332892      4.8895129700000002
   399   1      24.314868570000002              4.70574198      4.8301780599999997
   400   1      28.310056549999999              4.75194428              4.87368764
   401   1      2.0229312699999999      8.1371702599999995      4.9290181500000001
   402   1               6.0533367      8.0587632899999999      4.9724389200000001
   403   1      10.053275259999999              8.18924436      4.9426644499999997
   404   1             14.17540161      8.2599121400000008      4.8760728799999997
   405   1             18.10105141      8.2756680599999992      4.9073265800000003
   406   1             22.34342431      8.2128730599999997              5.01128046
   407   1      26.323626130000001      8.1868455900000008      4.9817419000000003
   408   1      30.367365360000001      8.2397814500000006      5.1213277499999998
   409   1     0.16996232999999999      11.703308399999999      4.8879957300000001
   410   1      4.1199739800000001             11.66417583      5.0049542200000001
   411   1      8.1196526900000006             11.82675744              4.86717932
   412   1             12.00721042             11.85314687      4.9987571600000003
   413   1      16.097581300000002      11.770407670000001      4.8883627799999996
   414   1             20.22051823             11.73156979      4.9824998599999999
   415   1      24.339300739999999      11.661112040000001      4.9503795500000001
   416   1      28.448792019999999             11.73924306      5.0494482999999999
   417   1      2.1254778700000001      15.242210249999999      4.9884234599999999
   418   1              6.05411784             15.22486471              5.07351361
   419   1      10.190222990000001             15.29860965      4.9399545099999997
   420   1      14.164292570000001      15.215818670000001      4.9148231200000003
   421   1      18.228743000000001             15.25998976      4.9809092599999998
   422   1             22.28987613             15.37142126      4.8346776199999999
   423   1             26.28075024             15.14711484      4.9562965999999999
   424   1             30.39412149      15.169636519999999      4.8525151299999996
   425   1    0.074397179999999993      18.741363530000001      4.9292517199999999
   426   1      4.1004905000000003      18.719141570000001      4.9492230399999997
   427   1      8.1843036100000006             18.71169871      4.9953877799999997
   428   1             12.22837198      18.631349109999999      5.0147826000000002
   429   1              16.2465856      18.735001700000002      4.8886321700000002
   430   1      20.311139799999999      18.745831079999999      5.0006988000000003
   431   1      24.311329149999999      18.757392679999999              4.81374835
   432   1             28.45636412      18.636832699999999      5.0224379199999998
   433   1              2.00315165             22.33313626      4.8096622599999996
   434   1      6.0802511099999998      22.303900599999999      4.9418618800000003
   435   1             10.16556975             22.21746272      5.0226560899999999
   436   1             14.23900188      22.300071710000001      4.8112059399999998
   437   1      18.278344109999999      22.349590360000001      4.8675431800000002
   438   1      22.447011939999999      22.203449729999999      4.9235070800000003
   439   1      26.356742350000001      22.129041780000001      4.8843902000000003
   440   1      30.350378490000001      22.195541739999999      5.0096803100000002
   441   1   -0.039334899999999999      25.777846440000001      4.9528536399999998
   442   1              4.08477304      25.965540449999999      4.7102006200000002
   443   1      8.0700390199999994             25.69739964      4.8935196999999997
   444   1      12.136057839999999      25.708523490000001      4.8736731100000004
   445   1      16.213749610000001      25.826495449999999      4.9972743700000004
   446   1      20.293713610000001      25.826847130000001              5.01612496
   447   1      24.355537290000001             25.71898989      4.8812156599999996
   448   1      28.516917289999999             25.69394634      4.9196232000000002
   449   1      32.576530929999997      2.3050391499999998      5.7178738600000001
   450   1      4.1669700199999999              2.28309425      5.7342897500000003
   451   1      8.1242130600000007      2.4626300400000001      5.6689014799999997
   452   1              12.2271254      2.3913891399999998      5.8017641900000001
   453   1      16.289647309999999      2.3743956800000001      5.7570238099999997
   454   1             20.17170132      2.4154191900000002      5.7424547199999996
   455   1             24.31059407              2.36904073      5.6559318799999998
   456   1      28.279811909999999      2.4336482699999999      5.7076881999999998
   457   1              2.04813695      5.9145051799999999      5.7066554700000003
   458   1      6.1137460900000002      5.7512971300000002      5.7048549800000004
   459   1             10.28112982      5.8399804099999999      5.6797714099999999
   460   1              14.2214379      5.8457044700000003      5.7159321199999997
   461   1      18.242278559999999      5.9251463400000004              5.65582107
   462   1      22.282801079999999      5.9073351599999997      5.7433936399999999
   463   1      26.351559330000001      5.8762533000000001      5.8000587399999999
   464   1      30.393361909999999      5.8734345899999996      5.7324833499999999
   465   1              32.4567288      9.4407919000000007      5.7437883599999999
   466   1              4.07975624      9.3519766400000002      5.7927228800000004
   467   1      8.1044853400000001      9.3595476200000007      5.6795366500000002
   468   1             12.08806027      9.3851541300000001      5.6605205099999996
   469   1      16.077411609999999      9.5881352100000008      5.7662896699999999
   470   1      20.305968490000001      9.3408691099999999      5.7286363800000002
   471   1      24.313957049999999      9.3983020400000008      5.8748713099999996
   472   1              28.4072034      9.4597082799999992      5.8917495999999998
   473   1              2.08344453      12.892180679999999      5.7436277100000002
   474   1      5.9485549400000002             12.87135747      5.8446174700000002
   475   1              10.1041138             13.08200179              5.77568576
   476   1      14.151007229999999             12.79112654      5.6950916200000004
   477   1      18.206909939999999             12.92009539      5.5795104499999999
   478   1      22.311790349999999             12.90112145      5.7300066899999997
   479   1      26.324418810000001      12.819685959999999      5.7868598499999999
   480   1      30.486126349999999      12.859531820000001      5.7479582899999997
   481   1     0.14268834999999999      16.353809949999999      5.7132918400000001
   482   1      4.0413021699999998      16.388686700000001      5.7003919200000004
   483   1      8.1398062099999997             16.36442757      5.7820492000000003
   484   1              12.2025991      16.429980270000001              5.73914437
   485   1      16.229345720000001      16.374702559999999      5.6961725999999997
   486   1             20.31832721      16.485470410000001      5.8043953799999999
   487   1      24.391602330000001      16.327092230000002      5.7311161200000003
   488   1      28.477571090000001             16.28160329              5.62973999
   489   1      2.0557272100000001      19.942068679999998      5.8836208699999997
   490   1      6.0720291900000003      19.832428960000001      5.6784077399999999
   491   1             10.13321818      19.855085160000002      5.7137690299999999
   492   1      14.251488220000001             19.90697424      5.5659185200000003
   493   1      18.321959660000001      19.870288710000001      5.6485752900000001
   494   1      22.385524960000001      19.923585809999999      5.6290886499999999
   495   1             26.34643938      19.931834550000001      5.7501439699999999
   496   1      30.461989599999999      19.912602769999999      5.7896590799999998
   497   1    0.042104929999999999      23.413969259999998              5.77282137
   498   1      4.1140914400000002      23.456271019999999      5.6688618200000001
   499   1      8.1218605700000008             23.37158544      5.7846984600000004
   500   1             12.15298069      23.369281310000002      5.8129595299999997
   501   1      16.208538170000001      23.507262520000001      5.6313791999999996
   502   1             20.29668607      23.456753890000002      5.7288817300000003
   503   1             24.26083285      23.425227499999998      5.8454101300000003
   504   1      28.344891629999999      23.481673019999999      5.8698189899999997
   505   1      2.1172569999999999             27.05528133      5.7189272600000001
   506   1      5.9857819900000004      26.984603629999999      5.6979747300000003
   507   1      10.158495050000001             26.75222419      5.7382376199999996
   508   1             14.16902604             26.99620453      5.7636667099999999
   509   1             18.24155429      26.936545089999999      5.7837853800000003
   510   1      22.351579900000001      26.923087450000001      5.7236234799999997
   511   1      26.463718979999999      26.709533780000001      5.7373190599999999
   512   1      30.448561359999999      26.966792739999999      5.9105915400000004
   513   1    0.065358269999999996              0.00142713              6.66050392
   514   1      4.0911283699999998   -0.024525809999999999      6.5462009300000004
   515   1      8.2038440799999996   -0.044071760000000001              6.54306885
   516   1             12.20567481      28.050086060000002      6.6905064200000002
   517   1             16.35797882   0.0025816400000000001      6.6393158699999999
   518   1      20.307973570000001              0.02281828              6.51349277
   519   1      24.283977279999998    0.038534069999999997      6.5452289500000003
   520   1      28.344722950000001    0.046546629999999999      6.6145500799999999
   521   1      2.1406647799999998      3.5437171200000002      6.5199694099999999
   522   1      6.1088053999999996      3.4884312899999999      6.5989753499999999
   523   1      10.170960579999999      3.4909738300000002      6.5513321900000001
   524   1      14.219962560000001      3.5393750000000002      6.5832202100000003
   525   1             18.25495364              3.51949684      6.6406987900000001
   526   1             22.31636391              3.59137131      6.5961185000000002
   527   1             26.34910193      3.5505695400000001      6.7191245200000003
   528   1      30.587074820000002      3.4691113200000001      6.6681505999999997
   529   1    0.024325019999999999      7.1247413100000001              6.55375438
   530   1      4.1671856600000003      7.0885097699999999      6.7009964599999998
   531   1      8.1440254700000008      6.9009587000000003      6.4987728599999999
   532   1             12.18479264      7.1440118000000004      6.5853079299999999
   533   1      16.183803810000001      7.0337395000000003      6.5189409300000003
   534   1             20.29040573      7.0920207099999999      6.4700846199999997
   535   1      24.292040069999999      7.0578922400000002      6.7237206599999997
   536   1      28.413982369999999      7.0741891700000004      6.5738257999999998
   537   1      2.0078699699999998      10.516851150000001      6.5857340500000001
   538   1              6.10865276             10.52326188      6.5670698700000001
   539   1      10.074060230000001             10.62189772              6.58901146
   540   1      13.952816260000001      10.591847489999999      6.5220286200000004
   541   1      18.220570810000002             10.54194034      6.4975525799999998
   542   1      22.320908939999999             10.57311161      6.6088229399999996
   543   1             26.38741315             10.46801423      6.6843888400000004
   544   1      30.450345089999999      10.558496760000001      6.6356678899999997
   545   1      32.565062840000003             14.07581441      6.5676417699999998
   546   1      4.0772988000000003      14.159524060000001      6.7619770900000002
   547   1      8.0620546999999991             14.03992884      6.5460602200000002
   548   1             12.23999323      14.170669910000001      6.5685531199999998
   549   1      16.140471519999998             13.99206049      6.6292794900000001
   550   1      20.209835760000001      14.196021050000001      6.6244218500000001
   551   1      24.354747400000001      14.009694619999999      6.6039616399999996
   552   1             28.47584947             14.04634001      6.5360135599999998
   553   1              2.01789051      17.718152069999999              6.69561473
   554   1      6.0841054100000003      17.584309749999999      6.5507104199999997
   555   1             10.22481039      17.633851700000001      6.5524886200000001
   556   1      14.190612440000001      17.640001699999999      6.5683925700000003
   557   1             18.24698102      17.602152520000001      6.5861470500000001
   558   1      22.472026710000002             17.59479602      6.4942337300000004
   559   1             26.44314232             17.55498609      6.4732673299999997
   560   1      30.519224439999999      17.386349190000001      6.5758775099999998
   561   1      32.460618830000001             21.17965783      6.5780359099999997
   562   1      4.1695185800000001      21.150038980000001      6.5739581600000001
   563   1      8.1393303699999997             20.98798073      6.6553854000000001
   564   1      12.230498580000001      21.016182730000001      6.5314144299999999
   565   1      16.260135699999999             21.04132267      6.6317928300000002
   566   1              20.4703236      21.090467010000001      6.5774651000000004
   567   1      24.353004840000001      20.944247109999999              6.61391873
   568   1              28.2735819      21.074839260000001              6.58826204
   569   1      2.0181813000000002      24.654827220000001              6.46620653
   570   1      6.1039757999999997      24.623239130000002      6.5340640700000003
   571   1      10.105418350000001             24.49942115              6.63285225
   572   1             14.17751385      24.550899170000001              6.45712434
   573   1      18.371310260000001      24.658107699999999      6.6729602300000002
   574   1      22.364867619999998      24.620219169999999      6.5868081900000002
   575   1      26.354684169999999             24.56632742              6.64970207
   576   1      30.515364739999999      24.565186300000001      6.5314974599999998
   577   1      2.1071028200000002      1.1234435700000001      7.5018923700000002
   578   1      6.1278866699999996              1.13024159               7.4622506
   579   1      10.067394760000001      1.1032702000000001      7.5696084700000004
   580   1      14.209476159999999              1.25828261      7.4248302700000002
   581   1      18.268358769999999      1.1653935900000001      7.5840925600000002
   582   1      22.277514620000002      1.1890742999999999      7.3618878399999996
   583   1      26.312366050000001              1.32283646              7.46706161
   584   1      30.393034159999999      1.1966197300000001      7.5583323199999999
   585   1      32.546817060000002      4.6512640799999998      7.6022675800000004
   586   1      4.1823560999999998      4.6998765899999997      7.5380173800000003
   587   1      8.1697877999999999      4.7068427399999999      7.5870198899999997
   588   1             12.25971668      4.6706671899999996      7.3547163700000002
   589   1      16.145524030000001      4.6718175300000002      7.6012670199999999
   590   1      20.270919750000001      4.6392062799999998      7.5457711200000004
   591   1      24.249427359999999      4.7816153200000002      7.5383387300000004
   592   1      28.512957310000001      4.7043620600000002      7.3377553500000001
   593   1              2.12766777      8.1429018600000003      7.4964925200000003
   594   1      6.1584000100000003      8.0849070399999992      7.5095140100000002
   595   1      10.136266239999999      8.2377859600000001      7.4100094600000004
   596   1      14.230530590000001      8.3043080899999993      7.6110935599999996
   597   1             18.38846075      8.3007066300000005      7.4932153499999998
   598   1      22.344452740000001      8.2092924299999996      7.4497012600000003
   599   1      26.413541179999999      8.0998300400000005      7.4798258400000002
   600   1             30.52916617      8.2332266799999996      7.5612124400000003
   601   1      32.595838000000001             11.70162339      7.3807221299999997
   602   1      4.0342342899999997             11.61547053      7.6148927899999999
   603   1      8.0331305099999994             11.72587489      7.5399956799999996
   604   1      12.049749739999999              11.8669701              7.37953686
   605   1      16.020407639999998             11.56625831      7.5560809500000001
   606   1      20.177245429999999      11.758353189999999      7.6329340400000003
   607   1      24.387823099999999             11.71796267      7.5403223199999996
   608   1      28.425353730000001      11.797679179999999      7.5722256899999998
   609   1      2.0624902600000001      15.321203860000001      7.4379818100000001
   610   1      6.0929602599999999             15.25217426              7.56684468
   611   1             10.20427799             15.36161989      7.5047343199999998
   612   1             14.19089344      15.126014789999999      7.5645756100000003
   613   1      18.324440110000001      15.326305809999999              7.79646171
   614   1             22.31561894             15.27137059      7.4597317600000004
   615   1             26.50646794      15.160140820000001      7.4389496299999998
   616   1      30.639150390000001             15.11164381      7.4380267199999999
   617   1             -0.12041868      18.873166309999998      7.4183627400000001
   618   1      3.9880438800000002      18.672896130000002      7.5624302999999999
   619   1      8.1770231199999994             18.64514393              7.50081913
   620   1             12.17375562      18.693016029999999      7.6626278399999999
   621   1             16.33465035             18.56317314      7.6625107699999999
   622   1             20.55940287      18.859343540000001      7.4173890299999998
   623   1              24.4258357      18.710457160000001      7.4067244800000003
   624   1             28.39490026      18.663877769999999      7.6070325099999998
   625   1              2.09897898      22.241678050000001      7.3594363400000002
   626   1      6.1455875100000004      22.201762009999999      7.6340615400000003
   627   1      10.195022979999999      22.216532130000001      7.6952211400000001
   628   1      14.277873720000001             22.21436392      7.4742528100000003
   629   1      18.376429399999999      22.175431499999998      7.5011448999999999
   630   1             22.40466301      22.223083299999999      7.5655731499999996
   631   1      26.278995850000001             22.18738931      7.4738295199999998
   632   1             30.39825703      22.170528099999999      7.7534573299999998
   633   1      32.383116479999998      25.803584600000001      7.6026302899999996
   634   1      4.0416074599999998      25.779006760000001      7.5091005099999997
   635   1      8.1602678100000006      25.702081660000001      7.4247579699999999
   636   1             12.15362069      25.640552110000002      7.4422484899999999
   637   1      16.191625030000001      25.733671860000001      7.5334946800000004
   638   1      20.304734459999999             25.76727739              7.55239817
   639   1      24.341480799999999      25.779263700000001      7.3815874199999998
   640   1             28.38176713      25.776076939999999      7.6234090300000004
   641   1    0.035326259999999998      2.2607356799999998      8.0813150799999995
   642   1      4.0661612399999996      2.2470341600000001      8.0785578099999995
   643   1      8.1021481800000004      2.3428956200000002      8.0860868299999993
   644   1      12.085094059999999      2.3153220399999999              7.99261935
   645   1      16.258969149999999      2.3818191899999999              8.10458341
   646   1      20.186013070000001      2.3462607599999998      8.2665827499999995
   647   1             24.30742656      2.2939309799999998      8.1433366300000003
   648   1      28.266304479999999      2.3837447699999998      8.2272981299999994
   649   1      2.0946570599999998      5.9048884599999996      8.1710353199999997
   650   1      6.1463902299999997      5.8062301500000002      8.2951232200000007
   651   1              10.2509397      5.8710843700000002      8.1052484499999995
   652   1      14.010064330000001      5.8012079400000003              8.16711572
   653   1      18.235054099999999      5.8698733799999996      8.1611176699999994
   654   1             22.09611482      5.9843683299999997      8.2046159400000001
   655   1      26.288403760000001      5.7287242599999999              8.19672482
   656   1      30.510494779999998      5.7388233800000004              8.14989907
   657   1              0.01052321      9.4544004099999999      8.0772973199999996
   658   1      4.1345925699999997      9.3733337300000006      8.2507700600000007
   659   1      8.0305230299999995      9.4248285500000009      8.1691739200000004
   660   1      12.043227099999999      9.6197639400000003      8.0911332300000005
   661   1      16.295124569999999      9.3147771099999996      8.1912115700000001
   662   1      20.263533339999999      9.3851696100000002      8.2077030499999992
   663   1      24.398197840000002      9.4197854400000001      8.2605049000000008
   664   1             28.33877124      9.2612469599999994      8.2576770800000006
   665   1      2.0294949899999999             12.83781615      8.2639310500000001
   666   1      6.0903627900000004             12.87109171      8.2785514899999999
   667   1      10.120140340000001      12.976663930000001      8.2026742899999991
   668   1             14.03562385             12.78773992      8.2492427300000006
   669   1      18.098350920000001              12.9213019      8.0814559199999998
   670   1      22.377152769999999             12.98812186      8.0821949199999992
   671   1      26.404531609999999      12.854560449999999      8.2870655000000006
   672   1      30.712854650000001             12.84781557      8.2330776700000001
   673   1    0.078568899999999997      16.458077880000001      8.0745181299999995
   674   1      3.9608501399999998      16.381558170000002      8.2646669999999993
   675   1      8.1279638199999997      16.425826520000001      8.1911173399999999
   676   1      12.304857180000001      16.402572119999999      8.1737002600000004
   677   1      16.076920900000001      16.253998920000001      8.2743924900000003
   678   1             20.34327549             16.47238771      8.3399707200000002
   679   1      24.479254340000001             16.35193533      8.0404668000000008
   680   1             28.54635532             16.31685225      8.1553801499999992
   681   1              1.89648894      19.973906830000001      8.3158396799999998
   682   1      6.1226521399999996             19.79541622      8.0888637699999997
   683   1      10.211653139999999      19.855736650000001      8.1181587200000003
   684   1             14.30564817      19.848544789999998      8.1288629199999995
   685   1             18.42747653      19.842902670000001      8.0359196199999996
   686   1      22.508508389999999      19.812420790000001      8.2787176700000007
   687   1      26.367866029999998      19.894039240000001      8.2952345100000002
   688   1      30.374052150000001      19.795466210000001      8.2136443499999992
   689   1      32.535333489999999      23.435249689999999      8.1227607699999993
   690   1              4.16518327             23.38690283      8.0594030399999994
   691   1      8.0992351300000003              23.4204416      8.1649867100000009
   692   1      12.156829979999999      23.377574500000001      8.1349281700000002
   693   1      16.382377680000001      23.372690349999999      8.0646803499999997
   694   1             20.22260885             23.54144488      8.1862026300000004
   695   1      24.329204430000001             23.41742224      8.1968009100000003
   696   1             28.30747895      23.310586919999999      8.3350675200000008
   697   1      2.0494690000000002             26.91445555      8.1932783699999998
   698   1      6.1385032400000004             26.85069687              8.08217827
   699   1             10.21269942             26.85970983      8.2027778799999993
   700   1             14.07397658      27.040527529999999      8.1047207599999993
   701   1      18.345580649999999             26.88489019      8.1585495899999998
   702   1             22.27700579      26.979033900000001      8.2087734799999996
   703   1      26.345112969999999      26.989551070000001      8.0659056200000006
   704   1             30.40658208      26.957816359999999      8.4121476299999998
   705   1      32.620896170000002      28.288076490000002      9.0506211299999997
   706   1      4.3257813799999996      28.011238429999999      9.0208404200000007
   707   1      8.0712235200000002   -0.032177579999999997      8.9120605299999998
   708   1      12.108258470000001      28.298539210000001      8.9340677500000005
   709   1      16.262028579999999             28.15017916      8.9933550899999997
   710   1      20.374679919999998      28.197919970000001      8.8677931099999991
   711   1      24.363664790000001      28.164895919999999      8.9473175099999995
   712   1             28.32744259      28.243303310000002              9.01694058
   713   1              2.08677197      3.4673029099999999      8.8789964500000007
   714   1      6.1731242000000002      3.3449759999999999      9.0098146400000001
   715   1             10.26842828      3.4360720200000001      8.9089828900000008
   716   1      14.096077360000001      3.3787724899999998      8.8926542600000005
   717   1             18.16086975      3.5207840799999999      9.1014015100000005
   718   1      22.269189959999999      3.5572859600000002      8.9217030699999995
   719   1      26.257025980000002      3.3640488999999998      9.0540267500000002
   720   1      30.394812609999999      3.5215035600000002      9.0178006499999999
   721   1              0.11055076      7.1215495999999998      8.8924209300000001
   722   1      4.0178242199999996      7.0247189700000003      8.9745792200000007
   723   1      8.2394101099999997      7.1094950900000002      8.9046099400000003
   724   1      12.111674989999999      7.4091268499999998      8.9183640499999992
   725   1             15.97511102      6.8120700100000002      8.9155703499999994
   726   1      20.104451109999999      7.1018885799999998      8.9229984499999997
   727   1      24.213103329999999      6.9564206899999999      9.0205684599999998
   728   1      28.585357930000001      7.0729321499999998      8.9873244799999998
   729   1              2.10124304             10.54611472      8.9126821399999994
   730   1      6.0260790200000001      10.570349650000001      8.9645027400000004
   731   1      9.9979867200000001      10.418286849999999      8.9949532100000003
   732   1      14.145371600000001      10.424262799999999      8.9406419699999997
   733   1      18.347143330000002             10.60215573      8.8530837499999997
   734   1      22.347730810000002      10.589874440000001      8.9115235500000001
   735   1             26.41492646             10.44340234      8.9106383000000005
   736   1             30.31180316      10.497446740000001      8.9698074099999996
   737   1      32.636576040000001             14.27009084      8.9703172599999998
   738   1      3.8944175300000001             14.15505239      9.1514482200000007
   739   1      8.0266302700000001      14.070758319999999      8.9080504600000001
   740   1      12.136824069999999      14.135229799999999      9.0801656699999995
   741   1      16.242136160000001              13.9499513      9.0221855400000006
   742   1      20.189878109999999             13.89066833      8.9629901200000006
   743   1      24.384753230000001      14.151967989999999      8.9875727100000002
   744   1      28.766124990000002             13.95050926      8.8834885200000002
   745   1      2.0260947800000002      17.649593230000001      9.0582340000000006
   746   1      6.0163114699999998      17.480843159999999      8.9260570099999992
   747   1             10.34369927      17.456142889999999      8.9808280299999996
   748   1              14.0470667      17.623507190000002      9.0046367600000004
   749   1      18.109126660000001      17.504856589999999      8.9321464699999993
   750   1      22.463988959999998             17.42915159      8.8393184199999997
   751   1              26.6366044      17.544950669999999      8.9130425500000001
   752   1      30.482000660000001      17.425674950000001      8.9403158699999992
   753   1             -0.38373583      20.983443210000001      9.0828524500000007
   754   1      4.0991592199999998             20.95564838      8.9730789499999997
   755   1      8.2777889200000008             21.15135257      8.8613325199999995
   756   1             12.24116094             21.12530937      8.9019485500000002
   757   1      16.259031749999998      21.117260089999998      9.0116979399999995
   758   1      20.375576540000001      21.215238320000001      8.9116540900000007
   759   1      24.400107970000001             21.14282798              8.99805864
   760   1             28.45162165             20.99938135      8.9824632700000002
   761   1      2.0856245800000002      24.684508520000001      8.8164029900000003
   762   1              6.13255544             24.57941215      9.0973538299999994
   763   1              10.0510845      24.474284740000002      9.0054189600000001
   764   1             14.30589281      24.471718129999999      8.8825009399999999
   765   1      18.064631370000001             24.72536478      9.0852830699999991
   766   1      22.466496719999999      24.586796570000001      8.9058474600000004
   767   1             26.22438696      24.740359089999998              9.10085458
   768   1      30.360925330000001      24.521394099999998      8.9113415800000002
   769   2      25.209173419999999      26.272604650000002      9.3780780000000004
   770   2      23.539120530000002      26.093020809999999      9.1709982799999992
