N2-dn2-coord-10bar/700K/snapshots/frame-52261/run-000/../data.lammps (written by ASE) 

770 	 atoms 
2  atom types
0.0      32.470343392086264  xlo xhi
0.0      28.120142247150884  ylo yhi
0.0      31.213473999158239  zlo zhi


Atoms 

     1   1      2.0293964600000001      1.1716090800000001    0.023552650000000001
     2   1      6.0880008999999999              1.17168918              0.02556874
     3   1      10.146952280000001              1.17170328    0.025416459999999998
     4   1      14.205754900000001      1.1716496700000001              0.02501565
     5   1             18.26456816              1.17166478              0.02504435
     6   1             22.32338141      1.1716496700000001              0.02501565
     7   1      26.382184030000001              1.17170328    0.025416459999999998
     8   1      30.441135410000001              1.17168918              0.02556874
     9   1  9.1780000000000006e-05      4.6866847900000002    0.025581599999999999
    10   1      4.0587011400000002      4.6866847900000002    0.025581599999999999
    11   1      8.1174961000000003      4.6866290399999997    0.025584639999999999
    12   1             12.17638011      4.6866852999999997              0.02491202
    13   1             16.23517979      4.6866942700000003    0.025006210000000001
    14   1      20.293956519999998      4.6866942700000003    0.025006210000000001
    15   1      24.352756209999999      4.6866852999999997              0.02491202
    16   1      28.411640219999999      4.6866290399999997    0.025584639999999999
    17   1      2.0293964600000001      8.2016395800000002    0.026613040000000001
    18   1      6.0881071599999999      8.2016314300000008              0.02543782
    19   1             10.14701835               8.2017045    0.025156850000000001
    20   1      14.205766049999999      8.2017080900000003    0.024990459999999999
    21   1             18.26456816      8.2017077599999997    0.025091249999999999
    22   1      22.323370260000001      8.2017080900000003    0.024990459999999999
    23   1      26.382117969999999               8.2017045    0.025156850000000001
    24   1      30.441029149999999      8.2016314300000008              0.02543782
    25   1  9.2789999999999998e-05             11.71671873    0.025573410000000001
    26   1              4.05870014             11.71671873    0.025573410000000001
    27   1      8.1176017700000003             11.71668698              0.02497914
    28   1             12.17637068             11.71673069    0.025001590000000001
    29   1      16.235177310000001      11.716730249999999    0.025074039999999999
    30   1      20.293959009999998      11.716730249999999    0.025074039999999999
    31   1      24.352765640000001             11.71673069    0.025001590000000001
    32   1      28.411534549999999             11.71668698              0.02497914
    33   1      2.0293964600000001             15.23167155              0.02525285
    34   1      6.0881728300000004      15.231678799999999    0.025062859999999999
    35   1             10.14698486      15.231762639999999               0.0250786
    36   1             14.20578841             15.23176782    0.025201990000000001
    37   1             18.26456816              15.2317707    0.025149979999999999
    38   1      22.323347900000002             15.23176782    0.025201990000000001
    39   1      26.382151459999999      15.231762639999999               0.0250786
    40   1      30.440963480000001      15.231678799999999    0.025062859999999999
    41   1      32.470327990000001      18.746748629999999    0.024951939999999999
    42   1      4.0588083299999997      18.746748629999999    0.024951939999999999
    43   1      8.1175770200000006      18.746803499999999    0.025222040000000001
    44   1             12.17637459      18.746799750000001    0.025428470000000002
    45   1      16.235159400000001      18.746805200000001    0.025487360000000001
    46   1      20.293976919999999      18.746805200000001    0.025487360000000001
    47   1      24.352761730000001      18.746799750000001    0.025428470000000002
    48   1             28.41155929      18.746803499999999    0.025222040000000001
    49   1      2.0293964600000001      22.261939099999999    0.025844880000000001
    50   1      6.0881419299999999      22.261841799999999    0.025489439999999999
    51   1             10.14692954             22.26176895              0.02551757
    52   1             14.20573559      22.261804690000002    0.025639160000000001
    53   1             18.26456816             22.26178625    0.025640119999999999
    54   1      22.323400729999999      22.261804690000002    0.025639160000000001
    55   1      26.382206780000001             22.26176895              0.02551757
    56   1             30.44099439      22.261841799999999    0.025489439999999999
    57   1  5.6450000000000003e-05      25.776936450000001              0.02613327
    58   1      4.0587364700000004      25.776936450000001              0.02613327
    59   1      8.1175325399999991              25.7767713    0.024734180000000001
    60   1      12.176376469999999      25.776831090000002              0.02545323
    61   1      16.235145939999999      25.776775220000001    0.025273360000000002
    62   1             20.29399038      25.776775220000001    0.025273360000000002
    63   1      24.352759840000001      25.776831090000002              0.02545323
    64   1      28.411603769999999              25.7767713    0.024734180000000001
    65   1  0.00024266000000000001              2.34304215     0.80166565000000001
    66   1      4.0585502699999996              2.34304215     0.80166565000000001
    67   1      8.1157394600000003              2.34454954     0.80169402000000001
    68   1             12.17601256      2.3433829099999999     0.80116898000000003
    69   1      16.235258170000002      2.3433209100000001     0.80090046999999998
    70   1      20.293878150000001      2.3433209100000001     0.80090046999999998
    71   1      24.353123750000002      2.3433829099999999     0.80116898000000003
    72   1      28.413396859999999              2.34454954     0.80169402000000001
    73   1      2.0293964600000001      5.8582218700000004     0.80119762000000005
    74   1      6.0870566899999998      5.8583336700000004              0.80194851
    75   1             10.14649655              5.85853131     0.80121584000000001
    76   1             14.20597894      5.8582938599999999     0.80086840999999998
    77   1             18.26456816      5.8583798500000004               0.8010794
    78   1      22.323157380000001      5.8582938599999999     0.80086840999999998
    79   1             26.38263976              5.85853131     0.80121584000000001
    80   1      30.442079629999999      5.8583336700000004              0.80194851
    81   1  0.00019438999999999999      9.3717771800000005     0.80082061000000004
    82   1      4.0585985400000002      9.3717771800000005     0.80082061000000004
    83   1      8.1175070500000004      9.3725002699999997     0.80149060999999999
    84   1      12.176590020000001      9.3733583399999993     0.80088261999999999
    85   1             16.23512199      9.3733789200000004              0.80106506
    86   1             20.29401433      9.3733789200000004              0.80106506
    87   1      24.352546289999999      9.3733583399999993     0.80088261999999999
    88   1      28.411629269999999      9.3725002699999997     0.80149060999999999
    89   1      2.0293964600000001             12.88692854     0.80220621000000003
    90   1      6.0883212999999996             12.88743848     0.80138414999999996
    91   1      10.147128609999999             12.88859852     0.80085256000000005
    92   1             14.20571782      12.888558189999999     0.80113791000000001
    93   1             18.26456816      12.888409899999999     0.80109381000000002
    94   1      22.323418490000002      12.888558189999999     0.80113791000000001
    95   1             26.38200771             12.88859852     0.80085256000000005
    96   1      30.440815019999999             12.88743848     0.80138414999999996
    97   1              0.00012365      16.403222639999999     0.80145666999999998
    98   1      4.0586692700000002      16.403222639999999     0.80145666999999998
    99   1      8.1174337899999998      16.403825260000001     0.80097196999999998
   100   1              12.1761021             16.40390721     0.80133072000000005
   101   1             16.23503496      16.403861750000001     0.80140014999999998
   102   1      20.294101359999999      16.403861750000001     0.80140014999999998
   103   1      24.353034220000001             16.40390721     0.80133072000000005
   104   1      28.411702529999999      16.403825260000001     0.80097196999999998
   105   1      2.0293964600000001      19.919205120000001     0.80066369999999998
   106   1              6.08752564             19.91894023     0.80122479000000002
   107   1      10.146078839999999             19.91919038     0.80159137999999996
   108   1      14.204993419999999              19.9192584     0.80178742000000003
   109   1             18.26456816      19.919377350000001     0.80194975999999996
   110   1      22.324142899999998              19.9192584     0.80178742000000003
   111   1      26.383057470000001             19.91919038     0.80159137999999996
   112   1      30.441610669999999             19.91894023     0.80122479000000002
   113   1              0.00142012      23.434536609999999     0.80178442000000005
   114   1      4.0573728100000004      23.434536609999999     0.80178442000000005
   115   1      8.1165862000000004      23.433936769999999     0.80182306000000003
   116   1             12.17555218      23.433996919999998     0.80156656000000004
   117   1             16.23465491      23.434040110000002     0.80170828999999999
   118   1      20.294481409999999      23.434040110000002     0.80170828999999999
   119   1      24.353584130000002      23.433996919999998     0.80156656000000004
   120   1      28.412550110000002      23.433936769999999     0.80182306000000003
   121   1      2.0293964600000001      26.949875330000001              0.80297246
   122   1      6.0858208300000003      26.950066320000001              0.80215291
   123   1             10.14598146      26.949241430000001     0.80165810000000004
   124   1             14.20520604      26.948673230000001     0.80131923999999999
   125   1             18.26456816             26.94858318     0.80108193999999999
   126   1      22.323930279999999      26.948673230000001     0.80131923999999999
   127   1      26.383154860000001      26.949241430000001     0.80165810000000004
   128   1             30.44331549      26.950066320000001              0.80215291
   129   1      32.482011499999999      28.153530100000001              1.39157222
   130   1      4.2287978700000002   -0.056826639999999998      1.6441603199999999
   131   1      8.2616563999999997      28.155969800000001      1.6495652300000001
   132   1      12.221073949999999      28.125331200000002              1.42666874
   133   1             16.41151537    0.044053479999999999               1.2695741
   134   1      20.234988220000002      28.109287819999999              1.55584407
   135   1      24.465521039999999   -0.027900060000000001      1.5601293300000001
   136   1      28.330586279999999   -0.048672350000000003              1.46654372
   137   1              1.96018677      3.3751943999999998      1.4184901000000001
   138   1      6.3245270700000003      3.5360247899999999      1.4907611199999999
   139   1             10.15624802      3.5787102599999998      1.3451764399999999
   140   1      14.215119100000001              3.58274589      1.3713477700000001
   141   1      18.250082169999999              3.50984045      1.4615103300000001
   142   1      22.351803230000002      3.5206868400000002      1.5471503200000001
   143   1              26.3272409               3.5910237      1.3065721100000001
   144   1      30.299868650000001      3.6100112499999999      1.5026822200000001
   145   1   -0.081426460000000006      7.2223836600000002      1.3295178700000001
   146   1      4.0084191200000001      7.0513299900000002      1.5054548699999999
   147   1      8.1241925300000002      7.0222626500000001              1.14645135
   148   1             12.22444273      7.1571815000000001      1.7391802599999999
   149   1             16.16710634      6.9666864500000001              1.50708486
   150   1      20.204545329999998      7.1990070900000003              1.67848551
   151   1             24.49199188      6.9422477699999998      1.5508142600000001
   152   1      28.398790730000002      6.9801370499999997      1.4661365900000001
   153   1      2.0479722699999998             10.57268053              1.55974064
   154   1      6.0557276699999996             10.56702782              1.47124371
   155   1      10.260510480000001      10.638000979999999      1.5571067999999999
   156   1      14.389806330000001             10.43182069              1.71462848
   157   1      18.289261939999999      10.665539320000001              1.41117011
   158   1      22.413259310000001      10.440411080000001      1.3321914800000001
   159   1             26.45377641             10.46262243      1.4405685500000001
   160   1      30.478161830000001      10.521217480000001              1.33663237
   161   1   -0.066543469999999993      14.257553700000001      1.6471673200000001
   162   1      3.9771818900000002      14.032651939999999      1.4925251799999999
   163   1      8.2276443100000005      14.045082669999999              1.50908888
   164   1             12.23095039             14.13231886      1.6886767199999999
   165   1             16.32196553             14.11467092      1.4712509899999999
   166   1      20.467675790000001      13.994144540000001      1.0768048400000001
   167   1      24.307864039999998             14.09063598      1.4871072299999999
   168   1      28.484951089999999             14.20547393              1.52243453
   169   1              1.98693282             17.65682602      1.3816341599999999
   170   1               5.9772789      17.463119630000001      1.4544274699999999
   171   1      10.204288480000001             17.49641686      1.3200350000000001
   172   1             14.11926418      17.642472770000001      1.4976918299999999
   173   1      18.183594979999999      17.592255739999999              1.47096754
   174   1             22.23487471      17.543049400000001      1.3913025000000001
   175   1      26.431600899999999             17.71187557              1.21343651
   176   1             30.59554477      17.630891689999999      1.4777688899999999
   177   1      32.545967769999997      21.094984799999999              1.67050677
   178   1      4.0986644600000002      21.052364730000001              1.16692939
   179   1      8.0924650099999997      21.184515480000002              1.47817211
   180   1      12.181640720000001      21.178540819999998      1.4085682100000001
   181   1      16.388987019999998      21.023574459999999              1.60235255
   182   1      20.269653869999999      20.973405440000001      1.3513168499999999
   183   1      24.275683109999999      20.991665879999999              1.53787808
   184   1      28.346995010000001      21.113423000000001      1.4729473799999999
   185   1      1.9838151100000001      24.689952609999999              1.40053622
   186   1      6.1140535199999997      24.563532559999999      1.4870247299999999
   187   1      10.191116149999999      24.530914289999998              1.65288276
   188   1      14.134334409999999      24.548751280000001      1.4919796000000001
   189   1      18.254998929999999      24.626327310000001              1.35066117
   190   1      22.405984180000001             24.79075143      1.3802316299999999
   191   1             26.42157027      24.504170169999998              1.33781964
   192   1      30.309903550000001             24.68415925      1.5859201199999999
   193   1      2.0536209900000002              1.21238259      2.3273182399999999
   194   1               6.2605857      1.1672243099999999              2.60633676
   195   1      10.240734610000001      1.1559007699999999      2.4734432000000002
   196   1      14.235176879999999      1.1969310500000001      2.4997568600000002
   197   1      18.361981629999999      1.3490419199999999              2.63156721
   198   1      22.452803849999999      1.1997000600000001      2.3977990500000002
   199   1             26.46796338              1.23196901      2.4930383200000001
   200   1             30.42386973              1.34757744      2.4501343200000001
   201   1    0.093422980000000003      4.8546897500000004              2.21278167
   202   1              4.12096003      4.6510977000000002      2.3042261000000002
   203   1      8.1244070300000004      4.8484963299999997      2.3432920099999999
   204   1      12.142546210000001      4.6982714999999997      2.4814909699999999
   205   1      16.390956419999998      4.6771647500000002      2.5045826500000001
   206   1             20.25315067      4.6292734800000002      2.5171301100000001
   207   1      24.271897339999999      4.8068940299999996      2.5748745500000001
   208   1      28.397850479999999      4.6368090500000001      2.3742133700000001
   209   1      2.1207923499999999      8.3253565999999992              2.43015428
   210   1      6.3122218700000001      8.2475319999999996      2.3364272100000001
   211   1             10.03935317              8.35788142      2.3473767099999998
   212   1      14.367050669999999      8.1212071899999998      2.3428096699999998
   213   1      18.113049709999999      8.1959289999999996      2.5917422499999998
   214   1      22.220701890000001      8.2666398300000008      2.3618426100000001
   215   1      26.441980489999999      8.3311150200000004      2.4623888900000002
   216   1      30.498513330000002      8.3782131999999994      2.3404151999999998
   217   1   -0.046409520000000003      11.756340460000001              2.37375413
   218   1      4.0270657400000003               11.772632      2.4591360099999999
   219   1      8.2483180800000007      11.548206950000001      2.5246529400000002
   220   1             12.26064203      11.627393229999999      2.3660406200000001
   221   1      16.465091879999999      11.709613620000001              2.48383427
   222   1      20.411031789999999             11.63362966      2.4344607200000001
   223   1      24.450996530000001             11.58828946              2.40781183
   224   1             28.59445212             11.82011037              2.33643629
   225   1      2.1283645999999998             15.22126596      2.4282499500000001
   226   1      6.2141069399999997      15.022627930000001      2.2267617500000001
   227   1             10.19647438             15.37262816      2.4510992800000002
   228   1             14.17680024      15.332294900000001      2.3533107599999998
   229   1      18.443367030000001             15.23021692      2.3496711800000001
   230   1      22.278239129999999             15.19713071      2.3514922999999999
   231   1              26.4013028             15.26514042      2.4290484399999999
   232   1      30.530376459999999             15.45618193      2.4722750200000001
   233   1    -0.12537614999999999      18.839014509999998               2.4867846
   234   1      4.0133835400000004      18.809323030000002      2.3411876999999999
   235   1      8.0863310199999994      18.652819399999998      2.2351260900000001
   236   1             12.19392246      18.742260120000001      2.3847708500000002
   237   1      16.196065269999998      18.467132769999999      2.3738886099999998
   238   1             20.24680043      18.771296509999999      2.2478250200000001
   239   1             24.44868602      18.850888950000002      2.4363652299999998
   240   1             28.55115271             18.65444475      2.3996623800000001
   241   1      2.1233388299999998             22.50652054      2.3872176000000001
   242   1      6.0392831999999999             22.22103731      2.5649003100000001
   243   1             10.14481563      22.312964350000001      2.4519168499999999
   244   1             14.23836545      22.216678250000001      2.4557356299999999
   245   1      18.494928869999999             22.18619236      2.4482265600000002
   246   1              22.3316312      22.145190079999999              2.45360333
   247   1      26.380953559999998             22.23965845              2.36803718
   248   1             30.38598957             22.34865014      2.3828462199999998
   249   1    -0.16760157000000001      25.775308079999999              2.45216301
   250   1      4.0771885399999999      25.761014620000001              2.50311342
   251   1      8.1057263899999992      25.822485990000001      2.4619831799999998
   252   1      12.172987450000001      25.902212540000001              2.42511119
   253   1      16.334725049999999             25.81007529      2.5744235600000001
   254   1      20.363948669999999      25.709827440000002              2.37349246
   255   1      24.396833440000002      25.545190470000001      2.4283955100000001
   256   1             28.21466174             25.66792895      2.4855740900000001
   257   1  -0.0075152800000000001      2.5766687699999999              3.19551447
   258   1              4.04630198      2.2701680400000002      3.2959715699999999
   259   1      8.2903292900000007      2.2646794200000002              3.26175221
   260   1      12.159604010000001              2.51714678      3.2353552099999998
   261   1      16.208679109999999              2.45915566      3.2197401800000001
   262   1      20.413528020000001              2.42844039      3.5059268000000001
   263   1      24.422133389999999              2.40675529              3.08796509
   264   1      28.493254149999999      2.3776752299999999      3.3066398700000001
   265   1      2.0781326600000001      5.8917872100000004      3.2585585799999999
   266   1      6.1196709599999997      5.6935188300000004      3.1267818300000001
   267   1      10.150442999999999      5.9773365099999998              3.33628232
   268   1             14.37822622      5.6824249900000003      3.1232222799999998
   269   1      18.193865200000001      5.8227594700000003      3.4142534900000001
   270   1      22.370751729999999      6.0041204700000002      3.2699599099999999
   271   1             26.55634409              5.80773663      3.2014181100000001
   272   1      30.483246269999999      5.9793632299999997      3.0623410500000001
   273   1    0.066606739999999998      9.4146814800000005              3.04746674
   274   1      4.1601416100000002      9.4072592900000007              3.29017274
   275   1      8.1538849100000004      9.3350764999999996      3.2966460400000002
   276   1      12.327043979999999      9.2102109999999993      3.3558704000000001
   277   1      16.197020850000001      9.3511288799999992      3.4414605599999999
   278   1      20.297594709999998      9.3174485300000001      3.4076504500000002
   279   1             24.25420664      9.3200917499999996      3.4631479999999999
   280   1      28.358891589999999      9.4489042800000007              3.31690906
   281   1      2.0466086699999999      12.918430300000001              3.40641164
   282   1      6.1349419699999999             12.79122761      3.2220094700000002
   283   1             10.17031248             12.94527504      3.3612533899999999
   284   1             14.13978026             13.04889483              3.24776058
   285   1             18.54598923      12.785024099999999      3.1201368199999999
   286   1      22.305454319999999             12.73755324      3.4228454300000002
   287   1      26.402476709999998      13.010466259999999      3.2478033900000001
   288   1      30.493170289999998             12.99233699      3.2883988899999999
   289   1    0.070529599999999998      16.548651540000002      3.0418222099999999
   290   1      4.1565593099999996      16.513420490000001      3.3461749900000002
   291   1      8.2138439299999995      16.336741750000002      3.1303914900000001
   292   1      12.286929730000001      16.490950089999998      3.3417213499999998
   293   1      16.273663249999998             16.28914829      3.3753844599999998
   294   1             20.36343346      16.413217970000002      3.1948511100000001
   295   1      24.317015600000001      16.438578199999998      3.1737048099999998
   296   1             28.33077613             16.41833914      3.3790869300000002
   297   1              1.94366638      20.146096579999998              3.25801936
   298   1      6.0750451600000002              19.9492537              3.28001583
   299   1             10.07925816      19.927653469999999      3.3184964400000001
   300   1      14.381527009999999             19.92506405              3.22755284
   301   1      18.232414049999999      19.819450960000001      3.2696448500000002
   302   1      22.274401610000002      19.739922109999998      3.2963273900000001
   303   1      26.539961380000001      19.924249620000001              3.27109154
   304   1      30.453905670000001      20.173526389999999      3.2406185199999999
   305   1      32.519234249999997      23.522476099999999      3.2677873100000001
   306   1      4.1177269799999996      23.443582630000002      3.0538718999999999
   307   1      8.1753336900000004      23.458483170000001      3.2603645999999999
   308   1      12.270263630000001             23.42596911      3.2715387699999998
   309   1             16.20979157      23.499057010000001      3.3315995300000001
   310   1      20.544741420000001             23.45103241      3.4214969900000001
   311   1             24.34688817      23.301307909999998      3.2366729699999999
   312   1      28.414605139999999      23.362646340000001               3.3337056
   313   1              1.86025616             26.97839973      3.2698333399999999
   314   1      6.2641249300000004      26.882873920000002      3.3466019500000002
   315   1      10.063740640000001             27.02193467      3.2466040899999999
   316   1              14.3196119      26.934263900000001      3.1449583799999998
   317   1      18.306439829999999      27.034340960000002              3.26429583
   318   1      22.182553330000001      26.993565950000001      3.4793858200000001
   319   1             26.31987092      27.078617739999999      3.2885277199999998
   320   1      30.497964830000001             26.99934609      3.3032001900000001
   321   1      32.434767110000003      28.364017990000001      4.0633525199999996
   322   1      4.0941706099999999             28.14454611      4.1807701499999999
   323   1      8.4072276299999995      28.226811810000001      4.4002363300000003
   324   1      12.240302939999999      28.204757919999999      3.9075773599999999
   325   1             16.23265928              0.11737127      4.3362122400000001
   326   1      20.241233439999998      28.295806169999999              4.36512587
   327   1      24.316437270000002    0.012370239999999999      4.0986502199999997
   328   1             28.40915609  -0.0013064400000000001      4.0134805800000004
   329   1              1.97158564              3.52603249      4.0612716600000001
   330   1      6.1450908399999999              3.66219867      4.2085333599999997
   331   1             10.20167743              3.51405783      4.0854997300000004
   332   1             14.22009611      3.5433740399999998      3.9747889700000001
   333   1      18.403978070000001      3.4747951800000001      4.3005295200000004
   334   1      22.326957320000002      3.7022089299999998      4.2503936500000004
   335   1      26.485163119999999      3.4278905900000001      3.9546752199999999
   336   1      30.275495150000001      3.7251515500000001      4.0956464199999996
   337   1    0.091012709999999997      7.1316225299999996      3.9538323100000001
   338   1      4.1781431900000001      7.0863003500000001      4.0087376199999998
   339   1      8.1570986199999993      6.9984571600000001      4.0884074500000001
   340   1      12.478554340000001      7.0816682499999999      4.2968944000000002
   341   1      16.357506470000001      7.0281114899999997              4.19246271
   342   1      20.262204879999999      7.0549147400000001      4.2038765299999996
   343   1             24.34957576      7.0871093299999997      4.1921684900000002
   344   1      28.492509030000001      7.1893728899999996      4.0215405000000004
   345   1      2.1847568599999998      10.641293940000001              4.19725868
   346   1      6.1058920600000004      10.598808440000001      4.0816663000000002
   347   1             10.22182192             10.28771738      4.0051954099999998
   348   1      14.151790269999999              10.5448719               4.1511787
   349   1      18.345154340000001             10.52528285      4.0002997799999997
   350   1      22.444458229999999             10.58712733      4.2153659000000001
   351   1             26.38798568      10.683872210000001      4.0809817400000004
   352   1      30.514218929999998             10.59675667      4.0767514299999998
   353   1               32.551074             14.32775582      4.2292901399999998
   354   1      4.3232992699999997             14.35549455      4.0746835600000004
   355   1      8.1787548000000001             13.94277587      3.9921304499999999
   356   1             12.07002685      14.155639430000001      4.3312920000000004
   357   1      16.392071439999999             14.03836926      3.9342333699999998
   358   1      20.281417439999998             14.14261625      3.8826883300000001
   359   1             24.24579357             14.18198464              4.16750781
   360   1      28.361283920000002             14.12360743              3.98240923
   361   1              2.17709967      17.528753250000001              3.97488368
   362   1      6.2803722899999999      17.661488859999999      4.0195587899999996
   363   1      10.117121320000001      17.679682159999999      3.9010375599999998
   364   1               14.496086      17.557952669999999      3.9603287699999998
   365   1      18.355584140000001      17.544087810000001      4.0164764799999997
   366   1      22.312095320000001      17.431728029999999      4.1113782700000003
   367   1             26.41703575              17.5683857      4.0652322400000003
   368   1             30.42748417             17.68728067              4.08880029
   369   1              0.05229346      21.218286209999999               4.4265257
   370   1      4.0350582199999998      20.967904659999999      4.0286069299999996
   371   1      8.1426847700000007      21.225098060000001      4.1500140200000004
   372   1             12.20498939      21.111754550000001              3.98011983
   373   1      16.157181399999999      21.265616680000001      4.0720389700000004
   374   1      20.485184530000002      21.214313910000001      3.9349531299999998
   375   1             24.45135324             21.07750029      4.1323942999999996
   376   1             28.43020366             21.10814208      3.9404042000000001
   377   1      2.1422460999999999      24.610161720000001      4.1866466200000003
   378   1      5.9948000600000002      24.471634439999999      4.1278139100000004
   379   1             10.13345586      24.768528289999999      4.0372356299999996
   380   1      14.144717379999999      24.628492479999998              4.01847435
   381   1             18.25710698             24.59856744      4.0934285099999999
   382   1              22.3939357             24.67117683      4.1441941299999998
   383   1      26.299852810000001      24.686398499999999      4.0666559299999996
   384   1             30.48465839      24.720026730000001              4.02105903
   385   1               2.0412138      1.2057120100000001      4.8102669899999997
   386   1      6.1711940399999996              1.29389862      5.0387555600000002
   387   1             10.33849333      1.2289635800000001      4.8323678699999997
   388   1             14.24994702               1.0329485      5.0801532700000003
   389   1      18.274000879999999      1.1571104400000001      5.2650875600000004
   390   1             22.41321121              1.11634988              5.00638615
   391   1      26.401249360000001              1.03809408      5.1058108400000002
   392   1      30.305440870000002      1.3557376999999999      4.7972896599999997
   393   1             -0.01313139      4.7938787899999999      4.7492285299999999
   394   1      4.0699086700000002      4.7802606699999997      5.0122891300000001
   395   1      8.3108048700000001      4.7370716699999997      4.7604088300000003
   396   1             12.27948926      4.6095523800000002      4.9406008000000003
   397   1             16.26697708      4.6887150599999998      4.9313581800000001
   398   1             20.32034217      4.8925047800000003      5.1116832499999996
   399   1      24.284305100000001      4.7024026900000004      4.8585516200000001
   400   1      28.477538410000001                4.990729      5.0102293900000001
   401   1      2.3200039700000001      8.3389686899999997      4.8814244599999999
   402   1      6.0289401199999997      8.2692447199999997      4.7806970599999996
   403   1             10.27690759      7.9725184799999997      5.0200828900000003
   404   1      14.394106730000001      8.3351162399999996              5.29258849
   405   1      18.340750239999998      8.2302324500000008      4.9040393199999999
   406   1      22.373577569999998      8.2602376399999997      4.9941469999999999
   407   1      26.371342039999998      8.1406891600000009      4.8685218700000004
   408   1      30.511485409999999      8.4109252399999992      4.9662594899999997
   409   1   -0.093327770000000004      11.798041810000001              4.93792806
   410   1      4.0739010200000001      11.965116719999999              5.11818536
   411   1      8.2112639600000001      11.779659150000001      5.1735166899999996
   412   1      12.014311449999999             11.85792408      4.8865213799999996
   413   1      16.182350230000001      11.802933489999999      4.8256973299999997
   414   1             20.29070707      11.698740170000001      4.8757454899999999
   415   1      24.228816030000001      11.728307340000001      4.9137315499999996
   416   1      28.439599940000001      11.786321969999999      4.7675571999999997
   417   1      2.1375090399999999             15.38879541      4.8311838299999996
   418   1      6.2630837499999998      15.259828130000001      4.8226624500000002
   419   1             10.15188328             15.41983104      5.1636988300000004
   420   1             14.42793839              15.1563587      4.8666580799999997
   421   1              18.3028628      15.263318229999999      4.9724197999999999
   422   1             22.21541276      15.185228459999999      4.9374687000000002
   423   1      26.272443160000002             15.27896951      4.9471683500000001
   424   1      30.205253949999999             15.12125696      5.0152259900000002
   425   1    0.059353129999999997      18.732695499999998      4.9163051099999997
   426   1              4.14525991             18.83573621      4.8629974699999998
   427   1      8.2059291999999999              18.7428898      4.9369618600000003
   428   1      12.430243040000001             18.70691918      4.7943841599999999
   429   1              16.5089568      18.759478770000001      4.8851180999999997
   430   1      20.345878859999999             18.82969447      4.8477572599999998
   431   1             24.40473471      18.836434180000001              4.78172072
   432   1      28.448582129999998      18.800971239999999      4.9483915700000001
   433   1      2.2629728199999999      22.106393709999999      4.8019002899999998
   434   1      6.0009124600000003             22.12028055      5.0512836800000001
   435   1      10.328837760000001      22.368332349999999      4.9626174599999997
   436   1             14.02822325      22.232533910000001      5.0888181799999996
   437   1      18.129304869999999      22.346020679999999              5.06109718
   438   1      22.373422590000001      22.372596359999999      5.1210821900000001
   439   1             26.45577432      22.268927990000002      4.8303394500000003
   440   1             30.50548869      22.379128569999999      4.9113715200000003
   441   1      32.564577749999998      25.988004719999999               4.8065419
   442   1      4.0759188899999996      25.699280529999999      4.7560588499999996
   443   1      8.2820300699999994             25.83219205      5.0513451199999997
   444   1      12.208375910000001             25.86905496      4.9387605399999996
   445   1      16.165816499999998      25.879963629999999      4.9189000600000004
   446   1             20.25738428      25.748580140000001      4.8169008199999999
   447   1      24.388229209999999             25.74028749      4.8679056699999999
   448   1             28.51424755      25.878526340000001      5.1298824600000001
   449   1   -0.084676050000000003      2.4554440400000002      5.6223796100000003
   450   1      4.1974946600000003      2.2951771700000001      5.7049959599999998
   451   1      8.1661839799999996              2.35664177      5.8580676199999999
   452   1             12.42958112      2.2670961599999999      5.7042520200000002
   453   1      16.293818529999999      2.3344412999999999      5.9146053399999996
   454   1      20.437871009999999      2.4208737400000002      5.9268969800000004
   455   1      24.352721949999999      2.3802182799999998      5.6082832099999997
   456   1      28.444631179999998      2.5864085399999999      5.7890133199999996
   457   1      2.0384009000000001      5.9774391199999997      5.7084189399999996
   458   1      6.2813817600000004      5.8183229299999999      5.6562057299999999
   459   1             10.44277086      5.7348968899999999      5.8630216099999997
   460   1      14.183113840000001      6.0202872200000002              5.78212685
   461   1      18.175298389999998      5.7975078499999997      6.1039370699999997
   462   1      22.402120830000001      5.7733846199999999      5.9615664500000003
   463   1      26.246834840000002      5.8049033400000001      5.8630861699999999
   464   1             30.56788431      5.8751543100000001      5.5333442699999997
   465   1      32.758792909999997      9.4545190300000002      5.8332659199999997
   466   1      4.1502398100000004      9.4955942600000007      5.7960577300000002
   467   1      8.1564245500000006      9.3300468199999997      5.7596776299999997
   468   1      12.099838050000001      9.5817834200000007      5.8048869700000001
   469   1      16.507358809999999      9.4781337200000007      5.7723288000000004
   470   1             20.29968719      9.3043594299999999      5.8789661600000001
   471   1      24.299129369999999      9.5465859599999998      5.8667513400000004
   472   1      28.400226270000001      9.3892674300000003      5.8108795300000002
   473   1      2.0847705400000001      13.065923440000001      5.9864354799999999
   474   1      6.1843676299999997      12.909490809999999      5.8660363499999999
   475   1             10.13930287             13.01585071      5.9518206100000004
   476   1             14.12804414             12.92903664              5.70257741
   477   1             18.20370041      12.963751800000001      5.6252242499999996
   478   1      22.350831580000001             12.85784248      5.6870045400000002
   479   1      26.255483600000002             13.05089959      5.7758172600000002
   480   1             30.41749664             12.94955781      5.8127421799999999
   481   1      32.468435579999998      16.273563759999998      5.6726664800000002
   482   1              4.14535053             16.48845845      5.6788890500000004
   483   1      8.1205061399999998      16.440342879999999      5.9479620200000003
   484   1      12.302268099999999      16.294232279999999      6.0611565599999997
   485   1              16.2003226      16.628868449999999      5.7205259699999997
   486   1      20.268516649999999      16.518302370000001      5.6629801000000004
   487   1             24.30556588      16.405926449999999      5.6753019499999997
   488   1             28.38016665      16.481322070000001      5.7629412499999999
   489   1              2.19232453      19.880200970000001      5.7814611200000003
   490   1      6.0940188300000004              19.8394172      5.8100497500000001
   491   1      10.275421420000001      19.852749849999999      5.7621479899999999
   492   1      14.289808860000001             19.83003386      5.7415647099999996
   493   1      18.276603479999999      20.002209329999999      5.7649000299999997
   494   1      22.306339550000001             19.77304569              5.75163534
   495   1              26.4702932             19.89333663      5.7318292599999996
   496   1             30.63668839              20.0597447      5.9737403499999999
   497   1      32.641645339999997      23.422430649999999      5.8370751800000003
   498   1              4.19333051      23.577867349999998      5.7733280499999999
   499   1      8.3606357500000001      23.459384450000002      5.6970505999999999
   500   1      12.231983809999999      23.343862609999999      6.0711138699999996
   501   1      16.161591550000001      23.644777860000001      5.6602641900000004
   502   1             20.26593639      23.507399159999999      5.7401040500000002
   503   1      24.632786060000001             23.38446823      5.6774456600000001
   504   1      28.525665140000001             23.47230446      5.7280773900000002
   505   1              2.07563605             26.98893588      5.6823297500000001
   506   1      6.3140657200000003      26.978845020000001      5.8399200999999996
   507   1             10.36510408      27.046554619999998      5.9426124500000004
   508   1             14.30869306      26.896372249999999      5.6449938399999997
   509   1      18.400064409999999      26.996193649999999      5.9504376800000003
   510   1      22.523418620000001      26.788610240000001              5.91845365
   511   1             26.60899264      26.831299619999999      5.7432792800000003
   512   1             30.49987711      27.013859780000001      5.8797517299999997
   513   1   -0.076063409999999998    0.016715399999999998      6.5848263899999999
   514   1      4.2548625500000004      28.196320920000002      6.6448760800000004
   515   1      8.3972067300000006      28.037288239999999      6.7537170900000003
   516   1             12.37145248      28.106259130000002      6.6806158699999996
   517   1      16.363527520000002   -0.020483729999999999      6.9046314799999999
   518   1      20.471774180000001              0.12296419      6.8273047299999998
   519   1      24.456306080000001      28.319515110000001      6.7102179800000004
   520   1             28.49430474      28.376315009999999      6.5970324600000003
   521   1      2.1381233100000001      3.6301265599999999      6.4349289499999998
   522   1      6.0028411000000004      3.4894887699999999      7.1663739299999998
   523   1              10.3199302      3.4769225000000001      6.5842535299999998
   524   1             14.08913783      3.5358050799999998      6.5038151199999996
   525   1      18.179633119999998      3.3254772699999999      6.9683784800000002
   526   1      22.404294459999999      3.5099470899999998      6.9066441599999999
   527   1      26.246410520000001      3.3181895199999998      6.6386494899999997
   528   1      30.436038530000001      3.5471081999999998      6.5898112600000003
   529   1      32.482136199999999      7.1737192299999997      6.9517814700000002
   530   1      4.0919781300000002      7.0943271499999998      6.5214991500000004
   531   1      8.1404323900000009      7.0671347500000001      6.4610764500000002
   532   1             12.33513292      7.3873862099999998      6.7397129099999997
   533   1      16.395739079999998      7.0531491099999997      6.7187403999999997
   534   1      20.189998209999999      7.0716783300000001      6.6230637899999998
   535   1      24.306185899999999      7.1205724799999999      6.6890305000000003
   536   1      28.419024610000001      7.0215264399999997      6.6477966799999999
   537   1              2.02544462      10.638715550000001      6.6778873499999998
   538   1      6.1775114799999997             10.66187236      6.5120269999999998
   539   1      10.086324919999999             10.60430803      6.4781090700000004
   540   1             14.33544711             10.67977887      6.5229457699999998
   541   1      18.350534079999999             10.66604654              6.42545535
   542   1             22.23341529             10.59184806      6.7070911600000001
   543   1             26.34753684      10.619400969999999      6.7109138000000002
   544   1      30.450491660000001      10.640325239999999      6.7023417299999997
   545   1      32.596147790000003      14.124832720000001      6.8029550099999998
   546   1      4.0672471799999999             14.18531396      6.7586415200000003
   547   1      8.2116686399999992      14.291904049999999      6.6485623299999999
   548   1      12.050224350000001             14.02088882      6.9568195399999997
   549   1      16.087490689999999      14.182926439999999      6.2724273200000003
   550   1             20.23121591             13.99172325      6.5533390200000001
   551   1             24.39015251             14.21218571      6.6601767000000001
   552   1      28.302931480000002             14.14055164      6.6887942100000002
   553   1              2.00699877             17.59424688      6.5143939800000004
   554   1      6.2566266300000004      17.657744350000002              6.66804576
   555   1      10.282646980000001      17.568480959999999      6.8293504399999998
   556   1      14.148935789999999      17.623286700000001      6.6456563199999996
   557   1      18.322048370000001      17.681423670000001      6.9500875200000003
   558   1      22.288426529999999      17.534545269999999      6.4425626100000004
   559   1      26.330353129999999      17.621852799999999      6.5260757399999996
   560   1             30.59008433      17.845493650000002      6.6988445399999996
   561   1     0.17559628999999999      21.129025120000001      6.7946029000000001
   562   1              3.99950574      21.135458549999999      6.5758531199999997
   563   1      8.2230157899999998             20.87663414      6.6082957799999997
   564   1             12.10846817      21.051053410000002      6.7653527999999996
   565   1      16.489135529999999      21.252333409999999      6.6742650799999996
   566   1      20.190431029999999      21.044223639999998      6.4437512899999998
   567   1             24.31348049      20.927955069999999      6.6101728800000004
   568   1      28.566073459999998      21.168852130000001      6.4978847000000002
   569   1      2.1351758699999999             24.47096058      6.4640406500000003
   570   1      6.2713701899999998      24.474124239999998      6.6906990500000001
   571   1             10.35677197             24.70380776      6.7453329499999999
   572   1             14.24894576      24.676505800000001      6.7361868500000002
   573   1      18.363674750000001      24.671825389999999      6.4418719700000002
   574   1      22.518831800000001             24.35498436      6.5539780399999996
   575   1      26.547281640000001      24.643413219999999      6.5559360599999996
   576   1      30.594167179999999             24.68363806               6.5268207
   577   1              2.04275853      1.2769930899999999      7.2425702599999999
   578   1      6.1239060299999997              1.18437426      7.4041039900000003
   579   1      10.345398380000001      1.1344141999999999      7.4486319500000002
   580   1      14.255799639999999      1.0567473999999999      7.6901275299999998
   581   1      18.461857760000001      1.1063970700000001      7.4014424600000002
   582   1             22.51275313               1.3263292      7.4417949300000004
   583   1             26.53279487      1.2851501000000001      7.6922252699999998
   584   1             30.60035182              1.28048052      7.3832941500000002
   585   1      32.581636879999998      4.8584101400000002      7.3609466299999999
   586   1      4.0049824000000003      4.9567705699999998      7.4200097500000002
   587   1      8.1073188799999993      4.6524483700000001      7.1289109499999999
   588   1             12.29182441      5.0311418799999998      7.5545021300000004
   589   1      16.014022059999999      4.7426109099999998      7.5362948200000002
   590   1      20.472177240000001      4.9488968199999999      7.6614559599999996
   591   1             24.40222339      5.0385514499999999      7.7659906200000002
   592   1      28.364457000000002      4.6345713499999999      7.6396043300000001
   593   1      2.1314396800000002      8.3735756499999994      7.3597697899999996
   594   1              6.12249161      8.2397583099999991              7.30171671
   595   1      10.182892710000001      8.1955504700000006      7.5603474400000001
   596   1      14.522810209999999      8.4258255399999999      7.6703263799999997
   597   1      18.262748290000001      8.1663698300000007              7.37998815
   598   1      22.370679320000001      8.4489634200000001      7.5492739899999997
   599   1      26.306013610000001      8.4080077699999993      7.2006831599999996
   600   1      30.362147629999999      8.4070780000000003      7.5858858800000002
   601   1      32.605249020000002             11.75650838      7.4736416700000001
   602   1      4.0853572500000004      11.795224129999999      7.5151174200000002
   603   1      8.1446327299999997      11.928173989999999      7.9400681899999999
   604   1              12.3260895      11.612741529999999      7.3835425299999997
   605   1             18.35321678             13.12552844              8.01941259
   606   1      20.352529369999999      11.851967999999999      7.3880759500000002
   607   1      24.373745759999998      11.775346020000001      7.5905242800000003
   608   1      28.393202649999999             11.70307317      7.2411656100000004
   609   1              1.99387542             15.44819188      7.4938032000000003
   610   1      6.0920599800000002      15.321560030000001      7.7552978799999996
   611   1             10.33355955      15.352316780000001      7.8140189400000004
   612   1      14.341388800000001             15.29602788      7.7016030100000004
   613   1      18.117419999999999      15.245364739999999      7.3730033300000004
   614   1             22.41681835             15.18425818      7.4444692999999997
   615   1      26.423057790000001      15.418232509999999      7.3850366000000003
   616   1              30.4707203             15.40298935      7.3948237900000002
   617   1     0.16639536999999999      19.021352390000001      7.7511453399999999
   618   1      4.1983672900000002      18.751870369999999      7.4362351999999996
   619   1      8.2267572999999992      18.840496980000001      7.7354709899999996
   620   1             12.30492894      18.713581770000001      7.7502653099999996
   621   1      16.259239789999999      18.874812160000001      7.2495439599999996
   622   1      20.390603410000001             18.57508052      7.4237091399999997
   623   1      24.141919940000001             18.79344777      7.1436109500000002
   624   1             28.50830397             18.73124456      7.4085586799999996
   625   1      2.1374715100000001      22.280325560000001      7.7782455400000003
   626   1      6.1077874699999999      22.122699019999999      7.6894396199999999
   627   1      10.109326640000001      22.062894969999999      7.5489573200000004
   628   1             14.37874105             22.19159793      7.5310265300000001
   629   1             18.48217189             22.38097363      7.6489383399999999
   630   1      22.458879889999999      22.087023810000002              7.68862047
   631   1      26.689767109999998      22.370854720000001      7.3283415099999996
   632   1             30.48891235      22.245196490000001      7.3874914900000004
   633   1     0.21221371999999999             25.89471627      7.5630857200000001
   634   1      4.1035548799999999      25.808864450000002      7.3922136099999998
   635   1      8.3742859200000002      25.723992979999998              7.53236974
   636   1      12.478636829999999      25.837227970000001      7.8512423099999999
   637   1      16.493266120000001      25.618545470000001      7.3905266300000001
   638   1      20.605025829999999             25.73887792      7.2496267899999998
   639   1      24.644612120000001      25.884091130000002      7.4094985800000002
   640   1              28.6396114      25.808075370000001      7.4927146999999996
   641   1               1.7965446              6.06056127      8.0994394599999993
   642   1      2.2347309100000001      1.4105993100000001      9.7431743300000004
   643   1      10.067797990000001      3.4494646599999998      9.2208710200000006
   644   1              12.2328537               2.3292107      8.1806179399999994
   645   1             12.33670366             28.10032524      9.2102678999999998
   646   1             16.09003598      2.2591415000000001      8.4588462199999999
   647   1      26.385168230000001              3.69762923      8.9001611700000005
   648   1      28.589561400000001      2.3553432999999999              8.43878606
   649   1      4.9613632000000001      4.3232448300000001      9.5867609900000001
   650   1              2.30912775      27.076471470000001      8.3499626500000002
   651   1      13.494847829999999              3.86927975      9.3663317199999998
   652   1             14.45184742      10.739953330000001      9.0326306200000008
   653   1      24.464531210000001      9.3827452499999993      8.2800536900000008
   654   1              0.18935599              0.12312288      9.1034449599999991
   655   1      18.261735290000001      5.5291094000000003      8.5076829800000002
   656   1      3.9248093800000001              7.01508515      9.0195996100000002
   657   1      7.9588058699999999      9.5155067100000004      8.3396357499999993
   658   1      8.2953600200000004      14.165912970000001      9.1627542900000005
   659   1      6.0418796500000003      8.1870593700000001      9.7220219300000004
   660   1              9.95000061              5.80268637      8.1617613500000008
   661   1             14.45072405      20.076841290000001      8.3393663399999998
   662   1             28.29518976      9.0754253299999998      8.1436383400000008
   663   1      19.932531449999999      7.1479337999999997      9.1184345199999992
   664   1      32.447881500000001      9.3844961100000006      8.2538633299999997
   665   1              12.0869398      9.2778132499999995      8.3391661300000006
   666   1              4.06889682      16.531459389999998      8.2310850799999997
   667   1             12.39229841      16.372390530000001      8.6125301099999998
   668   1      16.360617040000001             11.96846541              7.23484791
   669   1      20.492302370000001             13.79747279      8.9426623799999998
   670   1      26.156256259999999      12.966411170000001      8.3303229499999993
   671   1      28.270885010000001             14.02279615      9.2724171299999991
   672   1      32.284689350000001      13.800229440000001      9.1911070299999995
   673   1      30.458383959999999             17.70144865      9.1116979499999999
   674   1      2.0424378299999999      10.644260859999999      9.1124443700000004
   675   1      6.0896172899999996      17.824953650000001      9.0460490799999995
   676   1             10.28355582      19.913170229999999      8.2767251700000006
   677   1             10.27219912             12.85366159      8.2418277900000003
   678   1      22.061535930000002             17.35735244      9.0900175900000004
   679   1             24.18704653      14.049519070000001      9.1264627199999993
   680   1      28.398048630000002      16.224655559999999      8.3894561200000002
   681   1      4.1790616099999998      26.247579559999998      9.7848996400000008
   682   1      8.2509578300000008      16.377604479999999      8.5924939499999997
   683   1      6.1631641999999998      26.519748629999999      8.3768131799999992
   684   1              6.14302584      13.223082140000001      8.3744897300000005
   685   1      22.261534309999998             19.56075637      8.3960194099999992
   686   1      24.325601219999999      21.041637980000001      9.1135010899999997
   687   1      26.281173079999999             15.40354394      9.7825710499999996
   688   1      30.661876639999999      20.078611389999999      8.5619489699999995
   689   1      24.365958599999999             18.42645048      9.6486048600000007
   690   1      4.2612167699999999      23.464109799999999      8.2391425999999992
   691   1      6.1480851599999999      2.2061696400000002      9.5754923099999996
   692   1             10.29581084      27.058794420000002      8.5130091799999992
   693   1      18.195412409999999      19.971541169999998      8.1809310800000006
   694   1      20.253157229999999      16.194148869999999      8.0278083000000002
   695   1             24.64472275      23.456412270000001      8.2512358799999994
   696   1             28.74242774      23.562041359999998      8.3901049400000005
   697   1              4.05072615      2.4119096999999998      8.2857086500000001
   698   1      6.3100396999999999      23.983183449999999      9.1569318899999992
   699   1      20.411695739999999      23.506274520000002      8.3814078999999992
   700   1      16.481481070000001      21.411901830000001      9.0105792400000002
   701   1      18.595434669999999      26.468552209999999      8.1319119499999992
   702   1             22.71185264      27.009913109999999      8.3068155899999994
   703   1             26.52050985      27.050090310000002      8.3279954200000006
   704   1      30.576206800000001      26.978141340000001      8.2679105499999999
   705   1              2.19808922      3.7392390500000001      8.9379698600000008
   706   1              7.98278263      27.759982709999999      9.4231268299999993
   707   1      14.089926289999999      6.0990449900000003      8.5489850300000008
   708   1             14.44800564      24.825863949999999      9.0443450799999994
   709   1      16.474718070000002      23.569409589999999      8.1358927100000002
   710   1      20.400073620000001             20.99218669      8.9636089600000002
   711   1      28.701491269999998      28.200661180000001      9.0419681900000004
   712   1      32.790627669999999      25.575136740000001      9.7786558699999997
   713   1              0.18743376              2.41740208      8.3396845899999992
   714   1      32.506024099999998      23.481215129999999      8.1620291399999996
   715   1      30.536729520000002             24.82066768      8.9213096499999995
   716   1             11.84056601               7.0782631      9.1376827200000008
   717   1      24.570261519999999             -0.14942864      9.1110028799999991
   718   1      24.407409739999999      2.3227389299999999      8.5658384499999993
   719   1              30.7100902      3.6673729900000001      9.1787403600000008
   720   1      30.646292620000001      5.9259057899999998      8.1569259400000007
   721   1      4.3290150000000001      9.2544256100000002      8.1315000200000007
   722   1              9.95983442             10.26574746      9.0065396999999994
   723   1      6.3021542699999999      5.9590091699999999      8.3572283400000007
   724   1      7.4753781000000004      4.2330479199999997      9.4872101499999992
   725   1      8.3997076800000006      7.2763943299999996      9.0865279399999999
   726   1      16.794665890000001      7.2590620599999998      9.3348027699999996
   727   1      14.352112010000001      26.979612790000001      8.2455878499999997
   728   1      30.343938690000002      12.796477749999999      8.1359109800000002
   729   1      32.507553489999999              16.6223432      8.1312842300000003
   730   1      8.3447332799999998      2.2127006599999999      8.1332763999999997
   731   1      16.654273790000001      9.6891079799999993      8.3350203799999996
   732   1      18.484236410000001             11.02968287      8.9372080900000004
   733   1      16.256679810000001             16.72643218      8.2612281500000009
   734   1      30.608593490000001      1.2854300999999999      9.8381980799999997
   735   1             22.19125365      6.2149039899999998      8.2707232800000003
   736   1      5.9723460700000004             10.56898855      8.9234311700000006
   737   1      28.277381309999999      18.707087439999999      9.7644068199999996
   738   1             30.27367302      10.698081330000001      9.1400774400000007
   739   1             14.27900887             12.94767158      8.0815956599999996
   740   1      16.554208930000001      14.243996409999999      8.6500723300000004
   741   1             22.28252663      10.901299699999999      9.2253313899999991
   742   1              26.3769381              6.42765042      8.3187374500000004
   743   1             20.29990106      9.3878243700000006      8.3591270400000006
   744   1              2.22381494      17.677756410000001      8.9594028800000007
   745   1      2.3773351200000001      20.043006569999999      8.2866108599999997
   746   1              1.90312517             13.07783315      8.4430806500000006
   747   1             10.13083138             17.77516082              9.24045527
   748   1      8.3243822099999996             20.95599558      9.1421241099999992
   749   1      22.427030420000001              12.9656918      8.2223745099999999
   750   1      26.349368590000001      17.501693830000001      8.8043040000000001
   751   1             24.26522662      16.594370829999999      8.1587249699999997
   752   1              0.23041275             21.39126263      9.2497930200000003
   753   1      2.1837242699999999      24.496641839999999      8.9537491899999999
   754   1      8.2715527200000007             23.44343447      8.1093735099999993
   755   1      4.2290111100000001      21.076053000000002      9.1940538000000007
   756   1      10.269273330000001      24.770643920000001      9.0386510300000005
   757   1      12.425657230000001      21.242800410000001      9.1249262299999998
   758   1             22.20145076             24.72924609      8.9475135399999992
   759   1             26.29032144      19.964499910000001      8.1065383400000002
   760   1      26.626466390000001             22.31032197      9.5775904599999997
   761   1      6.0504408099999996      19.960863060000001      8.2165709699999994
   762   1      26.287706020000002      20.071206369999999              10.3902097
   763   1      4.4894282299999997     0.28112640999999999      9.0167370200000008
   764   1             10.43816928      1.2958217299999999      9.9230930599999994
   765   1             12.32130469      23.436754860000001      8.5150688599999995
   766   1      20.552311899999999              2.53605262      8.3910323099999999
   767   1      26.753752380000002      24.620908419999999      9.3145159199999998
   768   1      28.484511340000001      20.988450570000001      8.8585864099999991
   769   2      4.8978866400000003             11.98840438      9.1061409799999993
   770   2              3.17402506             12.06409607      9.5088367399999996
