N2-dn2-coord-10bar/700K/snapshots/frame-110431/run-000/../data.lammps (written by ASE) 

770 	 atoms 
2  atom types
0.0      32.470343392086264  xlo xhi
0.0      28.120142247150884  ylo yhi
0.0      31.213473999158239  zlo zhi


Atoms 

     1   1      2.0293964600000001      1.1716090800000001    0.023552650000000001
     2   1      6.0880008999999999              1.17168918              0.02556874
     3   1      10.146952280000001              1.17170328    0.025416459999999998
     4   1      14.205754900000001      1.1716496700000001              0.02501565
     5   1             18.26456816              1.17166478              0.02504435
     6   1             22.32338141      1.1716496700000001              0.02501565
     7   1      26.382184030000001              1.17170328    0.025416459999999998
     8   1      30.441135410000001              1.17168918              0.02556874
     9   1  9.1780000000000006e-05      4.6866847900000002    0.025581599999999999
    10   1      4.0587011400000002      4.6866847900000002    0.025581599999999999
    11   1      8.1174961000000003      4.6866290399999997    0.025584639999999999
    12   1             12.17638011      4.6866852999999997              0.02491202
    13   1             16.23517979      4.6866942700000003    0.025006210000000001
    14   1      20.293956519999998      4.6866942700000003    0.025006210000000001
    15   1      24.352756209999999      4.6866852999999997              0.02491202
    16   1      28.411640219999999      4.6866290399999997    0.025584639999999999
    17   1      2.0293964600000001      8.2016395800000002    0.026613040000000001
    18   1      6.0881071599999999      8.2016314300000008              0.02543782
    19   1             10.14701835               8.2017045    0.025156850000000001
    20   1      14.205766049999999      8.2017080900000003    0.024990459999999999
    21   1             18.26456816      8.2017077599999997    0.025091249999999999
    22   1      22.323370260000001      8.2017080900000003    0.024990459999999999
    23   1      26.382117969999999               8.2017045    0.025156850000000001
    24   1      30.441029149999999      8.2016314300000008              0.02543782
    25   1  9.2789999999999998e-05             11.71671873    0.025573410000000001
    26   1              4.05870014             11.71671873    0.025573410000000001
    27   1      8.1176017700000003             11.71668698              0.02497914
    28   1             12.17637068             11.71673069    0.025001590000000001
    29   1      16.235177310000001      11.716730249999999    0.025074039999999999
    30   1      20.293959009999998      11.716730249999999    0.025074039999999999
    31   1      24.352765640000001             11.71673069    0.025001590000000001
    32   1      28.411534549999999             11.71668698              0.02497914
    33   1      2.0293964600000001             15.23167155              0.02525285
    34   1      6.0881728300000004      15.231678799999999    0.025062859999999999
    35   1             10.14698486      15.231762639999999               0.0250786
    36   1             14.20578841             15.23176782    0.025201990000000001
    37   1             18.26456816              15.2317707    0.025149979999999999
    38   1      22.323347900000002             15.23176782    0.025201990000000001
    39   1      26.382151459999999      15.231762639999999               0.0250786
    40   1      30.440963480000001      15.231678799999999    0.025062859999999999
    41   1      32.470327990000001      18.746748629999999    0.024951939999999999
    42   1      4.0588083299999997      18.746748629999999    0.024951939999999999
    43   1      8.1175770200000006      18.746803499999999    0.025222040000000001
    44   1             12.17637459      18.746799750000001    0.025428470000000002
    45   1      16.235159400000001      18.746805200000001    0.025487360000000001
    46   1      20.293976919999999      18.746805200000001    0.025487360000000001
    47   1      24.352761730000001      18.746799750000001    0.025428470000000002
    48   1             28.41155929      18.746803499999999    0.025222040000000001
    49   1      2.0293964600000001      22.261939099999999    0.025844880000000001
    50   1      6.0881419299999999      22.261841799999999    0.025489439999999999
    51   1             10.14692954             22.26176895              0.02551757
    52   1             14.20573559      22.261804690000002    0.025639160000000001
    53   1             18.26456816             22.26178625    0.025640119999999999
    54   1      22.323400729999999      22.261804690000002    0.025639160000000001
    55   1      26.382206780000001             22.26176895              0.02551757
    56   1             30.44099439      22.261841799999999    0.025489439999999999
    57   1  5.6450000000000003e-05      25.776936450000001              0.02613327
    58   1      4.0587364700000004      25.776936450000001              0.02613327
    59   1      8.1175325399999991              25.7767713    0.024734180000000001
    60   1      12.176376469999999      25.776831090000002              0.02545323
    61   1      16.235145939999999      25.776775220000001    0.025273360000000002
    62   1             20.29399038      25.776775220000001    0.025273360000000002
    63   1      24.352759840000001      25.776831090000002              0.02545323
    64   1      28.411603769999999              25.7767713    0.024734180000000001
    65   1  0.00024266000000000001              2.34304215     0.80166565000000001
    66   1      4.0585502699999996              2.34304215     0.80166565000000001
    67   1      8.1157394600000003              2.34454954     0.80169402000000001
    68   1             12.17601256      2.3433829099999999     0.80116898000000003
    69   1      16.235258170000002      2.3433209100000001     0.80090046999999998
    70   1      20.293878150000001      2.3433209100000001     0.80090046999999998
    71   1      24.353123750000002      2.3433829099999999     0.80116898000000003
    72   1      28.413396859999999              2.34454954     0.80169402000000001
    73   1      2.0293964600000001      5.8582218700000004     0.80119762000000005
    74   1      6.0870566899999998      5.8583336700000004              0.80194851
    75   1             10.14649655              5.85853131     0.80121584000000001
    76   1             14.20597894      5.8582938599999999     0.80086840999999998
    77   1             18.26456816      5.8583798500000004               0.8010794
    78   1      22.323157380000001      5.8582938599999999     0.80086840999999998
    79   1             26.38263976              5.85853131     0.80121584000000001
    80   1      30.442079629999999      5.8583336700000004              0.80194851
    81   1  0.00019438999999999999      9.3717771800000005     0.80082061000000004
    82   1      4.0585985400000002      9.3717771800000005     0.80082061000000004
    83   1      8.1175070500000004      9.3725002699999997     0.80149060999999999
    84   1      12.176590020000001      9.3733583399999993     0.80088261999999999
    85   1             16.23512199      9.3733789200000004              0.80106506
    86   1             20.29401433      9.3733789200000004              0.80106506
    87   1      24.352546289999999      9.3733583399999993     0.80088261999999999
    88   1      28.411629269999999      9.3725002699999997     0.80149060999999999
    89   1      2.0293964600000001             12.88692854     0.80220621000000003
    90   1      6.0883212999999996             12.88743848     0.80138414999999996
    91   1      10.147128609999999             12.88859852     0.80085256000000005
    92   1             14.20571782      12.888558189999999     0.80113791000000001
    93   1             18.26456816      12.888409899999999     0.80109381000000002
    94   1      22.323418490000002      12.888558189999999     0.80113791000000001
    95   1             26.38200771             12.88859852     0.80085256000000005
    96   1      30.440815019999999             12.88743848     0.80138414999999996
    97   1              0.00012365      16.403222639999999     0.80145666999999998
    98   1      4.0586692700000002      16.403222639999999     0.80145666999999998
    99   1      8.1174337899999998      16.403825260000001     0.80097196999999998
   100   1              12.1761021             16.40390721     0.80133072000000005
   101   1             16.23503496      16.403861750000001     0.80140014999999998
   102   1      20.294101359999999      16.403861750000001     0.80140014999999998
   103   1      24.353034220000001             16.40390721     0.80133072000000005
   104   1      28.411702529999999      16.403825260000001     0.80097196999999998
   105   1      2.0293964600000001      19.919205120000001     0.80066369999999998
   106   1              6.08752564             19.91894023     0.80122479000000002
   107   1      10.146078839999999             19.91919038     0.80159137999999996
   108   1      14.204993419999999              19.9192584     0.80178742000000003
   109   1             18.26456816      19.919377350000001     0.80194975999999996
   110   1      22.324142899999998              19.9192584     0.80178742000000003
   111   1      26.383057470000001             19.91919038     0.80159137999999996
   112   1      30.441610669999999             19.91894023     0.80122479000000002
   113   1              0.00142012      23.434536609999999     0.80178442000000005
   114   1      4.0573728100000004      23.434536609999999     0.80178442000000005
   115   1      8.1165862000000004      23.433936769999999     0.80182306000000003
   116   1             12.17555218      23.433996919999998     0.80156656000000004
   117   1             16.23465491      23.434040110000002     0.80170828999999999
   118   1      20.294481409999999      23.434040110000002     0.80170828999999999
   119   1      24.353584130000002      23.433996919999998     0.80156656000000004
   120   1      28.412550110000002      23.433936769999999     0.80182306000000003
   121   1      2.0293964600000001      26.949875330000001              0.80297246
   122   1      6.0858208300000003      26.950066320000001              0.80215291
   123   1             10.14598146      26.949241430000001     0.80165810000000004
   124   1             14.20520604      26.948673230000001     0.80131923999999999
   125   1             18.26456816             26.94858318     0.80108193999999999
   126   1      22.323930279999999      26.948673230000001     0.80131923999999999
   127   1      26.383154860000001      26.949241430000001     0.80165810000000004
   128   1             30.44331549      26.950066320000001              0.80215291
   129   1   -0.016255220000000001   -0.039685070000000003              1.42420429
   130   1      3.9186150099999999              0.10912995      1.6214414800000001
   131   1      8.2126737700000003   -0.012205830000000001              1.48772594
   132   1      12.076935130000001    0.071496180000000006      1.5501193600000001
   133   1      16.216281810000002      28.193719479999999              1.47118126
   134   1      20.243267710000001      28.083074450000002      1.3280956900000001
   135   1             24.34950375             28.27401639      1.3651787500000001
   136   1      28.447345089999999   -0.043293030000000003              1.51592091
   137   1              2.20455288      3.4408334200000001               1.4167732
   138   1      6.2818648000000001      3.6375079299999999      1.3560751499999999
   139   1             10.17744669      3.5507558100000001              1.49655161
   140   1             14.26884737      3.3402178600000001              1.40111305
   141   1      18.173335389999998      3.5327662100000001              1.41841525
   142   1      22.443203610000001      3.6232496300000001      1.4017002000000001
   143   1      26.556104829999999              3.65033794      1.5565671800000001
   144   1              30.4642293      3.5037013799999999      1.6568945399999999
   145   1      32.551160070000002      7.0597972200000001              1.61179216
   146   1      3.9885411400000002      7.0787272899999998              1.31101453
   147   1      8.1156411100000003              7.06733645      1.2937397900000001
   148   1             12.21110288      6.9082313199999996      1.7373153699999999
   149   1      16.180235629999999      7.1561903899999999              1.29518372
   150   1      20.227560239999999              6.89363642      1.4366477799999999
   151   1             24.29304291              7.03121011              1.41840772
   152   1      28.301366560000002      6.9474408099999998      1.5641761700000001
   153   1      2.0318812899999998      10.623702829999999              1.49778324
   154   1              6.03318756      10.602124330000001      1.6582539599999999
   155   1              10.1373616      10.601780679999999      1.3263501900000001
   156   1      13.977638389999999             10.55395408              1.35009808
   157   1      18.263562400000001             10.59478949              1.45105913
   158   1             22.40425119             10.43965882              1.60513934
   159   1             26.49274771      10.543232039999999              1.18029074
   160   1      30.380098830000001      10.523708450000001      1.6197348199999999
   161   1   0.0097053899999999995             14.18336296              1.52630065
   162   1      4.0142967699999996      14.162975449999999              1.36992157
   163   1      8.1084812799999995      14.059222480000001              1.48759525
   164   1              12.1980381             14.17802983              1.50001717
   165   1              16.1355234             14.07315782      1.6245684499999999
   166   1      20.249054220000001             13.92998989      1.3172878299999999
   167   1      24.287103980000001      14.262641410000001              1.43035874
   168   1      28.423849400000002      14.398034709999999      1.5577116499999999
   169   1      2.0234373699999999      17.691955929999999      1.3543755900000001
   170   1      6.1256196799999998      17.565756279999999      1.7152692700000001
   171   1      10.199425359999999      17.462633950000001              1.61086467
   172   1             14.06739644      17.702623750000001      1.3764805600000001
   173   1      18.339035280000001      17.614176400000002               1.3897586
   174   1      22.285004700000002      17.514618519999999              1.58957876
   175   1      26.338745930000002      17.422814679999998      1.4864412499999999
   176   1      30.528644880000002      17.624546639999998              1.41296555
   177   1    0.047427150000000001      21.275084710000002      1.6840452400000001
   178   1      4.1102669199999999      21.102912079999999              1.58265641
   179   1      8.3043274100000009              20.9648155      1.3303457700000001
   180   1             12.20576071      21.175753749999998      1.4659520399999999
   181   1      16.093291730000001      21.125802279999998              1.47774888
   182   1      20.197245930000001      21.205101519999999      1.3821438100000001
   183   1      24.188899930000002             21.19452317              1.33336027
   184   1      28.510545780000001              21.1194731              1.54002324
   185   1      1.9905656300000001             24.71796501      1.3280288099999999
   186   1      6.0234268399999999              24.6752328              1.42033787
   187   1             10.03096715      24.601703279999999              1.57185628
   188   1             14.18914724             24.53674599              1.53002236
   189   1      18.206213219999999              24.5249852      1.4257188300000001
   190   1      22.239985220000001      24.661065900000001              1.38023429
   191   1             26.34881158      24.704258020000001              1.38195921
   192   1      30.424158200000001      24.578238630000001      1.6263241399999999
   193   1      1.9350604499999999      1.0681913999999999      2.5064641299999999
   194   1      6.2589003600000002      1.1976043000000001              2.44086779
   195   1             10.20344017              1.24661121      2.4347203500000001
   196   1             14.26640315     0.95880878000000003      2.3576970400000001
   197   1      18.436861189999998      1.3674059999999999               2.2492918
   198   1      22.369327089999999      1.1269284100000001      2.3286789300000001
   199   1      26.346145870000001      1.1553934800000001      2.2805954800000001
   200   1      30.476181400000002      1.0818075899999999      2.4750081599999998
   201   1    0.052020799999999999      4.5437657299999996      2.3042121799999999
   202   1              4.06088497      4.7223005999999996      2.3153920700000001
   203   1              8.22443086      4.8090063599999997      2.4976737999999998
   204   1             12.17031734      4.6577926100000004               2.4213722
   205   1             16.28329712      4.7844406299999998      2.3305366799999998
   206   1      20.374917669999999      4.6615190399999999      2.5284448799999999
   207   1      24.295500390000001      4.6373915200000004              2.37530398
   208   1      28.403089909999998      4.7094392699999998      2.4965524700000001
   209   1               1.9746344      8.1555676699999999      2.4925217000000002
   210   1              6.20541375      8.1630413799999992      2.6210293500000001
   211   1             10.32749108      8.3705214300000002      2.4492836200000001
   212   1      14.164127150000001      8.1831997699999999      2.5772576599999999
   213   1      18.137341469999999      8.1085701100000005      2.4290571399999998
   214   1      22.284000259999999      8.0404131999999997              2.34733371
   215   1      26.436978379999999      8.2528174799999992      2.5000565699999999
   216   1      30.552903220000001      8.1517929599999999      2.4125411300000001
   217   1      32.506043650000002             11.81953118      2.3875301000000002
   218   1      4.0703430300000001      11.694276240000001      2.4564429400000001
   219   1      8.0339919900000005             11.61744352      2.2709425099999998
   220   1             12.15956989             11.85633696      2.5866162899999998
   221   1      16.170445149999999      11.577971290000001              2.54629883
   222   1      20.333635990000001             11.88476311              2.39015858
   223   1      24.664553040000001             11.80099308              2.29716451
   224   1      28.320832469999999      11.621793139999999              2.34355227
   225   1              1.93637199      15.400649830000001      2.4915481900000001
   226   1              6.20400887             15.23308604      2.4985524099999998
   227   1             10.01868232      15.230896960000001      2.4842041899999998
   228   1      14.205309890000001             15.31343609      2.4185440800000002
   229   1      18.365751979999999      15.392866059999999              2.49495925
   230   1      22.342126109999999      15.230675939999999              2.41018767
   231   1      26.174060260000001             15.14949594              2.42198607
   232   1      30.514398079999999      15.185545510000001      2.4345211999999998
   233   1     0.11309780999999999      18.850096950000001      2.5014968899999999
   234   1      4.0560220200000003      18.701365599999999      2.5084607700000001
   235   1      8.0932474400000007      18.889134800000001              2.43139729
   236   1             12.14195827              18.8223433              2.39033286
   237   1             16.33392546      18.803729910000001      2.3711399399999999
   238   1      20.339484410000001      18.704465240000001      2.3571206099999999
   239   1      24.420832690000001      18.761867580000001      2.3760922799999999
   240   1             28.41918673      18.850840479999999              2.49633803
   241   1      2.1322204999999999      22.391747460000001              2.37882331
   242   1      6.3199583800000001      22.199754290000001      2.3307639500000001
   243   1             10.22666918      22.224330739999999      2.4913423200000002
   244   1      14.219898000000001             22.42592209      2.4599219799999998
   245   1             18.24620552      22.259680960000001              2.39082712
   246   1      22.322181239999999      22.355793989999999              2.35469763
   247   1      26.313680810000001      22.298383940000001      2.5064194899999999
   248   1      30.540186989999999             22.28993629      2.5206326200000002
   249   1      32.392377740000001             25.76840859      2.5050243600000002
   250   1      3.9435010099999999      25.919740940000001      2.4889684600000002
   251   1      8.0578059999999994      25.863048200000001      2.5926532899999999
   252   1             12.04997543      25.819269469999998      2.4786791199999998
   253   1             16.44834346      26.019232679999998              2.40148954
   254   1      20.275468159999999      25.804590019999999              2.30831483
   255   1      24.222436040000002      25.938716150000001      2.4145608699999999
   256   1      28.293474140000001      25.743302020000002      2.4133361099999999
   257   1    0.079202469999999997      2.2625413000000001      3.4117934499999998
   258   1      4.0606708300000003              2.30986929      3.2614044099999999
   259   1      8.2814662000000006              2.17817588      3.4690829500000002
   260   1             12.25735042      2.4186139099999999      3.3526370600000002
   261   1             16.25833459      2.2426849600000001      3.3945574299999999
   262   1      20.340896269999998      2.5282168600000001      3.1986276400000002
   263   1      24.311272129999999      2.4703533499999999              3.25145025
   264   1      28.293614219999998      2.2053488099999998      3.2761132000000002
   265   1      2.0896237200000001      5.7797020799999999              3.27895176
   266   1      6.1763774299999996      5.8736291700000001      3.3636332499999999
   267   1             10.25394382      5.8079866300000003      3.3573314700000001
   268   1             14.31227331      5.7824257799999996      3.2687302200000001
   269   1      18.264725389999999      5.9203136799999996              3.27150082
   270   1      22.431199329999998      5.8777528700000001      3.1273152099999999
   271   1      26.284724000000001              5.93418461      3.3535896699999999
   272   1             30.39565674      5.8354293100000003              3.21636604
   273   1    0.027972589999999999      9.3191322700000008      3.2560198499999999
   274   1              3.95822743      9.0816214300000002              3.39215746
   275   1      8.0160658900000001      9.5611735800000002              3.40720767
   276   1      12.195341239999999      9.4498948200000008      3.3433788999999998
   277   1             16.18354588              9.30079046      3.2033751600000002
   278   1      20.206486659999999      9.3248974699999998      3.3404765200000002
   279   1              24.4569641      9.2925497900000007      3.0719474600000001
   280   1      28.513973830000001      9.4224071899999995              3.39899313
   281   1      2.0930224800000001      12.879734620000001      3.0314036299999998
   282   1               6.2456771             12.90345241      3.3065013099999998
   283   1              10.0543032             12.90708596      3.2679578199999999
   284   1              14.2531035              12.9019485      3.3199195399999999
   285   1             18.11746338             12.87072794      3.1827246499999999
   286   1      22.398001829999998      12.748097599999999      3.1363794600000001
   287   1      26.438176670000001              12.9375476      3.4222191099999999
   288   1      30.228176340000001      12.872255969999999      3.2818647400000001
   289   1      32.397197439999999      16.395723870000001      3.2605271299999998
   290   1      4.0672332300000003             16.30303941      3.4010648400000001
   291   1      8.0050030700000008      16.599474170000001      3.4453951300000001
   292   1             12.19186204      16.506119959999999      3.2232180700000002
   293   1             16.36834399             16.29383215      3.2998429900000001
   294   1      20.354886929999999      16.341568909999999      3.2836424100000001
   295   1      24.283225819999998             16.30248619      3.2198086300000002
   296   1      28.561373140000001      16.614565110000001      3.1793444000000002
   297   1      2.0394872500000001      19.952864170000002              3.44667827
   298   1      6.1072816400000001      19.986818060000001               3.4190269
   299   1      10.102959289999999             20.02049221      3.2485410099999998
   300   1             14.18003788      20.017175269999999      3.3344143000000002
   301   1      18.376756440000001      19.813572270000002      3.1207688400000002
   302   1             22.30200829      19.936608580000001      3.2050566900000002
   303   1             26.29874697      19.928091999999999      3.2155113599999998
   304   1      30.597693970000002      19.975636420000001      3.2323175200000001
   305   1              0.12718836      23.424245419999998      3.3668010499999999
   306   1              4.10078444      23.476393779999999      3.1725141200000002
   307   1      8.1483901799999998             23.35405553      3.3604503999999999
   308   1      12.327534930000001             23.50283795              3.23364881
   309   1      16.306079650000001             23.56349973      3.2795606199999998
   310   1             20.25905088      23.536176640000001               3.1867025
   311   1      24.335261289999998             23.53901518      3.1901486499999998
   312   1      28.248984020000002      23.671865440000001      3.0381286900000002
   313   1      2.0089840899999998             26.80955281      3.3795438099999999
   314   1      6.0324707399999999             27.13421451      3.3187838200000002
   315   1             10.09769365      27.078873099999999      3.4160644100000002
   316   1      14.136592889999999      26.845461449999998      3.3678534500000001
   317   1      18.370732159999999             27.03250813      3.3263877800000001
   318   1      22.229782329999999      27.102625539999998      3.1884000800000001
   319   1      26.370498730000001      27.072101320000002      3.2349046800000001
   320   1      30.445255580000001      26.884623980000001      3.3240236200000002
   321   1      32.492473279999999      28.015322210000001      4.1575484600000001
   322   1      3.8692068399999999   -0.041018949999999998      4.2234700099999998
   323   1      8.0327690799999996    0.014929909999999999      4.1944026699999997
   324   1      12.179988420000001      28.093814770000002      4.0891770300000001
   325   1             16.19327681      28.014699310000001              4.26118022
   326   1      20.292809930000001      28.416564650000002      4.1126657900000003
   327   1             24.46215157      28.177929720000002      4.0233522800000001
   328   1             28.59952801  -0.0094899200000000006      4.1504823799999997
   329   1      1.9666688999999999              3.46501846      4.1092888099999998
   330   1      6.1654312300000003      3.4759545900000002      4.1591718200000001
   331   1             10.30964153      3.4828377499999998      4.3060631699999998
   332   1      14.083023519999999      3.5370146899999999      4.1876244700000003
   333   1             18.23106761              3.72040251      4.0437536999999999
   334   1      22.354298100000001      3.7805769200000001      4.1455629399999996
   335   1             26.47731185      3.4108038600000001      4.0930659699999996
   336   1      30.549707399999999      3.4574179200000001      4.1032713300000001
   337   1              0.10358618      7.0794351000000004      4.1560199500000001
   338   1      4.0003240399999997      6.8496933899999997      4.1826889500000002
   339   1      8.1723634100000009      7.1051921599999996      4.1640052699999996
   340   1             12.30427201              6.94446618      4.2968026500000001
   341   1      16.234828220000001      6.9308172700000004      4.1924483600000002
   342   1      20.428934959999999      7.0643985200000001      3.9645108200000001
   343   1      24.404470920000001      6.8944657600000001      4.0604192299999999
   344   1      28.450035549999999      7.1364913899999998      4.0027168299999998
   345   1              1.96899191             10.56897551      4.1008942199999998
   346   1      5.8557782600000001      10.483746630000001      4.2471231999999999
   347   1      10.018551090000001             10.56204048      3.9793491900000002
   348   1              14.1911784      10.530178940000001      4.0950204399999999
   349   1      18.156446320000001             10.55283813      4.0860185500000004
   350   1      22.257000489999999             10.37882847      3.9718562300000002
   351   1      26.467460500000001      10.530278839999999              3.91913059
   352   1      30.440580059999998             10.44236899      4.0625052500000001
   353   1             32.41342744             14.00249485      3.9918423999999999
   354   1      3.9858964000000001      14.141486649999999      4.0863349700000002
   355   1      8.0392101799999995      14.167724379999999      4.0469669100000001
   356   1      12.036733030000001      14.002622499999999      4.0102920299999996
   357   1      16.168857490000001             14.08788474      4.1084288999999998
   358   1      20.284276760000001      13.978995449999999      4.1714427699999996
   359   1      24.333917370000002      13.963896269999999              3.88682397
   360   1      28.412151850000001      13.965227179999999      4.0086266699999999
   361   1      2.0769651200000001             17.36289305      4.1786994899999996
   362   1      6.1377520600000004      17.564244349999999      4.1754102299999998
   363   1             10.21686498      17.675539069999999      4.1788407400000001
   364   1             14.19460299             17.53919161      4.2729104800000002
   365   1      18.369893770000001      17.588155489999998      4.0608843200000004
   366   1      22.429318139999999      17.710392219999999              3.98751144
   367   1      26.534625349999999             17.49649878      4.2172901600000001
   368   1      30.484514010000002      17.612243119999999      4.2150817099999998
   369   1             -0.01294586             21.16872115      4.2858493199999996
   370   1      4.1254229000000002      21.099909230000002      4.0223666299999996
   371   1              8.13841298      20.944408920000001      3.9752596499999999
   372   1      12.284706829999999      21.379363399999999      4.1561462499999999
   373   1      16.460312600000002      21.211728430000001      3.9911768300000001
   374   1      20.270939469999998      21.138289690000001      4.0760413599999996
   375   1             24.27268372      21.152161419999999      4.0071929600000002
   376   1      28.549413000000001             21.12486972      4.0193187000000004
   377   1      2.0648205399999999      24.507374250000002      4.0937984199999997
   378   1              5.94452158      24.711097370000001      4.0789992399999999
   379   1      10.095326630000001             24.56658857      4.1380498599999997
   380   1      14.072240860000001      24.568946360000002      4.1499035700000002
   381   1      18.305078330000001             24.71553566              3.97100842
   382   1             22.28818776      24.837770670000001      3.8953912399999999
   383   1              26.4667055      24.692653140000001      4.0926208900000001
   384   1              30.4747667      24.594434339999999      4.1593447699999997
   385   1      2.0554727800000001      1.1203578599999999      4.9532627199999997
   386   1      6.0896263499999996      1.2708084100000001      4.9593448000000002
   387   1             10.07498028      1.0388498100000001      4.9949281900000004
   388   1      14.358590530000001      1.0517824499999999      4.9245443299999998
   389   1             18.14076129              1.08548552      4.7157136499999996
   390   1      22.607551090000001              1.18699657      4.8313424899999999
   391   1      26.691158550000001      1.0918867800000001      4.9135439500000002
   392   1      30.475611990000001      1.1626241799999999      4.9661615499999998
   393   1      32.550243960000003      4.5846352599999998      5.0339115799999998
   394   1              4.10244009      4.5662708399999996      4.8638130100000003
   395   1      8.3155831800000009              4.82522962      5.1560133700000002
   396   1             12.16758592              4.73343413      5.0267558599999997
   397   1      16.104629549999999      4.6115075699999997      4.8737685600000002
   398   1             20.34039598      4.8794918899999997      4.9899605400000002
   399   1             24.46357957      4.6815086199999998      4.7510471699999997
   400   1      28.559375639999999      4.8729041200000003              4.89610229
   401   1      1.9709372300000001      8.2674395199999999      4.8571936600000001
   402   1               6.1421706      8.1889939500000004      5.1048000099999999
   403   1             10.31834469      8.2791145900000007      5.1424031699999997
   404   1             14.27336157      8.1678510899999992      5.1204412499999998
   405   1      18.441243140000001      8.2362275300000007      4.9590156199999997
   406   1             22.37542264      8.0403393399999992      4.7664139600000004
   407   1              26.5259009      8.1241633699999998      4.9400195699999996
   408   1      30.527535629999999              8.10080417      5.0404760399999997
   409   1    -0.20733713000000001      11.612855550000001      5.0641861800000001
   410   1      4.0145178799999996      11.818706929999999      5.0706075200000003
   411   1      8.0533424100000008             11.78291926      4.9648525499999998
   412   1             12.18441625      11.817036740000001      4.9968699399999998
   413   1      16.231096569999998      11.588340540000001      4.9315590399999998
   414   1             20.12062031             11.67401821      4.9511172400000003
   415   1             24.22197865             11.87469596              5.05725903
   416   1      28.480371590000001      11.628119030000001      4.8416402400000003
   417   1              1.76368619             15.05737076      4.8446907699999997
   418   1      5.9686665300000001      15.267503039999999      5.1453180200000004
   419   1      10.220040640000001      15.224594140000001      5.0017882900000004
   420   1             13.98535072             15.19531203      5.0131262400000001
   421   1      18.358353770000001             15.19531141              4.97301517
   422   1             22.27479568             15.30399266      4.9060703800000001
   423   1             26.30559727      15.000549149999999      4.8436911900000004
   424   1      30.647685039999999             15.31346462      4.9268945999999998
   425   1      32.508356650000003      18.673401399999999      5.0231018799999996
   426   1      4.1017253599999997      18.607743840000001      4.9333261200000003
   427   1      8.1700886399999995      18.730838129999999      4.9270566499999999
   428   1             12.25444081      18.932088109999999      4.9435241599999999
   429   1      16.359195140000001      18.759950029999999      4.9394852299999998
   430   1             20.35794142      18.864524580000001              4.70359441
   431   1      24.250873479999999             18.91488283      4.8591940600000001
   432   1      28.415669569999999      18.862659780000001      4.9485306400000004
   433   1      2.0760778900000001             22.03681993      5.1389804000000003
   434   1      6.1640339099999997             22.32361388      4.8375410900000002
   435   1             10.31029904             22.32092798      5.0161889999999998
   436   1             14.23148226      22.409511739999999      5.0153373200000004
   437   1             18.44788604             22.24130405      4.9768747800000002
   438   1      22.203115700000001      22.364820389999998      4.8644703600000003
   439   1      26.244627640000001      22.204210509999999              4.97016189
   440   1             30.43333943      22.156383989999998              4.98555277
   441   1  -0.0028678900000000001             25.83652996      5.0095525600000004
   442   1      4.0899410899999999      25.936147590000001      5.0149568100000002
   443   1      8.1469841499999998             25.81215169      5.0445979300000001
   444   1      11.996684480000001      25.854566859999998      5.1684675899999997
   445   1      16.265429269999998             25.67983418              5.17240126
   446   1      20.341719439999999             25.77833622              4.81618792
   447   1      24.440223849999999      25.795675240000001      4.9553417099999999
   448   1      28.381448979999998             25.81353949      4.9013627399999997
   449   1    0.059727769999999999      2.1281006100000002      5.8113764100000003
   450   1      4.1884908699999999      2.3475816300000001      5.8311555300000002
   451   1      8.3062349100000006      2.4269940499999998      5.8746033000000004
   452   1             12.00487324      2.2666615800000001      5.7406070099999997
   453   1      16.286154079999999      2.2120580799999998      5.9382353800000001
   454   1      20.334953049999999      2.3420177299999998      5.6354987200000002
   455   1      24.240793149999998      2.3656917100000001      5.6766918799999999
   456   1      28.502357249999999              2.42569992      5.8619032500000001
   457   1      2.1341166500000002      5.8610573099999996              5.73748931
   458   1      6.1048734400000004      5.9107371899999999              5.89257996
   459   1             10.16764233      6.0369348799999996      5.8797326700000001
   460   1              14.2273399      5.6663011799999996              5.97564093
   461   1      18.137064760000001      5.8433437399999999      5.7389233700000002
   462   1             22.25243322      5.8156988299999997      5.5992531400000001
   463   1      26.501260779999999      5.8422507299999999      5.7462738599999996
   464   1             30.53836617      5.8512677200000001      5.7804025000000001
   465   1    0.063937510000000003      9.3426784699999992      5.8990275199999997
   466   1              3.88763302      9.3403582800000002      5.8093120499999999
   467   1      7.8381973399999998      9.2769845699999998      5.7290163200000004
   468   1              12.1476603      9.6045894199999999      5.7147366799999997
   469   1      16.255415240000001      9.2921778400000008      5.7472187799999999
   470   1      20.214171329999999              9.50288954      5.7350422300000004
   471   1      24.328759030000001      9.4952670999999995      5.4263082300000001
   472   1             28.56936198      9.2846929300000003      5.8220699299999996
   473   1              2.07433786      12.983196250000001      5.7986933699999996
   474   1              6.02670934             12.91347186      5.8247610200000004
   475   1             10.11044525      12.798670189999999      5.6365421299999996
   476   1             14.19298225             12.82873326      5.7920423000000003
   477   1      18.147379569999998      12.864894960000001      5.6880169900000004
   478   1      22.040253530000001      12.854625220000001      5.7153298299999999
   479   1      26.487449290000001             12.89761354      6.0268436300000001
   480   1      30.309770960000002      12.757138250000001      5.7959255799999996
   481   1             -0.10286903      16.463127579999998              5.93691295
   482   1      3.9297107699999998      16.473067570000001              5.85813483
   483   1      8.1461853699999995      16.418831740000002      5.7237935200000001
   484   1      12.000630770000001      16.648139610000001      5.7115907699999999
   485   1      16.281874160000001      16.318311980000001      5.8683931999999999
   486   1             20.37632176      16.296350820000001      5.7053758999999999
   487   1      24.537913589999999      16.717091490000001      5.6618161799999998
   488   1             28.46338476             16.40963709      5.4996774899999998
   489   1              1.92417942      19.740299839999999      6.0059828199999998
   490   1      6.0172431099999999      20.020514049999999              5.87476792
   491   1      9.9708184899999992      20.067895589999999      5.7267169999999998
   492   1             14.24199232      19.917911740000001      5.8231995799999998
   493   1      18.157101789999999             20.04993348      5.8064934700000004
   494   1      22.292163209999998      19.976114110000001      5.7179778099999998
   495   1      26.229829559999999      20.092543670000001      5.7576582600000004
   496   1             30.23692698      20.012157439999999      5.8410957799999998
   497   1      32.656908399999999      23.471826060000001      5.9402099599999998
   498   1      4.0650212100000003      23.316175449999999      5.6073018000000001
   499   1      8.0494050000000001      23.474923109999999      5.8698060700000001
   500   1      12.359969359999999             23.54035249      5.8000119100000003
   501   1      16.309853220000001      23.322450010000001      5.9699859899999996
   502   1      20.156547979999999      23.436046959999999      5.8922182100000002
   503   1      24.327037130000001             23.48033452      5.7023427699999996
   504   1      28.360608160000002      23.284128620000001      5.7680876000000003
   505   1               2.1077561      26.919442060000002      5.9644810499999998
   506   1      6.0891762700000003      26.769011339999999      5.7538252600000002
   507   1      9.9870597700000001             27.01776255      5.7555153600000004
   508   1             14.16589879      26.688874200000001              5.82741957
   509   1             18.48623667             26.79763191              5.60903521
   510   1             22.35963989      27.248066980000001      5.6952770900000003
   511   1      26.447462989999998      26.954330469999999              5.76958006
   512   1      30.476357360000002             26.96643332      5.8320679799999997
   513   1     0.10659225999999999             27.99816577      6.6648395300000001
   514   1      4.0717471500000002      27.962157600000001      6.8059674499999998
   515   1      8.2076548700000007      28.317057420000001      6.5798588899999997
   516   1      12.121795260000001      28.070075639999999      6.6714975299999999
   517   1      16.403683709999999      27.836651639999999      6.7563674699999998
   518   1             20.45607103   0.0059734200000000001      6.5686210300000001
   519   1      24.393794620000001     0.13385681999999999      6.6078718700000003
   520   1      28.528080899999999   -0.025788439999999999              6.80653445
   521   1              2.22779923      3.5253567700000001      6.5022905700000004
   522   1      6.0417183200000002      3.4376662499999999      6.8730551100000001
   523   1      10.133187449999999      3.6745058899999998      6.8173305800000001
   524   1             13.89308778      3.2682968899999998      6.6841707899999996
   525   1      18.246216029999999      3.5585813700000002      6.4981985399999997
   526   1      22.180372779999999      3.3957792499999999      6.5263407300000003
   527   1      26.313135849999998      3.3505730800000002      6.4342973800000003
   528   1      30.645556129999999      3.4653197900000001      6.6949676399999998
   529   1      32.688687940000001      7.0130929699999998      6.6538308900000001
   530   1              4.05564152      7.0812544900000001      6.6440821899999998
   531   1      8.0701528200000006      7.0567913500000001      6.6161334199999997
   532   1             12.14449222      7.0023146699999996      6.8006029000000003
   533   1      16.333577569999999              6.85154248              6.77204227
   534   1      20.244500550000001      7.0408586800000004      6.5249528000000003
   535   1             24.40576429      6.8804726199999999      6.5503410799999999
   536   1      28.463256640000001      6.9425714799999998              6.45975593
   537   1      2.2197021299999999             10.55143088              6.80893674
   538   1      5.9554278199999997      10.631280520000001      6.6663574900000002
   539   1      9.9033107099999995             10.50063192      6.7128002200000001
   540   1             14.23528876      10.533028099999999      6.5104354999999998
   541   1      18.266613459999999             10.56462076      6.5260682399999999
   542   1      22.292420790000001      10.371398060000001      6.7452657299999998
   543   1             26.40933343             10.41610979      6.3593921900000003
   544   1                30.54974      10.415732800000001      6.5637393599999996
   545   1             -0.15731628             13.87351872      6.5118199900000002
   546   1      3.9564835600000001             14.18653926      6.7013484400000003
   547   1      7.9530609300000004              14.1835921      6.5601839699999998
   548   1      12.080735069999999      14.175565799999999      6.5333955799999996
   549   1             16.17836483      14.095593689999999      6.6949768199999999
   550   1      20.267914009999998      14.028186249999999      6.6886777000000004
   551   1             24.31236123      14.134675919999999      6.4832104700000004
   552   1      28.600077370000001             14.23949103      6.7034503299999999
   553   1              1.87739795              17.5986954      6.7592857300000002
   554   1      6.0035862800000004      17.693348709999999      6.7030815600000002
   555   1             10.23174545      17.693675339999999      6.7287010699999996
   556   1             13.94929291      17.421329020000002              6.58298747
   557   1      18.177335249999999      17.798072659999999      6.4750226099999999
   558   1      22.264580680000002      17.734463940000001      6.5277969300000001
   559   1      26.660139310000002      17.686020939999999              6.72774319
   560   1      30.346203670000001      17.536732629999999      6.6823137900000003
   561   1      32.474146560000001      20.770676049999999      6.8411500700000003
   562   1      4.0260496899999998             21.22621578      6.4952443799999999
   563   1      7.9976235999999998      21.144764970000001      6.6816161100000002
   564   1      12.024815070000001             21.17917009      6.5492103699999999
   565   1      16.000991559999999      20.915531999999999      7.0660826400000003
   566   1      20.321470659999999      21.054261570000001      6.4942292400000001
   567   1      24.277050089999999      21.134846570000001      6.5779602600000002
   568   1      28.298098759999998      21.057877099999999      6.6835326500000001
   569   1              1.93149415             24.71696407              6.77735938
   570   1              6.07415751             24.61552683      6.6341362400000001
   571   1             10.17691173      24.683760150000001      6.5645658999999998
   572   1      14.244554389999999      24.576157309999999      7.2076644700000001
   573   1      18.098994860000001             24.66059937      6.4843713999999997
   574   1      22.175753499999999             24.57850393      6.5654288000000003
   575   1      26.327202400000001      24.636727539999999      6.6570748799999997
   576   1      30.528260459999998      24.665362609999999      6.6540878599999997
   577   1      2.1050337899999998      1.0558837299999999              7.46820576
   578   1      6.0813661999999997              1.12914925      7.5644412499999998
   579   1             10.01485291      1.3811300399999999              7.45897655
   580   1             14.49536586              1.08098728              7.39845313
   581   1      18.396179889999999      1.0605568400000001      7.6248196899999998
   582   1      22.259404190000001               1.2924453      7.5441881200000003
   583   1             26.42222671              1.21336263      7.5553881699999996
   584   1             30.73176638      1.0442777000000001               7.6934996
   585   1              0.27446893      4.5447241500000004      7.6336874000000003
   586   1              4.01671187      4.6848505300000003      7.6372414900000001
   587   1      8.1133275600000001              4.71552595      7.7817345099999997
   588   1      12.117072589999999      4.7414516000000004              7.91813023
   589   1      16.144941299999999      4.4397176099999998      7.4342033599999997
   590   1             20.18620597      4.7124849099999997      7.4620973399999997
   591   1      24.227186750000001              4.54868819      7.2080048999999997
   592   1      28.158852400000001      4.5174545300000002      7.6878492100000004
   593   1      1.9281073500000001      8.2823888300000004      7.3798967600000003
   594   1      6.1819899100000004              8.22010927      7.7524972999999999
   595   1             10.21922554      8.3662672100000002      7.6507275200000002
   596   1             14.14854407      8.2094916399999995      7.7126728199999999
   597   1      18.231350580000001      8.1360718100000007      7.5448408799999997
   598   1      22.176619689999999      8.0202129000000006      7.1614403800000002
   599   1      26.493406499999999      8.2448884699999994      7.5568376600000002
   600   1             30.43900099      8.2013822100000002      7.5876977500000002
   601   1    0.062189229999999998      11.439901219999999      7.3230073999999998
   602   1      4.0932237899999997             11.75574164      7.6562997499999996
   603   1      7.9489692999999999             11.81751905      7.3719992699999999
   604   1             12.11016442             11.67001497      7.4843472599999998
   605   1             18.35082839      10.569701050000001      9.0558530600000005
   606   1      20.227661909999998      11.781735080000001      7.6939791900000003
   607   1             24.39642731             11.66566239      7.5777944499999998
   608   1      22.632018479999999             10.57814701      9.1695303700000004
   609   1              2.03396759             15.30852144              7.51607045
   610   1      6.0221663100000002             15.42428308      7.7038592799999996
   611   1             12.17958061      16.525019830000002      8.2582000799999999
   612   1             13.92000335             15.37376969      7.2651308700000001
   613   1      18.246556200000001             15.38352238      7.6083643600000004
   614   1      22.347960260000001             15.26130253      7.3422386800000004
   615   1      26.302843330000002             15.07209059      7.1220561399999998
   616   1      30.542298450000001             15.21552118      7.4229697699999999
   617   1      32.245300669999999              18.5803969      7.8468360400000003
   618   1      4.0308556299999996              18.8824231              7.61087867
   619   1      8.2541169700000001      19.025718829999999      7.5425563699999998
   620   1      12.579847450000001             18.70407604      7.6728759499999999
   621   1             16.27252871      18.662424789999999      7.2960467400000004
   622   1      20.271382719999998      18.811506619999999      7.4065179099999998
   623   1               24.571192      18.831464839999999      7.6281373099999996
   624   1             28.46530417      18.582639180000001      7.8189881799999998
   625   1               2.2500149             22.36057216      7.4874404099999996
   626   1      5.9104198500000003      22.212087790000002      7.2890974999999996
   627   1             10.30374812      19.994193620000001      8.1926947000000006
   628   1      13.894225520000001      22.095633429999999      7.4074265700000002
   629   1              18.1025265      22.167463349999998      7.6861750300000002
   630   1      22.214064189999998      22.219281859999999      7.4485096500000001
   631   1      26.339209740000001      22.319227439999999      7.6058438700000002
   632   1      30.254485379999998              22.3115326      7.2229310599999996
   633   1      32.542247209999999             25.65646581      7.7786064000000001
   634   1      3.9492358599999999      25.843948739999998      7.8692516399999999
   635   1      8.0895029399999991      25.817639530000001      7.6861420499999999
   636   1             12.02685512      25.758874420000001      7.7256520599999998
   637   1             16.16017343      25.711991300000001               7.9697125
   638   1      20.433426520000001      25.754295490000001      7.3502959399999996
   639   1      24.207477440000002      26.032123680000002      7.4144825799999996
   640   1             28.41748479      25.839232689999999      7.4996628999999997
   641   1              4.07509327      6.8965766400000001      9.0380988000000002
   642   1      2.1815486700000002      8.3941693599999994      9.6086590399999992
   643   1      10.326637310000001      3.3783276999999998      9.1156409499999995
   644   1      16.381241209999999             -0.10091222      8.9263043500000006
   645   1      10.039528519999999      22.260349179999999      7.8474122499999996
   646   1      22.312367850000001      24.611440470000002      9.0594582500000005
   647   1      22.143225749999999      3.7377493799999999      9.1429920500000001
   648   1     0.19496405999999999      2.2135829199999999      8.4059081800000008
   649   1      3.9686357700000001             16.67805092      8.5228080899999998
   650   1      4.2375762400000001   -0.072647870000000003      9.1188356600000002
   651   1             18.32945234      24.407954780000001      8.7958837699999997
   652   1             14.19168337      5.8304038199999999      8.5463954999999991
   653   1             22.35262517      12.658933579999999              8.11007094
   654   1      6.3393240400000002              1.17691257      9.8801374200000005
   655   1              22.2518557      27.021054849999999      8.4008104699999997
   656   1      2.2334901199999999      3.4892333299999998      9.1493265299999997
   657   1      8.2695886600000001      9.6824445899999994      8.5439348699999993
   658   1      16.048908220000001      15.958596549999999      8.3640567299999997
   659   1              4.16906949             11.69015561      9.7958176600000009
   660   1      10.106998109999999      5.9359967500000002      8.4095618299999995
   661   1             26.44449071      26.875454009999999      8.2813452600000002
   662   1      28.198931609999999      2.3519403799999998      8.3647594200000004
   663   1      20.219358270000001      2.4588004699999999      8.2596383600000003
   664   1              1.75073678      13.121680019999999      8.3236996199999993
   665   1             10.45745565      11.058504729999999      9.3226597200000008
   666   1             14.51879194      19.827812819999998      8.4901568899999997
   667   1      8.0716268000000007      21.054207479999999      8.9306428800000006
   668   1             16.42696467      11.659850240000001              7.45965831
   669   1      30.769091020000001      12.753096640000001      8.0271907299999992
   670   1      28.362813750000001               7.0699204      8.9282727200000007
   671   1              3.81689714             14.09858324      9.2624739599999995
   672   1      30.092508429999999             17.38884148              9.07761833
   673   1      32.495809440000002     0.19710148999999999      9.4172266100000002
   674   1              7.94720476      16.495031229999999      8.1292630199999998
   675   1      24.451874969999999             13.72539606      8.8194726899999996
   676   1      12.167348629999999      21.027041650000001      9.0528857699999996
   677   1             20.48078362      9.3136635999999999      8.3148677600000003
   678   1      24.449408030000001      21.500367789999999      9.0000134500000009
   679   1      22.384400549999999      5.7528884199999997      8.1016765700000004
   680   1      28.487629699999999             11.64804408              7.25124558
   681   1      2.2990257999999999      1.2904846699999999      10.020029129999999
   682   1             10.13303344              15.3892703      7.6392239499999999
   683   1      6.0512772899999998      24.660994160000001      9.1464937200000005
   684   1      11.860404709999999             13.95459117      8.9982438800000004
   685   1      22.237869289999999      20.014664379999999      8.3916280600000004
   686   1      22.663364829999999      17.647480560000002      8.7703296599999998
   687   1      20.264158030000001             13.71703997      9.2058924199999996
   688   1      26.637153349999998             13.05701498      8.3258072199999997
   689   1      19.875732899999999      21.001038619999999      8.8401562200000008
   690   1              1.72739018      17.680334559999999      9.0435037499999993
   691   1      32.497561109999999      6.7346370899999997      9.0065331900000007
   692   1      20.261031689999999             25.76127232      10.029675900000001
   693   1             18.20598274             13.25752395      8.4235583500000004
   694   1      20.380651759999999      16.468638729999999      8.2008330699999998
   695   1      24.314595529999998      23.798552310000002      8.0579102599999999
   696   1      30.462592019999999              20.1381999      8.4816725799999997
   697   1      4.1694670399999998              2.32935976      8.4014449500000001
   698   1      12.204416849999999      23.491935890000001      8.3835853999999994
   699   1      20.279525769999999     0.26234888000000001      9.2023845800000004
   700   1      18.419047190000001      26.814191189999999      8.4881610700000003
   701   1      12.191760439999999      1.7335484800000001      8.2246561099999997
   702   1             28.21839971             21.24522309      9.1777923799999996
   703   1             22.18776639              27.1752848             10.63538848
   704   1             28.32721291      23.546825569999999      8.3403261299999993
   705   1      2.0657587099999999      5.7963715599999999      8.2772562799999996
   706   1      8.0334099200000004   -0.094699820000000004      8.9647573600000001
   707   1      16.368674219999999      2.5436263600000002      8.6781277299999999
   708   1      20.169932660000001      18.719739879999999              9.57282425
   709   1      22.223751270000001              1.20949011      9.8387974400000004
   710   1             18.01425592             19.72919989      8.3736668299999995
   711   1      30.567202699999999              3.21593858      9.0475880899999996
   712   1      32.511541080000001      22.884512829999998      8.1538365000000006
   713   1             28.51654413             28.23945024      9.0577387100000006
   714   1      4.1404530800000003      21.028002610000001      9.0264636800000009
   715   1      30.579959890000001      26.932111590000002              8.42247843
   716   1      13.909845499999999      26.827690019999999      8.3078628299999995
   717   1      26.336480359999999             24.57893756      8.9751973700000001
   718   1             26.05010356      5.8910560099999998      8.2723646399999993
   719   1      1.7529516599999999      10.959111699999999      9.2397031199999997
   720   1             30.47834615      5.7151468899999998      8.1112847200000004
   721   1      3.9970940599999998      9.3701135600000001      8.3143456699999998
   722   1              5.98468599      22.101788750000001      9.6047081799999994
   723   1      6.2900711899999999      6.0159475100000002      8.3279389699999999
   724   1      6.0465210899999997      10.528924460000001      9.0720862199999992
   725   1      12.353633759999999      7.0732069099999997      9.2790651099999994
   726   1      16.302700269999999      9.3055869700000002      8.1667587099999999
   727   1      17.970954420000002      17.449007689999998      8.8700447600000007
   728   1      28.565636940000001      9.5475805200000003      8.1688490900000001
   729   1      9.9963374900000002      12.872502669999999      8.1174320800000004
   730   1      7.9724068099999998              2.41117173      8.6129308499999997
   731   1      12.124608220000001      9.4335409600000002                8.424004
   732   1      16.183536740000001      7.0850502000000004      9.3535375100000007
   733   1             14.30592845             13.05174648      8.0993485199999995
   734   1              1.96842644             27.12337613      8.5783567499999993
   735   1      24.312170120000001      2.3271670599999998      8.2754284600000005
   736   1      7.8560894499999998      12.225210069999999      9.7781806600000003
   737   1             32.45623586      16.281568530000001      8.4662025100000005
   738   1    0.042852679999999997      9.2671566199999997      8.3447197400000004
   739   1             13.90771213      10.952649149999999      8.9718333999999995
   740   1      20.153408469999999      7.1465311399999996      8.8387417599999996
   741   1      26.365593430000001             10.62237281      8.7086951700000004
   742   1      26.021619569999999      3.7000479500000001      9.0632805100000002
   743   1             18.07413893      5.7601571199999997      8.1693629399999992
   744   1              28.0942683      16.274150049999999      8.3906974999999999
   745   1              1.78674281      19.950596149999999      8.5565115499999997
   746   1              6.03300342              12.8715913      8.5069856000000001
   747   1      10.111234339999999      17.840659209999998      9.1316113100000003
   748   1      7.8450437700000002              23.4470508      8.4273483599999999
   749   1      24.600206750000002      16.389352389999999      8.0251676599999993
   750   1      26.447569779999998             17.80014654      9.1291186399999997
   751   1      21.937990030000002      22.237337279999998      9.7360889200000003
   752   1      8.0431396199999998      14.367108229999999      9.1121110200000004
   753   1               6.1523018      19.840990040000001      8.4545049399999996
   754   1             10.01761142      26.914265499999999      8.2388865199999994
   755   1      5.7971618500000002      3.8264267099999998      9.1589447800000006
   756   1      9.9443044100000009      24.711407260000001      9.0509176700000005
   757   1              4.19943753             23.53821027      8.5075307099999993
   758   1      24.538207199999999             -0.11071884      9.0514479399999992
   759   1             26.48977726      19.886929160000001      8.3527394099999999
   760   1      24.227604920000001      25.854580850000001      9.9000056300000008
   761   1              15.9390549      23.241545639999998      8.3919464300000008
   762   1      24.458611919999999      9.1863381999999998      8.0585482800000001
   763   1      8.2773328900000003              7.10691878      9.0138460800000004
   764   1      6.0993173199999999      26.975565929999998      8.3642774899999992
   765   1              18.3946854      3.3450134299999998      9.0364371499999994
   766   1      20.251492840000001             23.44330089      8.3703584200000005
   767   1      30.528372099999999      24.551285069999999      9.1628379300000002
   768   1      1.8407741200000001      24.571708579999999      9.1977986699999992
   769   2      28.536632879999999      24.926906070000001      9.5114327299999992
   770   2      27.758202010000002      26.374379319999999      9.4623041099999998
