N2-dn2-coord-10bar/300K/snapshots/frame-33333/run-000/../data.lammps (written by ASE) 

770 	 atoms 
2  atom types
0.0      32.470343392086264  xlo xhi
0.0      28.120142247150884  ylo yhi
0.0      31.213473999158239  zlo zhi


Atoms 

     1   1      2.0293964600000001      1.1716090800000001    0.023552650000000001
     2   1      6.0880008999999999              1.17168918              0.02556874
     3   1      10.146952280000001              1.17170328    0.025416459999999998
     4   1      14.205754900000001      1.1716496700000001              0.02501565
     5   1             18.26456816              1.17166478              0.02504435
     6   1             22.32338141      1.1716496700000001              0.02501565
     7   1      26.382184030000001              1.17170328    0.025416459999999998
     8   1      30.441135410000001              1.17168918              0.02556874
     9   1  9.1780000000000006e-05      4.6866847900000002    0.025581599999999999
    10   1      4.0587011400000002      4.6866847900000002    0.025581599999999999
    11   1      8.1174961000000003      4.6866290399999997    0.025584639999999999
    12   1             12.17638011      4.6866852999999997              0.02491202
    13   1             16.23517979      4.6866942700000003    0.025006210000000001
    14   1      20.293956519999998      4.6866942700000003    0.025006210000000001
    15   1      24.352756209999999      4.6866852999999997              0.02491202
    16   1      28.411640219999999      4.6866290399999997    0.025584639999999999
    17   1      2.0293964600000001      8.2016395800000002    0.026613040000000001
    18   1      6.0881071599999999      8.2016314300000008              0.02543782
    19   1             10.14701835               8.2017045    0.025156850000000001
    20   1      14.205766049999999      8.2017080900000003    0.024990459999999999
    21   1             18.26456816      8.2017077599999997    0.025091249999999999
    22   1      22.323370260000001      8.2017080900000003    0.024990459999999999
    23   1      26.382117969999999               8.2017045    0.025156850000000001
    24   1      30.441029149999999      8.2016314300000008              0.02543782
    25   1  9.2789999999999998e-05             11.71671873    0.025573410000000001
    26   1              4.05870014             11.71671873    0.025573410000000001
    27   1      8.1176017700000003             11.71668698              0.02497914
    28   1             12.17637068             11.71673069    0.025001590000000001
    29   1      16.235177310000001      11.716730249999999    0.025074039999999999
    30   1      20.293959009999998      11.716730249999999    0.025074039999999999
    31   1      24.352765640000001             11.71673069    0.025001590000000001
    32   1      28.411534549999999             11.71668698              0.02497914
    33   1      2.0293964600000001             15.23167155              0.02525285
    34   1      6.0881728300000004      15.231678799999999    0.025062859999999999
    35   1             10.14698486      15.231762639999999               0.0250786
    36   1             14.20578841             15.23176782    0.025201990000000001
    37   1             18.26456816              15.2317707    0.025149979999999999
    38   1      22.323347900000002             15.23176782    0.025201990000000001
    39   1      26.382151459999999      15.231762639999999               0.0250786
    40   1      30.440963480000001      15.231678799999999    0.025062859999999999
    41   1      32.470327990000001      18.746748629999999    0.024951939999999999
    42   1      4.0588083299999997      18.746748629999999    0.024951939999999999
    43   1      8.1175770200000006      18.746803499999999    0.025222040000000001
    44   1             12.17637459      18.746799750000001    0.025428470000000002
    45   1      16.235159400000001      18.746805200000001    0.025487360000000001
    46   1      20.293976919999999      18.746805200000001    0.025487360000000001
    47   1      24.352761730000001      18.746799750000001    0.025428470000000002
    48   1             28.41155929      18.746803499999999    0.025222040000000001
    49   1      2.0293964600000001      22.261939099999999    0.025844880000000001
    50   1      6.0881419299999999      22.261841799999999    0.025489439999999999
    51   1             10.14692954             22.26176895              0.02551757
    52   1             14.20573559      22.261804690000002    0.025639160000000001
    53   1             18.26456816             22.26178625    0.025640119999999999
    54   1      22.323400729999999      22.261804690000002    0.025639160000000001
    55   1      26.382206780000001             22.26176895              0.02551757
    56   1             30.44099439      22.261841799999999    0.025489439999999999
    57   1  5.6450000000000003e-05      25.776936450000001              0.02613327
    58   1      4.0587364700000004      25.776936450000001              0.02613327
    59   1      8.1175325399999991              25.7767713    0.024734180000000001
    60   1      12.176376469999999      25.776831090000002              0.02545323
    61   1      16.235145939999999      25.776775220000001    0.025273360000000002
    62   1             20.29399038      25.776775220000001    0.025273360000000002
    63   1      24.352759840000001      25.776831090000002              0.02545323
    64   1      28.411603769999999              25.7767713    0.024734180000000001
    65   1  0.00024266000000000001              2.34304215     0.80166565000000001
    66   1      4.0585502699999996              2.34304215     0.80166565000000001
    67   1      8.1157394600000003              2.34454954     0.80169402000000001
    68   1             12.17601256      2.3433829099999999     0.80116898000000003
    69   1      16.235258170000002      2.3433209100000001     0.80090046999999998
    70   1      20.293878150000001      2.3433209100000001     0.80090046999999998
    71   1      24.353123750000002      2.3433829099999999     0.80116898000000003
    72   1      28.413396859999999              2.34454954     0.80169402000000001
    73   1      2.0293964600000001      5.8582218700000004     0.80119762000000005
    74   1      6.0870566899999998      5.8583336700000004              0.80194851
    75   1             10.14649655              5.85853131     0.80121584000000001
    76   1             14.20597894      5.8582938599999999     0.80086840999999998
    77   1             18.26456816      5.8583798500000004               0.8010794
    78   1      22.323157380000001      5.8582938599999999     0.80086840999999998
    79   1             26.38263976              5.85853131     0.80121584000000001
    80   1      30.442079629999999      5.8583336700000004              0.80194851
    81   1  0.00019438999999999999      9.3717771800000005     0.80082061000000004
    82   1      4.0585985400000002      9.3717771800000005     0.80082061000000004
    83   1      8.1175070500000004      9.3725002699999997     0.80149060999999999
    84   1      12.176590020000001      9.3733583399999993     0.80088261999999999
    85   1             16.23512199      9.3733789200000004              0.80106506
    86   1             20.29401433      9.3733789200000004              0.80106506
    87   1      24.352546289999999      9.3733583399999993     0.80088261999999999
    88   1      28.411629269999999      9.3725002699999997     0.80149060999999999
    89   1      2.0293964600000001             12.88692854     0.80220621000000003
    90   1      6.0883212999999996             12.88743848     0.80138414999999996
    91   1      10.147128609999999             12.88859852     0.80085256000000005
    92   1             14.20571782      12.888558189999999     0.80113791000000001
    93   1             18.26456816      12.888409899999999     0.80109381000000002
    94   1      22.323418490000002      12.888558189999999     0.80113791000000001
    95   1             26.38200771             12.88859852     0.80085256000000005
    96   1      30.440815019999999             12.88743848     0.80138414999999996
    97   1              0.00012365      16.403222639999999     0.80145666999999998
    98   1      4.0586692700000002      16.403222639999999     0.80145666999999998
    99   1      8.1174337899999998      16.403825260000001     0.80097196999999998
   100   1              12.1761021             16.40390721     0.80133072000000005
   101   1             16.23503496      16.403861750000001     0.80140014999999998
   102   1      20.294101359999999      16.403861750000001     0.80140014999999998
   103   1      24.353034220000001             16.40390721     0.80133072000000005
   104   1      28.411702529999999      16.403825260000001     0.80097196999999998
   105   1      2.0293964600000001      19.919205120000001     0.80066369999999998
   106   1              6.08752564             19.91894023     0.80122479000000002
   107   1      10.146078839999999             19.91919038     0.80159137999999996
   108   1      14.204993419999999              19.9192584     0.80178742000000003
   109   1             18.26456816      19.919377350000001     0.80194975999999996
   110   1      22.324142899999998              19.9192584     0.80178742000000003
   111   1      26.383057470000001             19.91919038     0.80159137999999996
   112   1      30.441610669999999             19.91894023     0.80122479000000002
   113   1              0.00142012      23.434536609999999     0.80178442000000005
   114   1      4.0573728100000004      23.434536609999999     0.80178442000000005
   115   1      8.1165862000000004      23.433936769999999     0.80182306000000003
   116   1             12.17555218      23.433996919999998     0.80156656000000004
   117   1             16.23465491      23.434040110000002     0.80170828999999999
   118   1      20.294481409999999      23.434040110000002     0.80170828999999999
   119   1      24.353584130000002      23.433996919999998     0.80156656000000004
   120   1      28.412550110000002      23.433936769999999     0.80182306000000003
   121   1      2.0293964600000001      26.949875330000001              0.80297246
   122   1      6.0858208300000003      26.950066320000001              0.80215291
   123   1             10.14598146      26.949241430000001     0.80165810000000004
   124   1             14.20520604      26.948673230000001     0.80131923999999999
   125   1             18.26456816             26.94858318     0.80108193999999999
   126   1      22.323930279999999      26.948673230000001     0.80131923999999999
   127   1      26.383154860000001      26.949241430000001     0.80165810000000004
   128   1             30.44331549      26.950066320000001              0.80215291
   129   1             -0.00763972   -0.050271910000000003      1.4504566000000001
   130   1               3.9732987    0.069290350000000001              1.34447629
   131   1      8.1402269700000005    0.027551699999999998      1.3710835800000001
   132   1      12.219519869999999    0.031791930000000003              1.55110397
   133   1      16.388086479999998      28.105951009999998      1.4202287199999999
   134   1      20.413958149999999   -0.030582870000000002      1.3922359900000001
   135   1             24.26464631      28.011150010000001      1.3357917500000001
   136   1             28.43325952   -0.034987909999999997               1.5372165
   137   1              1.96512317      3.5269716299999998      1.5981027800000001
   138   1      6.0619234799999999      3.5857136399999998      1.3607015099999999
   139   1      10.059580950000001      3.4936972499999999      1.4680212800000001
   140   1      14.164176660000001      3.4798955999999999              1.44378311
   141   1      18.301968760000001      3.5796349200000002              1.44196218
   142   1      22.323913019999999      3.5640654199999999      1.4998253699999999
   143   1             26.37127271      3.4082515600000001      1.4596003799999999
   144   1      30.365748119999999      3.4691606699999999              1.35989297
   145   1      32.508749600000002      7.1285072300000003              1.55541521
   146   1      4.0420041700000002      7.0535531000000002      1.3401700599999999
   147   1      8.1498679700000007      7.0373230099999997      1.3507251300000001
   148   1      12.208929680000001              7.02724758      1.4867376299999999
   149   1             16.22147159              7.04761404              1.42759627
   150   1      20.323794209999999      7.0046736899999997      1.3391303699999999
   151   1             24.29318018      7.0278342399999998              1.42373719
   152   1      28.467271409999999      7.0256880300000004              1.48548495
   153   1      2.2185532000000001      10.583849819999999      1.5602767799999999
   154   1      6.0858948100000001             10.55904395              1.38853158
   155   1      10.094321949999999      10.548298989999999      1.3853030900000001
   156   1             14.22044829             10.54541616              1.56259317
   157   1             18.27960762      10.509745580000001      1.5110113000000001
   158   1             22.29678041      10.649735659999999               1.4984389
   159   1      26.360841229999998              10.4594127              1.35471557
   160   1             30.41386103      10.526977130000001      1.4516841199999999
   161   1              0.11125101      14.067036229999999              1.50012974
   162   1      4.0784611200000001      14.045293819999999      1.5625632300000001
   163   1      8.0916465100000003      14.085713589999999              1.52460006
   164   1             12.13200108              13.9901511      1.3582996000000001
   165   1              16.2679936      14.139662960000001      1.2162601900000001
   166   1      20.247075540000001             14.14448011              1.52894964
   167   1      24.273013970000001      14.006375630000001      1.4656417399999999
   168   1      28.420973700000001             14.01783081              1.54644012
   169   1      2.0709023599999998      17.672861340000001      1.3999991599999999
   170   1      6.0924441800000002      17.550243380000001              1.50567885
   171   1             10.06670063      17.658649019999999              1.43794095
   172   1             14.10935641      17.611282419999998      1.5111291099999999
   173   1      18.250778090000001      17.641439989999999              1.38034049
   174   1      22.387090700000002      17.532235190000002      1.5631737699999999
   175   1      26.408978229999999              17.5656955      1.4705788099999999
   176   1             30.47521248      17.605938739999999      1.4920393999999999
   177   1      32.464560499999997      20.993589029999999              1.59607984
   178   1      4.1587715599999999      21.045797029999999              1.52466367
   179   1      8.0868922199999993      21.146733579999999              1.58298439
   180   1             12.20409722      21.153829420000001              1.42790336
   181   1      16.265534169999999             21.12204169      1.5035282800000001
   182   1             20.26839086      21.056000650000001      1.4181219899999999
   183   1      24.373215269999999      21.079333099999999      1.4968919199999999
   184   1      28.451373660000002      21.198641049999999      1.4582283300000001
   185   1      2.1529068699999998      24.605212300000002      1.4558251600000001
   186   1      6.1465174999999999      24.511609249999999      1.6229994999999999
   187   1             10.17766174      24.637325300000001              1.60391503
   188   1             14.28125636             24.63337641              1.41666216
   189   1      18.310127820000002      24.625975650000001      1.4971437599999999
   190   1      22.294061639999999      24.603519070000001              1.48533636
   191   1      26.444053650000001             24.49956057              1.58511823
   192   1      30.510650340000002      24.592659269999999              1.44698017
   193   1      1.8422869500000001              1.10825902      2.4370323800000002
   194   1      5.9168958399999996              1.25609448              2.41049968
   195   1      10.047733259999999      1.1641957999999999      2.3562813999999999
   196   1      14.186522050000001      1.1713371699999999      2.3875723500000001
   197   1             18.37009012              1.14465124      2.3933324699999998
   198   1             22.32184488      1.1281748300000001              2.41661642
   199   1             26.26050923      1.0759741300000001      2.3400564500000001
   200   1      30.416040450000001              1.19140851      2.4230444000000002
   201   1      32.498613259999999              4.81384335      2.5036264099999999
   202   1      4.0889799399999998      4.7058687700000004              2.39862441
   203   1      8.0453798200000008      4.5722179699999996      2.3976433899999998
   204   1             12.20459894              4.64019738              2.34406946
   205   1             16.24170466      4.7388675999999998      2.3565509200000001
   206   1      20.318123249999999      4.7170493200000001               2.4513449
   207   1      24.515727999999999              4.69966989      2.3528441199999999
   208   1      28.322088619999999      4.6988344900000003      2.4527368599999999
   209   1      2.1468326100000001      8.2084210500000001      2.5152916799999998
   210   1      6.0639557000000002      8.2128621200000005      2.4199350100000001
   211   1             10.14569754              8.29410296              2.40984672
   212   1             14.20979966      8.1581003600000006      2.5063831900000002
   213   1      18.365982370000001      8.2140485499999993      2.5766371600000002
   214   1      22.383023290000001      8.2038919499999992      2.4252636399999998
   215   1      26.435040969999999      8.1256968599999997              2.43217376
   216   1      30.499979110000002      8.3068542599999997      2.4378237199999999
   217   1      32.465163339999997             11.65290907      2.3833589900000001
   218   1      4.1141971499999999             11.78652507              2.49463824
   219   1      8.1272968799999994      11.658904619999999      2.3802996799999998
   220   1             12.13868802             11.70084879      2.4238574000000002
   221   1             16.27026158      11.771997199999999      2.3665659200000002
   222   1      20.276501339999999              11.7352086              2.48029571
   223   1      24.382222330000001      11.732566909999999      2.3406366300000001
   224   1      28.398877370000001      11.750624459999999      2.3422632800000001
   225   1      2.0339151599999998             15.22314703      2.4632604200000001
   226   1      6.1376015099999996             15.14111084      2.2943009000000001
   227   1             10.12862221      15.159975360000001              2.35935418
   228   1      14.147486089999999             15.21229817      2.4954782799999999
   229   1             18.26664306      15.251766699999999      2.4769876399999999
   230   1      22.324707579999998             15.24800201      2.4931501300000001
   231   1      26.325775270000001              15.2290171      2.3178612200000002
   232   1      30.427064569999999             15.30978863              2.36965037
   233   1      32.416235210000004      18.761597559999998      2.5022091999999998
   234   1      4.0732972700000003      18.561247349999999      2.4759830699999998
   235   1      8.1657668599999997      18.816532559999999      2.4286406500000002
   236   1      12.099143890000001      18.856364169999999      2.4425000300000002
   237   1             16.18205352      18.772205249999999              2.49764089
   238   1      20.324110080000001      18.707438830000001      2.3724833200000002
   239   1              24.2832562      18.832491610000002      2.3843472600000002
   240   1      28.464460089999999             18.89465959              2.39547387
   241   1      2.0648716299999998             22.14173959      2.3673547500000001
   242   1      6.0956327300000002      22.295319540000001      2.4172449899999999
   243   1             10.14609121      22.363164309999998      2.4588720300000002
   244   1      14.110806630000001              22.1578798              2.39549199
   245   1      18.426043799999999             22.28656784      2.4264866700000001
   246   1      22.497667570000001      22.208578190000001              2.37613159
   247   1      26.358951739999998             22.25301194      2.4903494300000002
   248   1      30.477490329999998      22.267983860000001      2.4307018500000002
   249   1    -0.13733290000000001              25.8071141      2.4166441500000002
   250   1      4.0861872100000003      25.714239620000001      2.4162399799999998
   251   1              8.17140515             25.86263267      2.3762008699999999
   252   1             12.18451106             25.80105266      2.3696831299999999
   253   1      16.261082829999999      25.734436460000001      2.3621959399999999
   254   1             20.38166524      25.734337010000001      2.3900268200000001
   255   1             24.38289885      25.653037470000001      2.3978381400000002
   256   1      28.488781240000002      25.732629589999998      2.5255533300000002
   257   1   -0.094609180000000001      2.4100693500000001      3.2579805300000002
   258   1              3.91026388      2.3186745599999998      3.2886180600000001
   259   1      8.0418058200000004      2.2510885300000001      3.1975165200000002
   260   1             12.12633546              2.20946189              3.15396542
   261   1             16.27502956      2.3434483199999998              3.23277276
   262   1      20.360760030000002      2.3972320800000002      3.3159965499999999
   263   1             24.39577894      2.3441790199999999              3.23182262
   264   1      28.365241340000001      2.3234564799999999              3.36979446
   265   1              2.12464904      5.8524594600000004              3.31388507
   266   1      6.0978233800000003      5.8438841300000002      3.2098877400000001
   267   1             10.16745802      5.7778716899999996      3.2354163300000001
   268   1      14.199658319999999      5.8502783000000003      3.2026245800000002
   269   1      18.307579430000001              5.72366917      3.3327884800000001
   270   1      22.448671239999999      5.8411260299999999      3.3097232999999999
   271   1      26.385210619999999      5.8541806000000003              3.33116615
   272   1      30.432703950000001      5.8658116400000004      3.1968740699999998
   273   1             32.44456417      9.4447852000000001      3.2130357699999998
   274   1      4.0896630500000004      9.4027606200000005              3.32741401
   275   1      8.1245473700000002      9.3178427399999997      3.1845328799999999
   276   1             12.11984303      9.3775035800000008      3.2893419700000002
   277   1      16.251325739999999      9.2843797800000001      3.2464299200000002
   278   1              20.3882564      9.4645944100000001      3.4033034400000002
   279   1      24.412577500000001      9.3636994399999995      3.1718241100000002
   280   1      28.473687309999999      9.3608371500000001      3.2596250100000002
   281   1      2.0751413400000001             12.81431985      3.3849811299999999
   282   1      6.1401449499999998      13.039716439999999              3.34425566
   283   1      10.185991919999999             12.81794932              3.26627782
   284   1      14.296482620000001      12.789497069999999      3.2350004800000001
   285   1             18.22697698             12.85493014              3.23390662
   286   1             22.24311462      12.928758480000001      3.3015384000000001
   287   1              26.2706254      13.002228479999999      3.2115175699999998
   288   1      30.451940839999999             12.99812303      3.2999636300000001
   289   1      32.420051569999998             16.30150407      3.2705745099999999
   290   1              4.03842195      16.308424939999998      3.2002355900000001
   291   1      8.1239550099999995      16.399286750000002      3.2089180000000002
   292   1      12.102761790000001      16.457710079999998              3.26948683
   293   1             16.21491726              16.4296744      3.2658708500000002
   294   1      20.175493540000002      16.462942389999998              3.27340191
   295   1      24.240912439999999      16.411062770000001      3.2994275000000002
   296   1      28.234559910000002      16.432842300000001      3.3394801599999999
   297   1              2.06099787             19.77515008      3.1736456500000001
   298   1      6.1211087700000002      19.885432130000002      3.3282407900000002
   299   1      10.100414799999999      20.018369750000002              3.17533267
   300   1             14.19465441      19.863357090000001              3.28996888
   301   1              18.4114948             20.01161097      3.2946115800000002
   302   1             22.22231914      19.944289189999999              3.24934682
   303   1      26.332809690000001      20.001737909999999      3.3547694099999998
   304   1      30.471646289999999      19.964749730000001      3.2665074399999998
   305   1    0.051744930000000001      23.344835880000002      3.1969000699999999
   306   1      4.0628318300000004      23.487888699999999      3.3577606499999999
   307   1      8.0761879899999993      23.567515459999999      3.2827219400000001
   308   1      12.151951589999999                 23.4514      3.2964689900000002
   309   1             16.15453845      23.331121719999999              3.24498833
   310   1      20.291612780000001      23.375719199999999              3.25144418
   311   1      24.345694519999999      23.477811030000002      3.3231528799999999
   312   1      28.478766740000001      23.522704520000001              3.23178477
   313   1      2.0789688900000001              26.8729695              3.11374072
   314   1      6.2031064499999999             27.01776907      3.2824372400000001
   315   1      10.210775979999999      27.019427740000001      3.1514985000000002
   316   1             14.14612644             26.98126164      3.2326057800000001
   317   1      18.297530800000001             26.84778661      3.1760231299999999
   318   1      22.324479669999999      26.878611639999999              3.30550012
   319   1      26.386807059999999             26.84097976      3.2790882200000002
   320   1      30.416150439999999      26.989881650000001              3.31293199
   321   1    0.032085389999999998    0.061694800000000001      4.0664342500000004
   322   1      3.8819972900000002      28.107709190000001      3.9903278599999998
   323   1      8.1114396699999993      28.146159010000002      4.0899933600000002
   324   1      12.182180560000001   -0.049242210000000002      4.0099240199999997
   325   1      16.320040710000001              0.02463398      3.9561353000000001
   326   1             20.35171519      28.195559119999999      4.0340354600000001
   327   1      24.307320870000002   -0.054339569999999997              3.96399423
   328   1      28.381799109999999      28.037720790000002      4.0793976399999998
   329   1      1.9727734100000001      3.4959239200000001      4.1119480299999998
   330   1      5.9897725399999997      3.5047442800000002      4.0547661499999998
   331   1      10.013768130000001      3.4988891199999999      4.0183798800000003
   332   1             14.19791968      3.4409922399999999              4.07797491
   333   1      18.206156199999999      3.5145873600000002      4.1235315400000001
   334   1      22.349575829999999              3.50642831      4.1351481300000001
   335   1      26.366180610000001      3.4956450800000001      3.9852854600000001
   336   1      30.464069120000001              3.67368871      4.0863249000000001
   337   1   0.0078222099999999996      7.0872064300000002              4.03782087
   338   1      4.0095024600000002      6.9768886999999999      3.9476768600000001
   339   1      8.1918554300000004      6.9646130099999999      4.0286461100000004
   340   1             12.17616694      7.0022694999999997      4.0420182699999998
   341   1      16.306991549999999      7.0133393399999999      4.1600274700000002
   342   1             20.24783291      7.0540719699999999      4.1670118599999997
   343   1      24.386394670000001      7.0617032499999999      4.0528223399999996
   344   1      28.429457800000002      7.0032603900000003              4.08923638
   345   1      2.1001226399999999      10.526430510000001      4.1091428299999997
   346   1      6.1583011499999998             10.62671372      4.0261178099999997
   347   1             10.11071173      10.568510870000001      4.0274179800000001
   348   1      14.212922259999999      10.473791309999999      4.1535122199999996
   349   1      18.234937599999999      10.524477360000001      3.9859274999999998
   350   1      22.345789379999999      10.574098879999999      4.0267396199999999
   351   1      26.411972250000002             10.58043874      4.0306132200000002
   352   1      30.381693160000001             10.63311543      4.1570841300000003
   353   1             -0.01465719             13.98001721      4.0193107000000001
   354   1      4.0706945899999996      14.084123160000001      4.1341729100000002
   355   1      8.2162284999999997      14.188002640000001      4.2503929500000002
   356   1             12.27309715             14.02363652              3.90684502
   357   1      16.184700759999998             14.01324037              3.98145821
   358   1      20.302435599999999      14.052546919999999      4.1998639000000004
   359   1      24.316335179999999      14.113915349999999      4.0738289600000002
   360   1      28.351411550000002             14.02851491      4.0099009099999998
   361   1              2.08848083             17.48127788              4.04486759
   362   1      6.2225042300000002      17.487266590000001      4.1381206600000002
   363   1      10.163406699999999      17.508528219999999              3.99534827
   364   1              14.1557549             17.59434345      4.1432984599999996
   365   1      18.166433380000001      17.630155940000002      4.0511307299999997
   366   1      22.296882159999999             17.65753003      4.0980496899999999
   367   1      26.327077070000001      17.652096889999999      4.0920784899999996
   368   1             30.39283009             17.70779267      4.0852495199999996
   369   1      32.473911749999999      21.000594410000001      4.2159202499999999
   370   1              4.02473671      21.179496759999999      4.1004979600000002
   371   1      8.1758658700000009             21.24474567      4.1361714599999999
   372   1             12.25560645      21.139069200000002      4.0592390600000003
   373   1             16.18079067      20.929197540000001              4.11907114
   374   1      20.339302020000002      21.086258950000001      4.1262146700000004
   375   1             24.34849457      21.201435889999999      4.0435337899999997
   376   1      28.448346109999999      21.161777879999999      4.0756432499999997
   377   1      1.9699695399999999             24.57902503      3.9590131099999999
   378   1      6.0848958299999998             24.64886491      4.1250421599999996
   379   1      10.122518769999999      24.628356069999999      4.0672372699999997
   380   1             14.13685495             24.55482525      4.1587423599999997
   381   1      18.212551789999999      24.525155810000001      4.0661721499999999
   382   1      22.331287889999999      24.688263299999999      4.0865750299999997
   383   1      26.397463999999999      24.540459540000001      4.0561555499999997
   384   1      30.502173190000001      24.544934730000001      4.2211659700000004
   385   1      2.0129859099999998      1.2918782600000001      4.9286290099999999
   386   1      5.9358904099999998      1.1875887599999999      4.9669609299999999
   387   1      10.024596239999999              1.25063287      4.8654420399999996
   388   1             14.25816813      1.0928854800000001      4.8437924499999996
   389   1      18.312892099999999              1.15658018      4.8374628900000003
   390   1             22.33103096              1.07564817      4.8681664800000002
   391   1      26.312006100000001               1.0542201      4.8554462300000001
   392   1      30.408971090000001              1.20886304      5.0070047899999999
   393   1      32.503464289999997      4.7564753499999997      5.0687814900000001
   394   1      3.9418961800000001      4.6247030599999999      5.0028950999999999
   395   1      7.9297653099999996              4.56973641      4.8823289299999999
   396   1             12.20705274      4.6631043600000002      4.7928355099999997
   397   1      16.297081469999998      4.6359463099999996      4.9233560799999996
   398   1      20.327330249999999      4.8447190999999998      5.0846164299999996
   399   1      24.383151380000001      4.6639640099999999      4.9218130999999996
   400   1      28.360376720000001      4.5921699699999996      4.9852472900000002
   401   1      1.9810392299999999      8.2246018700000008      4.9595665200000001
   402   1      6.2198301699999998      8.1233400699999994      4.8523930699999998
   403   1             10.15307602      8.1754072200000003              4.85024444
   404   1             14.13868504      8.1533666599999997      4.8808413799999997
   405   1              18.2865182      8.1971932499999998      5.0261273600000003
   406   1      22.389858759999999      8.1769900799999995      4.8596193599999999
   407   1             26.33069399      8.2603408799999993      4.9136645400000001
   408   1      30.511846599999998      8.3017099299999995      5.0589635399999997
   409   1      32.561358429999999             11.74461895      4.8316339599999996
   410   1      3.9848353400000001      11.712149289999999      5.0815949700000003
   411   1      8.1430548700000003      11.738647459999999               4.8222372
   412   1      12.172158400000001      11.665979549999999      4.9136338500000001
   413   1      16.195332669999999      11.641836359999999      4.9017856200000001
   414   1             20.31526749      11.736410920000001      4.9685375399999998
   415   1             24.34787687               11.708491      4.8825897899999999
   416   1      28.327554849999999      11.662760240000001      4.8339107600000002
   417   1      2.0252663800000001             15.13503901      5.0385242400000001
   418   1              6.08950456             15.26421538      4.9590651899999996
   419   1             10.25096915              15.1292411      4.9533571299999997
   420   1             14.16196912      15.241110669999999      4.9356176899999999
   421   1      18.229551390000001      15.168208079999999      4.8090180599999997
   422   1      22.235300609999999             15.29800024      4.9674560400000001
   423   1      26.458730379999999             15.25899124      4.8646381700000001
   424   1      30.493485039999999             15.30002752      4.8970650600000001
   425   1              0.09412239      18.710458679999999      4.9100998300000001
   426   1      4.0197050699999997      18.752485310000001      4.9478644300000001
   427   1      8.1650017600000009      18.767502570000001      4.8802680499999997
   428   1      12.259279210000001      18.703457709999999               5.0547708
   429   1      16.196750269999999      18.695476840000001      4.9415690699999999
   430   1      20.305626549999999             18.62686901      4.9139749100000003
   431   1      24.312703089999999             18.77578368      5.0758339100000001
   432   1      28.329079740000001             18.64330438      4.9628079200000004
   433   1      2.0123636399999998             22.33228574      4.8577994999999996
   434   1      6.0733557899999999      22.361374189999999      4.9582645000000003
   435   1      10.129490410000001      22.305507540000001      4.8518292599999997
   436   1              14.3292711             22.26076772      4.9568925899999998
   437   1      18.297417729999999             22.17413303      4.9201941500000004
   438   1      22.284981640000002             22.37356668      4.9428117499999997
   439   1      26.367202599999999      22.327098620000001      4.8897843500000002
   440   1      30.453744029999999      22.196357899999999      5.0759049899999997
   441   1              -0.0180482      25.877416220000001      4.8613573099999998
   442   1      4.0791035200000003      25.838644510000002      4.9918454399999996
   443   1      8.1696499199999995      25.899986819999999      4.9912291099999999
   444   1      12.150856539999999             25.72365306      4.9663437500000001
   445   1      16.174613610000002      25.754842360000001      4.8905592799999997
   446   1      20.278431919999999      25.648332499999999      4.9300900399999996
   447   1      24.299953169999998             25.75670019      4.9957132900000003
   448   1      28.345917620000002             25.82014611      5.0467441099999997
   449   1   -0.020643769999999999      2.4333440099999999              5.83692542
   450   1      3.9884657699999999      2.4266640499999999      5.8150663800000002
   451   1      7.9415521299999998      2.2481713999999999      5.6775039999999999
   452   1             12.14037965      2.2705394700000001      5.5985586700000001
   453   1      16.204757910000001      2.2634095200000002      5.6540109300000001
   454   1      20.253321199999998      2.4812709100000001      5.7994062299999998
   455   1      24.296249769999999      2.3171810700000002      5.6942466600000001
   456   1      28.378681799999999      2.3165375899999998      5.8717239000000001
   457   1              2.00421782      5.9153461399999996      5.8178406799999998
   458   1      6.0712488999999996              5.79542175      5.7392549600000002
   459   1      10.124219500000001      5.8560801600000003      5.6318124000000003
   460   1      14.289957230000001      5.7432878599999997      5.6309725200000003
   461   1      18.173167060000001      5.7567261600000004      5.8357390000000002
   462   1      22.322956489999999              5.91984537      5.8159178300000001
   463   1      26.342577389999999      5.8527039900000002      5.7816920999999999
   464   1      30.415754270000001              5.94209663      5.7526601099999999
   465   1      32.583942720000003      9.5600351299999993      5.8084497099999997
   466   1      4.1963635500000001      9.3751012800000009      5.7716823000000002
   467   1              8.04847337      9.4430886800000007      5.6051264999999999
   468   1      12.027127699999999      9.2097003199999996      5.6807103400000001
   469   1      16.161552350000001      9.2801759700000002      5.8232597999999998
   470   1             20.31425192      9.3593236999999991      5.7417088600000001
   471   1      24.349214310000001      9.4847405800000004      5.7017194599999996
   472   1      28.424745219999998      9.4432923800000008      5.7227710199999997
   473   1      2.0314115199999998      12.821147959999999      5.8477706600000001
   474   1      5.9938283300000004      12.884061750000001      5.9028317499999998
   475   1             10.09499971              12.7399465      5.7186551999999997
   476   1      14.248896609999999      12.673317000000001      5.8355895100000001
   477   1      18.185712089999999             12.92037167      5.6301129999999997
   478   1      22.274485909999999             12.93071471              5.69748213
   479   1      26.257789989999999      12.960290369999999      5.6106460299999998
   480   1      30.362266940000001      12.852766340000001      5.8421202799999996
   481   1              0.12200017      16.459835129999998              5.74949186
   482   1      4.0619809299999998      16.471927149999999              5.75933428
   483   1      8.2330548700000001             16.39042023              5.70799214
   484   1             12.27576481      16.362823169999999      5.7539953600000002
   485   1      16.124495540000002             16.27492625      5.6939270000000004
   486   1             20.27625476      16.321140020000001      5.8641935299999997
   487   1      24.260147400000001      16.378058639999999              5.70791468
   488   1             28.48989654      16.353799630000001              5.76362329
   489   1      2.0024771600000002      20.084874030000002      5.7078226000000001
   490   1      6.0211740799999998             19.95946666      5.7714017899999996
   491   1      10.189852800000001             19.99404007      5.7835850400000002
   492   1      14.299290969999999             19.89055664      5.8441176300000004
   493   1      18.240408980000002      19.863047859999998      5.7245019099999999
   494   1      22.355720730000002      19.873508579999999      5.7223876300000001
   495   1      26.393683509999999             19.92966156      5.8692423800000002
   496   1      30.320538320000001      19.788690899999999      5.7894790299999999
   497   1              0.08998797      23.480042659999999              5.82429168
   498   1      3.9923879499999999             23.51724355      5.7362994199999999
   499   1      8.1312206699999994      23.518118340000001      5.8129917600000001
   500   1      12.270129750000001      23.479350350000001      5.8107718899999998
   501   1      16.268505699999999      23.325368350000002      5.7750010400000003
   502   1      20.343042700000002      23.405809260000002      5.7806379400000001
   503   1      24.216969639999999      23.411298559999999      5.8474246699999997
   504   1      28.354223430000001      23.316233650000001      5.8486707400000002
   505   1      1.9490312400000001      26.949868599999999      5.7539452899999999
   506   1      6.0168943500000003      27.032911259999999      5.7834775499999997
   507   1             10.14908692      27.013751490000001      5.6904640799999999
   508   1             14.08986009             26.78026208      5.6649624599999999
   509   1      18.250985400000001      26.927256530000001      5.7394779199999997
   510   1             22.22556629             26.97368067      5.7905694600000004
   511   1      26.344737609999999      26.841613989999999              5.85620122
   512   1      30.445785990000001      26.996509379999999      5.8145569699999999
   513   1    0.017137630000000001                0.015086      6.5499349899999997
   514   1      4.0154538899999999              0.02185867      6.5143580800000001
   515   1      7.9932229399999999   -0.063391100000000006      6.6367851599999996
   516   1             12.13280793    -0.15589882999999999      6.4132423999999997
   517   1      16.154738519999999   0.0091409500000000001      6.5988652600000002
   518   1             20.30983857      28.100467890000001      6.6285158700000002
   519   1      24.318163630000001              28.0294436      6.4869332799999997
   520   1      28.339807950000001      28.135639269999999      6.6421787400000003
   521   1      1.9960142700000001      3.4809276699999998      6.6329150700000001
   522   1      6.0084592199999998      3.4640852999999998      6.5739848600000004
   523   1      9.9717661399999997      3.3587649700000002      6.4460135699999999
   524   1             14.07563062      3.4515110899999999      6.5490972899999997
   525   1      18.180619629999999              3.49171203      6.6993693900000002
   526   1             22.24982262               3.5139722      6.5943363599999998
   527   1      26.456977689999999              3.43747018      6.5565924999999998
   528   1             30.37622593      3.4664980600000002      6.7608355199999997
   529   1    0.018535510000000002      7.0787136799999999      6.5894647700000002
   530   1      3.9967950299999999      6.9559221000000004      6.5924929600000004
   531   1      8.0710272599999993      6.9106914100000001      6.5026714800000001
   532   1             12.06019998      6.9817056400000004      6.5233597100000003
   533   1      16.167317700000002      6.9458255600000003              6.76630296
   534   1              20.1279313      7.0182118100000004      6.7366535000000001
   535   1             24.30246412      7.0394398699999998      6.5341183699999998
   536   1      28.449355099999998      7.0911983100000002              6.62746967
   537   1      2.0144840899999998             10.47177405      6.6692271500000002
   538   1              6.14065511              10.5461966              6.58301508
   539   1      10.071222629999999             10.41943483      6.5567741499999999
   540   1             14.13951943             10.47054005      6.6193166200000002
   541   1             18.10762004             10.52128168      6.5630100899999997
   542   1             22.32540934             10.52335708      6.4890604300000003
   543   1      26.397837089999999      10.638668709999999      6.4951655600000002
   544   1      30.458131430000002      10.565473900000001      6.7058573900000003
   545   1      32.408921429999999             14.02402466      6.5139444500000003
   546   1      4.0142252899999997              14.0787142      6.6521355499999997
   547   1      8.1440494099999992      14.043855389999999      6.5720190199999999
   548   1             12.16970873             13.98024517      6.3552838700000001
   549   1      16.207430129999999      13.893561999999999      6.5516737899999997
   550   1      20.286379230000001             14.04845079              6.68372967
   551   1      24.219602399999999      13.993149519999999      6.5017825299999998
   552   1      28.429392910000001              13.9790405              6.59601799
   553   1              1.99034994               17.587363      6.6809866099999997
   554   1      6.1503162400000004      17.619492220000001              6.49935917
   555   1      10.229316069999999      17.663978230000001      6.5898122399999997
   556   1      14.293433739999999      17.555212180000002      6.7066967499999999
   557   1             18.27890038      17.424597160000001      6.4354144299999998
   558   1      22.305480419999999             17.40382146      6.6047995899999998
   559   1      26.366356079999999             17.59366623              6.67424236
   560   1      30.479729469999999      17.525571379999999      6.6820103299999998
   561   1   -0.080613489999999996      21.142329610000001      6.6823795199999996
   562   1      4.0441868000000003      21.103055040000001      6.5714685399999997
   563   1      8.1789479800000002      20.994464229999998      6.7028804600000003
   564   1             12.34172577      21.184246290000001      6.6321973200000004
   565   1      16.316183850000002      21.026143229999999      6.6196942500000002
   566   1             20.25110578             21.02210689      6.5582436900000003
   567   1      24.257490610000001      20.962516900000001              6.66797649
   568   1      28.380710090000001      21.085274689999999              6.62633078
   569   1              1.92050725             24.70005536      6.5186160500000003
   570   1      6.0885303100000003      24.554932170000001      6.5481515899999998
   571   1             10.16729042      24.607165729999998      6.6659529199999996
   572   1      14.212625689999999      24.513687959999999      6.7111728599999996
   573   1             18.22030633             24.54048152      6.5315925699999999
   574   1             22.30413016      24.611912740000001      6.6575840599999996
   575   1             26.28921566      24.540975549999999      6.6492802800000002
   576   1             30.38128657      24.592152259999999      6.6762347599999998
   577   1              1.99031873      1.2199349900000001      7.6052203799999996
   578   1      6.0061004499999999      1.1428880699999999      7.4737677500000004
   579   1             10.20169284              1.12450881               7.5234486
   580   1      14.037069219999999     0.96595273999999998      7.4121460099999998
   581   1      18.323374319999999      1.1300051499999999      7.4513913499999997
   582   1      22.180783739999999      1.1561246199999999      7.4102629999999996
   583   1      26.328383429999999      1.1175793199999999      7.4632690300000002
   584   1      30.373750009999998      1.1410858500000001      7.6844782599999997
   585   1   -0.057443710000000002      4.7452614100000003               7.6001059
   586   1      3.9949834100000001      4.6506970900000004      7.5224364699999997
   587   1      7.9262389400000002      4.5453193599999997              7.38625855
   588   1             11.93916653      4.6508935400000002      7.3362673799999998
   589   1             16.17367102      4.5321058900000004      7.4992268500000003
   590   1      20.285992419999999      4.6734382099999996      7.6237080800000001
   591   1              24.4129535      4.5734219100000004      7.3392217999999998
   592   1      28.322727279999999      4.7798204799999997      7.5356019400000003
   593   1      2.1285183700000001      8.2127906999999993      7.7170123400000001
   594   1      6.1369162800000003      8.1851250800000006      7.3800086800000004
   595   1      9.9830705799999997      8.1830226600000007      7.3674300600000002
   596   1             14.06064473      8.0403959300000007      7.5918365000000003
   597   1      18.117938250000002              8.28376746              7.66085511
   598   1             22.20553602      8.2714078400000002      7.5406170100000001
   599   1      26.475599500000001              8.17697012      7.4491247200000004
   600   1      30.540115320000002      8.1800445699999997      7.5057961300000002
   601   1      32.440940130000001              11.7290607      7.5523822300000001
   602   1      4.1144841100000002             11.70166058      7.6073249699999996
   603   1      8.0674347300000004             11.72014512      7.6962710599999999
   604   1             12.07226294             11.64831248      7.3570776200000001
   605   1      16.202204429999998             11.71285992      7.4838021000000001
   606   1      20.280551920000001             11.71175955      7.4558382300000003
   607   1      24.220911610000002             11.63268309      7.3824181199999996
   608   1      28.312102469999999             11.68171727      7.4228477699999997
   609   1              2.04893546             15.15100455      7.5088562300000001
   610   1              5.99963801      15.232569290000001              7.63748643
   611   1             10.22436695      15.167805080000001      7.5171668399999998
   612   1             14.19213961             15.06794024      7.5197827300000002
   613   1      18.163276490000001      15.162703860000001      7.4206378700000002
   614   1      22.353180819999999             15.14727394      7.6145925600000002
   615   1             26.43056301      15.173660569999999      7.3306704600000003
   616   1             30.47558605      15.231990980000001      7.4464836200000004
   617   1   -0.036809509999999997             18.68556482              7.52826986
   618   1      4.1114252000000002      18.832272469999999      7.5021233799999996
   619   1      8.1798314399999992      18.803403039999999              7.59360898
   620   1             12.13583352      18.744696789999999              7.43666479
   621   1      16.273328079999999      18.762071460000001      7.6493657700000002
   622   1      20.366143780000002      18.649297690000001      7.5194380399999998
   623   1      24.399466539999999      18.613031769999999      7.6532017799999998
   624   1      28.252359670000001             18.74586395      7.4484521499999996
   625   1      1.8854999100000001      22.366051909999999      7.5947504300000004
   626   1      6.0665035200000004      22.287145030000001              7.56167225
   627   1             10.24456092      22.314605480000001              7.66312441
   628   1      14.293562870000001      22.390228969999999      7.3998668399999996
   629   1      18.288100499999999      22.242574860000001      7.4860778300000002
   630   1             22.29269661      22.211012790000002      7.4728980500000004
   631   1             26.27659659      22.167214309999999      7.5696270999999999
   632   1      30.305730520000001             22.29101747      7.7449351899999996
   633   1   -0.072070540000000002      25.703195130000001              7.48070024
   634   1      3.9426077400000001      25.770639160000002      7.5293364499999997
   635   1      8.1576036900000002              25.6722897      7.5668059999999997
   636   1              12.1872553      25.738968310000001      7.6294782200000002
   637   1             16.21400255      25.672066839999999      7.7017554700000002
   638   1      20.199904409999998      25.719364299999999      7.4126024499999996
   639   1      24.296579309999998             25.71669485      7.6394116399999996
   640   1      28.308360660000002      25.769636169999998      7.4526627599999999
   641   1             -0.10609612              2.40403761      8.3001104899999998
   642   1      4.0192879699999997      2.4177042700000002      8.2809546399999991
   643   1      8.0168631000000001      2.3090088400000002      8.1751222400000003
   644   1             12.18309936      2.3994046299999998      8.0557512399999993
   645   1      16.135359139999998      2.2260824100000001      8.1620164099999997
   646   1             20.32126744      2.3265254899999999      8.2456036099999999
   647   1      24.227889309999998      2.2304757300000002      8.1179760099999996
   648   1      28.331250359999999      2.2416189499999999      8.2628555299999995
   649   1      2.0333083200000002      5.8840599300000003      8.2893370399999995
   650   1      5.8907099000000001      5.7856808099999997      8.3647507099999991
   651   1      9.9344295200000001      5.7509494700000001      8.0227781399999998
   652   1      13.970028060000001      5.7099801399999999      8.1846899200000003
   653   1      18.103212599999999      5.8279458599999998      8.2760217300000001
   654   1      22.326144249999999      6.0113761300000004      8.3152051700000005
   655   1      26.269225330000001      5.8791096899999999      8.3312116199999995
   656   1      30.433376890000002      5.9682435199999997      8.2768906399999995
   657   1      32.505586880000003      9.3207901500000006      8.2723337499999996
   658   1      4.2352172299999999      9.4269158500000003      8.2509035900000001
   659   1      8.0724519000000008              9.28902815      8.1218329199999992
   660   1      11.972621780000001      9.2909541999999998      8.1471161999999993
   661   1             16.16557852      9.4541683499999998      8.3373893300000006
   662   1             20.22705552      9.3459202099999992      8.3380370399999997
   663   1      24.375954249999999      9.3343868499999996      8.2084850199999995
   664   1      28.503110710000001      9.3021686999999993      8.1741084300000004
   665   1              1.98797822      12.743094340000001      8.3199378999999993
   666   1      6.0772836100000003      12.807647190000001      8.2807756599999998
   667   1      9.9858214499999995             12.76312987      8.1105377399999998
   668   1             14.04270002             12.64984039      8.2296694899999991
   669   1      18.179027550000001              12.7922552      8.4004138000000008
   670   1      22.239937139999999             12.82026634      8.1516318499999993
   671   1      26.323048889999999             12.84447261      8.1660845299999991
   672   1             30.37871994      12.897131079999999      8.2444637499999995
   673   1    0.089961890000000003      16.398862569999999      8.2305596300000001
   674   1      4.2215903800000003      16.537452340000002      8.2569429099999994
   675   1      8.1692130699999996      16.368953430000001      8.1817893300000009
   676   1             12.22031335      16.337213049999999      8.2486160599999998
   677   1      16.209999140000001              16.2363967      8.1949331599999997
   678   1      20.389766609999999      16.353779679999999      8.2139573400000003
   679   1             24.49628658      16.190958439999999      8.1940176499999993
   680   1      28.448050869999999      16.442461479999999      8.1135662800000006
   681   1      2.0930005199999999      20.004964279999999      8.1270551300000005
   682   1      6.1757051900000004      19.914886989999999      8.2439370200000006
   683   1             10.18954707      19.972702000000002      8.2880591100000007
   684   1              14.2669821      20.040640960000001      8.1340825999999993
   685   1      18.406622899999999      19.938026900000001      8.1838419699999996
   686   1      22.318606899999999      19.727084130000001      8.3063849399999992
   687   1      26.367750659999999      19.935598819999999      8.3830980799999999
   688   1      30.354848440000001      19.757378689999999      8.1731276099999999
   689   1   -0.096386379999999994      23.423750590000001      8.3922655200000005
   690   1      4.0262884699999999             23.40917177      8.0405649399999994
   691   1      8.1414968999999999      23.445994299999999      8.2323801999999997
   692   1             12.19889397      23.498064450000001              8.39208541
   693   1      16.342543589999998      23.384850149999998      8.3154337300000005
   694   1      20.247667509999999             23.49779573      8.3585102199999994
   695   1      24.348988339999998      23.293759219999998      8.2657001099999992
   696   1      28.242751429999998      23.414277980000001      8.2436567200000006
   697   1      1.8181475300000001             26.91066159      8.1025665900000003
   698   1      5.9626827000000002      26.935535680000001      8.2186315200000006
   699   1             10.16109561             26.83526316      8.1177549300000003
   700   1      14.085813569999999      26.974399009999999      8.3228718300000004
   701   1              18.3205919      26.963569799999998      8.0965764900000003
   702   1      22.103000569999999      26.921327980000001              8.29024772
   703   1      26.241221299999999      27.020901599999998      8.2466443199999997
   704   1             30.39229443      26.907659110000001      8.1685195799999999
   705   1    -0.31860617000000002     0.13950845000000001      9.0162237300000001
   706   1      3.9796918400000001             -0.10652898      8.9259484100000002
   707   1      8.2758233400000005   -0.025198350000000001      8.9484140399999994
   708   1              12.0020746   0.0067781500000000001      8.9621306000000001
   709   1             16.39163988   -0.019895489999999998      9.0621003000000009
   710   1      20.099995159999999      28.223364239999999      9.0534886700000001
   711   1             24.14416898      28.029981159999998      8.8694602400000004
   712   1              28.2863908      28.170011909999999      9.0076340100000003
   713   1      1.9586712399999999      3.6480624499999998      9.0284056499999998
   714   1      5.9552557000000004      3.3242293799999998      9.0751840300000008
   715   1      9.9476534500000007      3.4318463000000001      8.7629406700000008
   716   1      14.209322390000001              3.38302097      8.9226478500000006
   717   1      18.239219519999999      3.2370061799999998      9.0701703499999997
   718   1      22.456850670000001      3.7203767700000001      8.8704233899999991
   719   1      26.385732919999999      3.4807450100000001      9.0835497099999998
   720   1      30.309766669999998      3.5387866099999998      9.1814133000000009
   721   1              0.14959427      7.0554142300000002      9.0490594899999994
   722   1      4.0562916500000004      7.1654784300000003      9.0371445399999999
   723   1      8.0525911699999995      6.9014891900000004      8.8774813600000009
   724   1             11.88163741      6.8908200199999996              8.98631344
   725   1             15.90978973              6.97722905      9.0203057199999996
   726   1      20.014818290000001      7.0409757900000001              9.14627269
   727   1             24.23319807      7.1468331599999999      8.9198346799999992
   728   1      28.238328500000001      6.9415222099999996              9.12790064
   729   1      2.0883377599999999             10.37052789      8.9904044200000008
   730   1      6.1166619400000002             10.64548287      9.0622857999999997
   731   1      9.9722086500000007             10.63532324      8.9123207099999995
   732   1      14.010037909999999             10.24334904      9.0103602499999997
   733   1             18.36592036             10.41606606      9.0185635899999994
   734   1      22.286026150000001             10.51531799               8.9435547
   735   1      26.473978880000001      10.351313299999999      8.9497902000000007
   736   1      30.499578530000001             10.62969588      9.0606236100000004
   737   1      32.470039640000003      14.035399870000001      9.0307386300000001
   738   1      3.9175623399999999             14.30491464      8.9607995900000006
   739   1      8.0246723600000003             14.00312143      9.0942713000000008
   740   1      12.036020349999999             13.88118762      8.8115838899999996
   741   1      16.134887639999999      13.763144520000001      9.0369452300000006
   742   1      20.367453860000001             14.14093658      8.9530415800000007
   743   1      24.299863479999999             13.89861054      8.9020240099999999
   744   1      28.190375020000001             14.23775419      8.9267569200000008
   745   1      2.0081949099999998      17.761537409999999      8.9449613699999997
   746   1      6.3541293599999999      17.608596120000001      9.0462907399999999
   747   1      10.170570440000001             17.51082551      8.8404933799999998
   748   1      14.136528500000001      17.617205210000002      8.9205416799999995
   749   1             18.27276981             17.56752942      8.8854294700000001
   750   1      22.599138679999999      17.150657679999998      9.1615086100000003
   751   1             26.53934911      17.631412439999998      9.0541926000000004
   752   1             30.50250454             17.42225857      9.1333146000000003
   753   1             -0.16272364      21.014705240000001      9.0002561300000004
   754   1              3.99534404      21.118238259999998      8.8700130000000001
   755   1      8.0865024699999992      21.186057510000001      9.0255531799999993
   756   1      12.176133370000001      21.061538909999999      8.8373118999999996
   757   1             16.26422049      21.219754210000001      8.9679390199999993
   758   1             20.49064409      21.085780159999999      9.0045598899999995
   759   1      24.240350299999999      21.055468820000002      9.0948272200000009
   760   1      28.370008009999999      21.004907670000001      8.9542454399999993
   761   1              2.14528907      24.784563129999999      8.8925411499999996
   762   1      5.9252783000000004             24.58576206      8.9662532099999996
   763   1             10.11202162      24.666002580000001      9.0770461099999995
   764   1      14.371213490000001      24.445394400000001      9.0798234999999998
   765   1      18.258195600000001      24.772585540000001      9.0128624800000008
   766   1             22.35197543      24.653875379999999      8.9797460499999993
   767   1             26.01720736      24.588917120000001      9.0428623300000002
   768   1             30.09794355      24.570520729999998      9.0962105399999995
   769   2      29.172567839999999      5.1884735600000003      9.3304694099999992
   770   2      28.236361169999999      3.6789823899999998      9.4199461099999997
