N2-dn2-coord-10bar/700K/snapshots/frame-115530/run-000/../data.lammps (written by ASE) 

770 	 atoms 
2  atom types
0.0      32.470343392086264  xlo xhi
0.0      28.120142247150884  ylo yhi
0.0      31.213473999158239  zlo zhi


Atoms 

     1   1      2.0293964600000001      1.1716090800000001    0.023552650000000001
     2   1      6.0880008999999999              1.17168918              0.02556874
     3   1      10.146952280000001              1.17170328    0.025416459999999998
     4   1      14.205754900000001      1.1716496700000001              0.02501565
     5   1             18.26456816              1.17166478              0.02504435
     6   1             22.32338141      1.1716496700000001              0.02501565
     7   1      26.382184030000001              1.17170328    0.025416459999999998
     8   1      30.441135410000001              1.17168918              0.02556874
     9   1  9.1780000000000006e-05      4.6866847900000002    0.025581599999999999
    10   1      4.0587011400000002      4.6866847900000002    0.025581599999999999
    11   1      8.1174961000000003      4.6866290399999997    0.025584639999999999
    12   1             12.17638011      4.6866852999999997              0.02491202
    13   1             16.23517979      4.6866942700000003    0.025006210000000001
    14   1      20.293956519999998      4.6866942700000003    0.025006210000000001
    15   1      24.352756209999999      4.6866852999999997              0.02491202
    16   1      28.411640219999999      4.6866290399999997    0.025584639999999999
    17   1      2.0293964600000001      8.2016395800000002    0.026613040000000001
    18   1      6.0881071599999999      8.2016314300000008              0.02543782
    19   1             10.14701835               8.2017045    0.025156850000000001
    20   1      14.205766049999999      8.2017080900000003    0.024990459999999999
    21   1             18.26456816      8.2017077599999997    0.025091249999999999
    22   1      22.323370260000001      8.2017080900000003    0.024990459999999999
    23   1      26.382117969999999               8.2017045    0.025156850000000001
    24   1      30.441029149999999      8.2016314300000008              0.02543782
    25   1  9.2789999999999998e-05             11.71671873    0.025573410000000001
    26   1              4.05870014             11.71671873    0.025573410000000001
    27   1      8.1176017700000003             11.71668698              0.02497914
    28   1             12.17637068             11.71673069    0.025001590000000001
    29   1      16.235177310000001      11.716730249999999    0.025074039999999999
    30   1      20.293959009999998      11.716730249999999    0.025074039999999999
    31   1      24.352765640000001             11.71673069    0.025001590000000001
    32   1      28.411534549999999             11.71668698              0.02497914
    33   1      2.0293964600000001             15.23167155              0.02525285
    34   1      6.0881728300000004      15.231678799999999    0.025062859999999999
    35   1             10.14698486      15.231762639999999               0.0250786
    36   1             14.20578841             15.23176782    0.025201990000000001
    37   1             18.26456816              15.2317707    0.025149979999999999
    38   1      22.323347900000002             15.23176782    0.025201990000000001
    39   1      26.382151459999999      15.231762639999999               0.0250786
    40   1      30.440963480000001      15.231678799999999    0.025062859999999999
    41   1      32.470327990000001      18.746748629999999    0.024951939999999999
    42   1      4.0588083299999997      18.746748629999999    0.024951939999999999
    43   1      8.1175770200000006      18.746803499999999    0.025222040000000001
    44   1             12.17637459      18.746799750000001    0.025428470000000002
    45   1      16.235159400000001      18.746805200000001    0.025487360000000001
    46   1      20.293976919999999      18.746805200000001    0.025487360000000001
    47   1      24.352761730000001      18.746799750000001    0.025428470000000002
    48   1             28.41155929      18.746803499999999    0.025222040000000001
    49   1      2.0293964600000001      22.261939099999999    0.025844880000000001
    50   1      6.0881419299999999      22.261841799999999    0.025489439999999999
    51   1             10.14692954             22.26176895              0.02551757
    52   1             14.20573559      22.261804690000002    0.025639160000000001
    53   1             18.26456816             22.26178625    0.025640119999999999
    54   1      22.323400729999999      22.261804690000002    0.025639160000000001
    55   1      26.382206780000001             22.26176895              0.02551757
    56   1             30.44099439      22.261841799999999    0.025489439999999999
    57   1  5.6450000000000003e-05      25.776936450000001              0.02613327
    58   1      4.0587364700000004      25.776936450000001              0.02613327
    59   1      8.1175325399999991              25.7767713    0.024734180000000001
    60   1      12.176376469999999      25.776831090000002              0.02545323
    61   1      16.235145939999999      25.776775220000001    0.025273360000000002
    62   1             20.29399038      25.776775220000001    0.025273360000000002
    63   1      24.352759840000001      25.776831090000002              0.02545323
    64   1      28.411603769999999              25.7767713    0.024734180000000001
    65   1  0.00024266000000000001              2.34304215     0.80166565000000001
    66   1      4.0585502699999996              2.34304215     0.80166565000000001
    67   1      8.1157394600000003              2.34454954     0.80169402000000001
    68   1             12.17601256      2.3433829099999999     0.80116898000000003
    69   1      16.235258170000002      2.3433209100000001     0.80090046999999998
    70   1      20.293878150000001      2.3433209100000001     0.80090046999999998
    71   1      24.353123750000002      2.3433829099999999     0.80116898000000003
    72   1      28.413396859999999              2.34454954     0.80169402000000001
    73   1      2.0293964600000001      5.8582218700000004     0.80119762000000005
    74   1      6.0870566899999998      5.8583336700000004              0.80194851
    75   1             10.14649655              5.85853131     0.80121584000000001
    76   1             14.20597894      5.8582938599999999     0.80086840999999998
    77   1             18.26456816      5.8583798500000004               0.8010794
    78   1      22.323157380000001      5.8582938599999999     0.80086840999999998
    79   1             26.38263976              5.85853131     0.80121584000000001
    80   1      30.442079629999999      5.8583336700000004              0.80194851
    81   1  0.00019438999999999999      9.3717771800000005     0.80082061000000004
    82   1      4.0585985400000002      9.3717771800000005     0.80082061000000004
    83   1      8.1175070500000004      9.3725002699999997     0.80149060999999999
    84   1      12.176590020000001      9.3733583399999993     0.80088261999999999
    85   1             16.23512199      9.3733789200000004              0.80106506
    86   1             20.29401433      9.3733789200000004              0.80106506
    87   1      24.352546289999999      9.3733583399999993     0.80088261999999999
    88   1      28.411629269999999      9.3725002699999997     0.80149060999999999
    89   1      2.0293964600000001             12.88692854     0.80220621000000003
    90   1      6.0883212999999996             12.88743848     0.80138414999999996
    91   1      10.147128609999999             12.88859852     0.80085256000000005
    92   1             14.20571782      12.888558189999999     0.80113791000000001
    93   1             18.26456816      12.888409899999999     0.80109381000000002
    94   1      22.323418490000002      12.888558189999999     0.80113791000000001
    95   1             26.38200771             12.88859852     0.80085256000000005
    96   1      30.440815019999999             12.88743848     0.80138414999999996
    97   1              0.00012365      16.403222639999999     0.80145666999999998
    98   1      4.0586692700000002      16.403222639999999     0.80145666999999998
    99   1      8.1174337899999998      16.403825260000001     0.80097196999999998
   100   1              12.1761021             16.40390721     0.80133072000000005
   101   1             16.23503496      16.403861750000001     0.80140014999999998
   102   1      20.294101359999999      16.403861750000001     0.80140014999999998
   103   1      24.353034220000001             16.40390721     0.80133072000000005
   104   1      28.411702529999999      16.403825260000001     0.80097196999999998
   105   1      2.0293964600000001      19.919205120000001     0.80066369999999998
   106   1              6.08752564             19.91894023     0.80122479000000002
   107   1      10.146078839999999             19.91919038     0.80159137999999996
   108   1      14.204993419999999              19.9192584     0.80178742000000003
   109   1             18.26456816      19.919377350000001     0.80194975999999996
   110   1      22.324142899999998              19.9192584     0.80178742000000003
   111   1      26.383057470000001             19.91919038     0.80159137999999996
   112   1      30.441610669999999             19.91894023     0.80122479000000002
   113   1              0.00142012      23.434536609999999     0.80178442000000005
   114   1      4.0573728100000004      23.434536609999999     0.80178442000000005
   115   1      8.1165862000000004      23.433936769999999     0.80182306000000003
   116   1             12.17555218      23.433996919999998     0.80156656000000004
   117   1             16.23465491      23.434040110000002     0.80170828999999999
   118   1      20.294481409999999      23.434040110000002     0.80170828999999999
   119   1      24.353584130000002      23.433996919999998     0.80156656000000004
   120   1      28.412550110000002      23.433936769999999     0.80182306000000003
   121   1      2.0293964600000001      26.949875330000001              0.80297246
   122   1      6.0858208300000003      26.950066320000001              0.80215291
   123   1             10.14598146      26.949241430000001     0.80165810000000004
   124   1             14.20520604      26.948673230000001     0.80131923999999999
   125   1             18.26456816             26.94858318     0.80108193999999999
   126   1      22.323930279999999      26.948673230000001     0.80131923999999999
   127   1      26.383154860000001      26.949241430000001     0.80165810000000004
   128   1             30.44331549      26.950066320000001              0.80215291
   129   1             32.48645552              0.09564462              1.56648499
   130   1      4.0696422500000002      28.133505270000001              1.47926559
   131   1      8.1680840900000007              0.01083777      1.4142569300000001
   132   1              12.2939241     0.22966453000000001              1.46774797
   133   1      16.284531250000001      28.042745740000001      1.3835269100000001
   134   1      20.252563760000001      28.071623330000001              1.60314406
   135   1      24.384640220000001             28.03839709              1.63058086
   136   1      28.553848330000001             28.22288709      1.4860502600000001
   137   1              2.02640251      3.6117462599999999      1.4656238399999999
   138   1      6.0371106599999997              3.47040821      1.4129126999999999
   139   1             10.19781867      3.5295529399999999              1.43259826
   140   1      14.211257720000001      3.5302151799999999              1.50530415
   141   1      18.384153380000001      3.4344002900000001      1.5094761999999999
   142   1      22.354170669999998      3.5397422199999999      1.4942464099999999
   143   1      26.369904089999999      3.5057762499999998      1.4332860999999999
   144   1      30.529085779999999      3.6206769699999999      1.2369868900000001
   145   1    -0.25122431000000001      6.9558708100000004              1.75470613
   146   1      4.1202473900000003      7.0236499999999999              1.40189344
   147   1      8.0718003100000004      7.0953637199999999      1.6569630500000001
   148   1             12.22998364      6.9561847800000001              1.63690823
   149   1      16.197797439999999      6.9303639099999996              1.49278157
   150   1               20.205492      7.1376023399999999              1.63280936
   151   1      24.527460900000001      6.8620214300000004      1.5274273300000001
   152   1             28.39941984      6.9818734999999998              1.39206772
   153   1              1.94090805      10.648162019999999      1.5659560299999999
   154   1      6.2304299099999998             10.56135812              1.46360523
   155   1             10.28931869      10.478160750000001      1.5432875399999999
   156   1      14.136809230000001             10.61433203              1.50593026
   157   1      18.206299850000001      10.540398489999999      1.2333691899999999
   158   1      22.249316759999999      10.564877279999999      1.6271519299999999
   159   1             26.35419469             10.62313011              1.44543683
   160   1             30.23612542             10.53506088              1.41205275
   161   1   -0.074501429999999993      14.127114260000001              1.50761224
   162   1      4.1314281199999998             14.04852859              1.67058868
   163   1              8.13963985             13.98368709      1.6231715499999999
   164   1      12.164904809999999      14.171383280000001              1.56365201
   165   1      16.221797729999999             14.00252547      1.3835499499999999
   166   1      20.320726459999999             14.12375662      1.6815903800000001
   167   1      24.397325080000002             14.14638476      1.4448807699999999
   168   1      28.496986710000002      13.993564859999999      1.4419441500000001
   169   1              1.92141462      17.605437389999999              1.31459273
   170   1      6.1641656899999999      17.543444650000001      1.5742550399999999
   171   1             10.19243294      17.439428360000001      1.4297466599999999
   172   1             14.23707155              17.5073404      1.3927631499999999
   173   1             18.41254928      17.586151269999998              1.22665023
   174   1      22.330345909999998      17.388311389999998      1.5636971099999999
   175   1      26.329595609999998      17.657441219999999              1.61802296
   176   1      30.532253440000002             17.57809336              1.47192206
   177   1             -0.01537062             20.99526741              1.39094904
   178   1      4.1956603799999996             21.11166644      1.4348705100000001
   179   1      8.1697036900000004      21.040285990000001      1.3990108400000001
   180   1             12.16754066             21.16140467              1.53294628
   181   1      16.290643249999999             21.17260817      1.4346304000000001
   182   1      20.293680169999998             21.05209623      1.3915705599999999
   183   1      24.228605000000002             21.05592369              1.60459697
   184   1      28.440999779999999      21.165167440000001              1.42314802
   185   1      1.8958830099999999             24.62101345      1.3061000899999999
   186   1      6.0216907800000001      24.644464719999998      1.4161740199999999
   187   1             10.20462828      24.462346010000001      1.2869958699999999
   188   1             14.15845498      24.536750690000002              1.40706789
   189   1      18.176230820000001      24.723863569999999              1.71760461
   190   1             22.39905268      24.534862390000001      1.6494514199999999
   191   1      26.338342730000001      24.532741359999999              1.59892203
   192   1      30.365073079999998      24.733634680000002              1.48497597
   193   1      2.0620158900000001              1.29567152      2.3763974499999998
   194   1      6.1116095399999999              1.00112851      2.3695585299999999
   195   1             10.16192113      1.3316991899999999      2.3816725999999999
   196   1              14.3568775     0.97896636000000004      2.5343327200000001
   197   1      18.141186380000001              1.10431017      2.3361678700000001
   198   1      22.110051259999999              1.01852542      2.2985556100000002
   199   1      26.401046950000001      1.2253332800000001      2.3633678699999998
   200   1      30.519585759999998              1.23840906      2.5910985800000002
   201   1     0.14416773999999999      4.7561743099999996      2.5500344099999999
   202   1      4.0264931900000001      4.8094709099999999      2.4427231900000002
   203   1      8.1348362600000002      4.7059901200000001              2.56455725
   204   1             12.25640887      4.6659317400000004      2.5922339999999999
   205   1             16.31619061      4.7608266099999996      2.3489532299999998
   206   1      20.210143769999998      4.7544677200000001      2.6080109899999999
   207   1             24.34078504      4.6529219399999997      2.3055926200000001
   208   1             28.39241801      4.6420350700000004      2.4001074199999999
   209   1      1.9393880999999999      8.1363611099999993      2.3560852699999999
   210   1      6.1177650699999999      8.3255716500000005      2.5544500399999999
   211   1      10.208620059999999      8.1360070899999997      2.3491851100000001
   212   1      14.355248250000001      8.1803595399999995      2.4104628199999998
   213   1      18.228146729999999      8.2321001900000006      2.5888373699999998
   214   1      22.340015359999999      8.2476838099999998      2.4900699799999999
   215   1      26.326355100000001      8.2873689600000002               2.5034239
   216   1      30.379952719999999      8.3027181300000006      2.6618271099999999
   217   1      32.465671280000002      11.815277330000001              2.37579794
   218   1              3.84031403      11.698095650000001              2.51136604
   219   1      8.1623029599999999      11.714902309999999      2.6037606599999998
   220   1             12.21810166             11.65138269      2.3430232499999999
   221   1      16.214179399999999             11.72966832              2.43535748
   222   1      20.368382530000002      11.746404419999999      2.4119411899999998
   223   1      24.252785849999999             11.88167782      2.2953644899999999
   224   1      28.390200499999999      11.695590879999999      2.4221390500000002
   225   1      2.0477797899999999             15.31057809              2.66899753
   226   1      6.1130391599999996               15.278321      2.3817808600000001
   227   1      9.9165641900000008      15.161229369999999      2.3877141599999998
   228   1             14.26146299      15.244025710000001      2.5208115000000002
   229   1      18.227978010000001             15.21590419      2.4906982499999999
   230   1      22.305717649999998      15.107156610000001      2.6317753399999999
   231   1      26.493805250000001      15.182798849999999      2.5594374100000001
   232   1      30.475184479999999             15.21569482              2.63661586
   233   1      32.491925799999997      18.748693079999999              2.33785781
   234   1      4.1979430999999998      18.657948350000002      2.4662501699999999
   235   1      8.0682959899999993      18.697518649999999      2.5316076299999999
   236   1      11.995102470000001      18.835028650000002      2.3633214599999999
   237   1      16.345147040000001      18.779804689999999      2.3214529700000002
   238   1      20.372611930000001      18.654873200000001      2.3984946900000002
   239   1      24.222710630000002      18.908351509999999      2.5272902099999999
   240   1              28.5084658      18.786275029999999      2.3715439800000002
   241   1      2.0449628899999999      22.362863829999998      2.5966141700000001
   242   1      6.0653117300000003      22.268798019999998      2.5832783699999999
   243   1             10.16013538      22.434281259999999      2.3445471100000002
   244   1             14.30322509      22.224838470000002      2.4648042600000002
   245   1      18.279504800000002      22.254787489999998              2.47765806
   246   1      22.214380810000002      22.078057380000001      2.5797596899999999
   247   1              26.4266769             22.26602836              2.38982611
   248   1              30.4511313      22.272625380000001              2.43469186
   249   1              0.22828603      25.976014240000001      2.6099147999999999
   250   1      4.1480214000000002      25.908186870000002      2.3571993899999999
   251   1      8.0948576299999999             25.75064631      2.3155458599999998
   252   1      12.099903319999999      25.840548739999999      2.2690686900000001
   253   1      16.084234850000001      25.668998299999998              2.41556163
   254   1             20.20701978      25.823218499999999      2.5056208500000001
   255   1      24.460991230000001      25.680547929999999      2.4349383100000002
   256   1      28.530951399999999      25.804358359999998      2.4292379099999999
   257   1      32.395782619999999      2.5171250299999999      3.1603509299999999
   258   1      4.2705923300000004      2.2693675299999998      3.3670881399999999
   259   1              8.07610852      2.1329862799999999              3.41164946
   260   1      12.329881090000001      2.2353540299999999      3.1697614600000001
   261   1      16.384736090000001      2.3578377000000001      3.2710986900000001
   262   1      20.304982769999999      2.2994420600000001      3.1670726500000002
   263   1      24.205045089999999      2.2802504799999999               3.1644321
   264   1      28.338849419999999              2.38381906      3.2614527500000001
   265   1      2.1931903099999999      5.8809263700000001      3.2932190800000001
   266   1              6.10582067      6.0385446600000003              3.27562664
   267   1             10.15640615      5.8210264699999996              3.23205192
   268   1             14.19269656      5.8021623299999998      3.2172685099999998
   269   1             18.24255471      5.8719117599999997      3.3736294299999998
   270   1      22.478095629999999      5.7077779800000004      3.3141819199999998
   271   1      26.290847360000001      5.8587513400000004      3.2562786099999999
   272   1             30.26191116      5.7758038799999998      3.4008238799999999
   273   1      32.409729089999999      9.3507415999999992      3.4507119799999999
   274   1      3.8276299499999999      9.4505936199999994      3.2030869399999999
   275   1      8.3978627800000005      9.3756812600000003      3.3604375399999999
   276   1             12.14427055      9.2349237899999999      3.3324555500000002
   277   1             16.27252605      9.4257608099999999      3.2689939699999999
   278   1             20.22482776      9.4711057299999997      3.2614684600000001
   279   1      24.259165769999999      9.4271552700000001      3.3233799799999999
   280   1      28.417630089999999      9.5163093199999995              3.29356962
   281   1              2.01272129             13.03995293      3.3159328700000001
   282   1      6.0009859900000002             12.82141408      3.2775667400000001
   283   1             10.11831284      12.881300189999999      3.2795306599999998
   284   1             14.11514579             12.90451131      3.2440149900000002
   285   1      18.196323629999998      12.853185079999999      3.3130831600000001
   286   1      22.293053090000001      12.917517719999999      3.2582865000000001
   287   1      26.303305819999999      12.832515280000001              3.18439067
   288   1      30.381760880000002             12.85617379              3.21235654
   289   1    0.025372639999999998      16.463318600000001      3.2453656500000001
   290   1      4.1515012100000002      16.446627809999999              3.26810147
   291   1      8.0733668900000009      16.414217059999999              3.26233759
   292   1      12.000765660000001      16.428462230000001      3.2820867800000002
   293   1             16.18754787      16.346697129999999      3.3787246199999998
   294   1      20.236217440000001      16.039334929999999              3.49434493
   295   1      24.395195059999999      16.370909180000002      3.4902594100000002
   296   1      28.590854849999999      16.381997810000001              3.33422961
   297   1      1.9119103799999999      19.725904150000002      3.2513925800000001
   298   1      6.0387576899999997      19.857525450000001      3.4380379099999998
   299   1      10.070031370000001      19.832786949999999      3.2713575800000001
   300   1      14.116993000000001      19.780437679999999      3.1819676600000002
   301   1             18.32038812      19.771437219999999      3.3350995299999999
   302   1             22.21218198             19.89338248      3.3144882500000001
   303   1      26.454035659999999      19.923590279999999      3.2464278800000002
   304   1      30.486310069999998              20.1090521      3.3586351799999998
   305   1      32.512271589999997      23.465529870000001      3.2134407899999999
   306   1              4.15145243      23.439164649999999      3.1625774899999999
   307   1      8.1526843499999995             23.22181518      3.2696610100000001
   308   1              12.2433186      23.556877799999999              3.25976548
   309   1      16.367444720000002              23.2885721      3.5195187899999998
   310   1      20.203155550000002      23.527579020000001      3.2660403499999999
   311   1      24.357436140000001      23.330151860000001      3.2104260099999999
   312   1             28.67744763      23.420122159999998      3.2576842199999998
   313   1      2.2452975799999999             27.19505393              3.25256451
   314   1      6.1819765499999999      27.019279340000001      3.2824255999999998
   315   1             10.07437633      26.943708300000001      3.2670015000000001
   316   1      14.121385030000001      26.685255380000001      3.3123854800000001
   317   1              18.4129194             26.93605852      3.2082900400000001
   318   1      22.406232110000001      26.757111550000001      3.2041140399999999
   319   1      26.293614059999999      27.008064109999999      3.2478545799999998
   320   1      30.441565950000001      26.867069099999998      3.3422960599999998
   321   1   -0.096179329999999993    0.092826119999999998              4.20304564
   322   1      4.1682908999999997     0.13118109999999999      4.2419734299999998
   323   1      8.2367592100000007      28.106766870000001      4.3525308799999998
   324   1             12.21526746      27.892180230000001      4.0440860900000004
   325   1      16.204229460000001      27.964367490000001      4.0083560399999998
   326   1             20.39118435      28.153086330000001      4.1319069500000003
   327   1      24.203062790000001   -0.040094530000000003      4.0443089900000002
   328   1      28.464711619999999     0.13945661000000001      4.1098698100000002
   329   1              2.01738214      3.5965555199999999      4.1331917699999998
   330   1      6.3246234899999996      3.6363789099999999      4.1881779000000003
   331   1              10.1327745      3.4455865800000001      4.2319581299999998
   332   1      14.411348569999999      3.3776453599999998      4.0587061100000001
   333   1             18.22659153              3.41120723              4.13828569
   334   1      22.302922599999999              3.40200836      4.1727252500000001
   335   1      26.275185230000002      3.4939689700000001      4.3016993699999997
   336   1      30.347584350000002      3.5559953000000002      4.1341515900000001
   337   1              32.4227481      6.9127215800000004      4.1553306599999997
   338   1      4.1044415000000001      7.0675991399999996      4.0407393100000002
   339   1      8.2093876600000009      7.0877875899999996      3.9027206200000002
   340   1             12.20441647      7.0330743299999998      4.0798421400000002
   341   1      16.192952559999998      6.9384195000000002      4.0443618199999998
   342   1      20.363510600000001      7.0530310099999998      4.3201054499999998
   343   1      24.250499189999999      7.0320139399999997              4.10366784
   344   1      28.167901010000001      7.1866082799999997      4.1785333700000002
   345   1              1.94766726             10.48187982      4.0225707000000002
   346   1      6.1428168599999999      10.772826459999999      3.9936421800000002
   347   1             10.20256139      10.631579650000001              4.15869819
   348   1      14.255048739999999             10.34987061              4.09309148
   349   1      18.124954559999999             10.58672017              4.18356627
   350   1      22.394697099999998             10.46625283      4.0552716599999998
   351   1             26.38256608             10.67485559                  4.0545
   352   1      30.535470029999999      10.635742799999999      4.0120083400000004
   353   1    0.054871870000000003      14.014857340000001      4.0832533499999997
   354   1      3.9931979499999999      14.077616819999999      4.1577420800000002
   355   1      7.9731815099999999      13.932973260000001               4.0465529
   356   1      12.037694910000001             14.16465404      4.2157753800000002
   357   1      16.167273389999998      13.878338579999999      4.0724881899999996
   358   1      20.199201939999998             13.99861733      4.1511487599999999
   359   1      24.232819429999999      13.918985360000001      4.1005118700000001
   360   1             28.42929122             14.02243404      4.0325019500000003
   361   1      2.0551620599999998      17.471452840000001              4.03518869
   362   1      6.0868340200000004             17.44462996      4.1832003000000002
   363   1              9.90974003      17.476924910000001      4.1347842699999999
   364   1             14.04672394      17.670948280000001      4.1401391299999997
   365   1      18.386360400000001      17.580858790000001      4.1890075199999997
   366   1      22.311797309999999      17.398330390000002      3.9970107499999998
   367   1             26.61702266      17.580778380000002      4.2669784799999997
   368   1      30.430480970000001             17.69158316      4.0363870100000003
   369   1              0.10182922      21.101462890000001      4.1537549900000004
   370   1      4.0451313600000001             21.13624574              3.99680642
   371   1      8.2712251600000002      20.869964849999999      4.1932079199999999
   372   1             12.21711416      21.093869829999999      4.0333360100000002
   373   1      16.313403430000001      20.881398570000002              3.99264478
   374   1      20.381461829999999             21.08441959      4.2172968500000003
   375   1      24.384694679999999      21.236770750000002      4.1638979799999998
   376   1             28.45691544      21.103237320000002      4.0302823500000002
   377   1      2.2073012099999998      24.664577640000001      3.9004392399999999
   378   1              6.01489809      24.592636079999998      4.0002756499999998
   379   1      9.9715081100000003      24.629889940000002      3.8915628199999999
   380   1      14.364512189999999      24.324728239999999      4.1175512300000001
   381   1             18.35104389             24.55355479      4.2509318800000004
   382   1      22.206114679999999             24.58713135      4.0304030099999997
   383   1             26.32734087      24.477059780000001      4.0224434499999999
   384   1      30.508669170000001      24.523135539999998      4.0232821000000003
   385   1              2.11476731              1.23433628      4.9265168499999996
   386   1      6.0760606499999996      1.3438136000000001      5.0316900100000002
   387   1              10.2916335      1.1496931100000001              4.97010855
   388   1             14.35039596     0.99128377999999995      4.9484310000000002
   389   1      18.298150700000001     0.98590891999999997      4.9447701999999998
   390   1             22.26299706              1.11343288      4.9333858199999998
   391   1             26.09066168               1.0589998      4.8317759200000001
   392   1      30.388112079999999              1.22763676      5.0927046899999997
   393   1      32.233028269999998      4.7077452199999996      5.0892693299999996
   394   1      4.0777491599999998      4.7252085499999996      4.9424318899999999
   395   1               8.1466531              4.93730198              4.89886219
   396   1             12.08685674      4.8142034100000002      5.1304276399999997
   397   1      16.359153039999999      4.7687244299999998      5.0340908000000004
   398   1      20.266664540000001      4.6205520199999999      4.9778806700000002
   399   1      24.226728179999999      4.7473743800000001      5.0756353799999996
   400   1      28.325385950000001      4.7646322200000002                4.792535
   401   1      1.8431133099999999      8.1284659599999998      4.9383772300000004
   402   1      5.9634363199999996      8.5078849600000002      4.9563307300000004
   403   1             10.27243741      8.0989567299999994      4.9869130699999999
   404   1      14.097791490000001      8.1604569599999994              4.98934196
   405   1             18.22575698      8.2014668799999999      5.0403229400000003
   406   1             22.19135661      8.1505970600000008      5.0038630499999996
   407   1             26.19864368      8.1706818299999995              5.05770213
   408   1      30.193326859999999      8.2602272400000007      5.2454208299999996
   409   1      32.439817550000001             11.73219551      4.8274157999999998
   410   1      4.0964949400000004             11.84729179      5.0847934700000001
   411   1      8.2231345999999998             11.74378594      5.1301235299999997
   412   1               12.327225      11.594765199999999      4.8236930400000002
   413   1      16.157241590000002             11.48271892      5.0805927100000003
   414   1      20.227439650000001             11.79027853      4.9723237400000002
   415   1      24.388002620000002      11.613169709999999      5.0095952099999996
   416   1             28.36065966             11.61061243      4.8466684100000004
   417   1              1.97696749             15.18658843      5.0157231400000004
   418   1      5.9810816100000004      15.158549069999999      4.8436493199999999
   419   1             10.00721781              15.2325692      4.9662018400000001
   420   1      14.099583450000001             15.15038404              5.00219931
   421   1      18.287648319999999             15.26832454      4.8939043499999997
   422   1             22.16064231      15.163083049999999      5.1325558500000001
   423   1      26.474862559999998      15.035107679999999      4.9487472600000002
   424   1             30.46646462              15.1459379      4.9396260500000002
   425   1   -0.071391860000000001      18.643869639999998      5.0711739400000004
   426   1              4.19144395      18.686183239999998      4.9184254200000002
   427   1      7.8789101300000004      18.747733360000002      5.1632402600000002
   428   1      12.092944689999999      18.693300709999999              4.82496379
   429   1      16.268903219999999      18.716631509999999      4.8344740399999999
   430   1      20.383210399999999             18.60809957      4.9261827599999997
   431   1      24.167481290000001      18.829178339999999              4.99831336
   432   1             28.39169279             18.76505225      4.8571806500000001
   433   1      2.0811881900000002      22.262046420000001      5.1322390799999997
   434   1      6.1143663000000004      22.263064719999999      4.8966370399999999
   435   1      10.372884429999999      22.174726929999999      4.8804676000000002
   436   1             14.39846887      22.072157099999998              4.90741139
   437   1      18.464389600000001      22.236449919999998      5.0505845899999997
   438   1      22.432342550000001      22.187894579999998      5.0098733400000004
   439   1      26.445015269999999      22.286458639999999      5.0091137000000003
   440   1      30.508549989999999             22.31636378              5.00923988
   441   1      32.374392039999996      25.817358850000002      5.0268693200000003
   442   1      4.0384453100000002      25.853995319999999      4.9038588399999998
   443   1      8.1925329999999992      25.819985460000002              4.90011609
   444   1      12.137260639999999      25.464513230000001      4.8944243700000003
   445   1      16.236852540000001      25.573176579999998      4.9093093899999998
   446   1      20.337347940000001      25.748443909999999      4.9476190899999999
   447   1             24.08645121             25.70006313      4.8607905300000001
   448   1             28.15453634      25.815699420000001      4.8645889699999998
   449   1      32.627164790000002      2.3449816000000001      5.7995388200000004
   450   1      3.9395385699999999      2.3402026899999999      5.8436874000000003
   451   1      8.2983177700000006      2.3774607799999998      5.8727707599999999
   452   1      12.205617500000001      2.4223125799999998      5.6913202099999998
   453   1             16.40225877              2.20629659      5.7016433400000004
   454   1      20.319579449999999      2.2406425200000002      5.7330697099999997
   455   1      24.349590979999999      2.2892382599999999      5.7386697800000004
   456   1             28.34509692      2.4414819699999999      5.9308436100000002
   457   1              1.89482109               5.9161826      5.8014162300000001
   458   1      6.2641716299999999      5.8859233399999997      5.8742348299999998
   459   1             10.19228498              5.74093857      5.8070662200000003
   460   1             14.16706413      5.7000313900000004      5.7431802799999998
   461   1      18.389199439999999      5.9017414700000002      5.8394088899999996
   462   1      22.210063170000002      5.8343909800000002      5.8371491200000003
   463   1             25.96296735      5.9752223100000004      5.7683838300000003
   464   1      30.369816190000002      5.8889715699999998      5.7580911800000001
   465   1      32.504415420000001      9.4093633499999996      5.8687888900000003
   466   1      3.8924040299999998      9.3385931899999992      5.6211079399999999
   467   1      8.1565368300000003      9.4404957300000003      5.6747399500000002
   468   1             12.16906475      9.3155805699999998      6.0111008500000001
   469   1      16.154005349999998      9.1756146699999999      5.8353126199999998
   470   1      20.083243419999999      9.5640047100000007      5.7201037799999996
   471   1      24.195457080000001      9.4527509999999992      5.9130825099999997
   472   1      28.266694050000002      9.3030403699999997      5.7624780800000002
   473   1      1.8753177400000001      12.891510419999999      5.9400562399999997
   474   1      6.0888226899999998      13.049553619999999      5.7893985399999996
   475   1             10.38371721             12.59146992      5.7106545300000002
   476   1             14.40620989             12.97096303      5.7281753699999998
   477   1              18.1716947      12.864721810000001      5.8711204400000003
   478   1      22.300507790000001             12.74324582      5.6969128500000004
   479   1      26.443673690000001             12.74413264              6.12639858
   480   1      30.303123020000001      12.689922380000001      5.6831174600000001
   481   1              0.10386893      16.362250580000001      5.7873446099999999
   482   1      4.0273904700000003      16.604220420000001      5.8365630099999999
   483   1      7.8161560400000001             16.29877488      5.7162485600000004
   484   1      12.301565889999999      16.427869940000001      5.8588496499999998
   485   1      16.099860039999999      16.505571799999998      5.7626271100000004
   486   1             20.25979126      16.477897030000001      5.8784316099999998
   487   1             24.32892318      16.306348249999999      5.7909229599999996
   488   1      28.319815290000001             16.34897728      5.8184009100000003
   489   1      1.8683267299999999      19.942310590000002      5.7378381599999999
   490   1              5.98318014      20.049707290000001      5.7976970400000001
   491   1      10.060378180000001             19.92630316      5.7651312600000004
   492   1              14.1770981      19.914146850000002      5.5948637100000003
   493   1      18.391760789999999      19.895916270000001      5.7984070499999998
   494   1             22.20348371             19.86698706      5.8035728300000002
   495   1      26.424713619999999      19.823705520000001      5.6670223599999998
   496   1             30.35074891             19.99521644      5.8610506999999998
   497   1   -0.061134750000000002      23.503245759999999      5.9353931600000003
   498   1      3.9777347299999999             23.26929475      5.9434819499999998
   499   1      8.2560589800000006             23.47933664      5.5547408100000002
   500   1             12.02778468      23.271926489999998      5.7606241499999999
   501   1      16.329399509999998      23.285308100000002      5.7853674000000002
   502   1             20.53384608             23.48157951      5.6877848599999998
   503   1              24.2334301      23.240977969999999      5.7118789999999997
   504   1      28.299643790000001      23.519860940000001      5.8083487099999997
   505   1      2.0121124799999999      27.086492589999999      5.7272252699999999
   506   1      6.0050092900000003      26.952583749999999      5.9203621200000001
   507   1              10.0339075              26.8369578      5.7420424900000002
   508   1             14.21257522      26.801645359999998      5.8274185300000001
   509   1      18.235689539999999      26.910058830000001      5.6853716399999996
   510   1             22.18475613      26.885710639999999      5.6314158000000001
   511   1             26.19792404      26.876911360000001      5.7320785900000004
   512   1      30.269165810000001             26.99852181      5.7248111699999997
   513   1   -0.061805949999999998      28.092507730000001      6.6418272399999996
   514   1      4.0298627299999996    0.016106840000000001      6.8682776399999996
   515   1      8.1743756800000007    -0.13172958000000001      6.8751405999999999
   516   1      12.122514389999999      27.948977240000001      6.6206067800000001
   517   1      16.281966690000001      27.987740890000001               6.5436429
   518   1      20.201790070000001    0.073307189999999994      6.6558447599999999
   519   1      24.272009189999999    0.028328240000000001      6.4646974999999998
   520   1      28.361319479999999      28.076580369999999      6.5276692299999999
   521   1              1.98432896      3.6648590900000002      6.8627145599999997
   522   1      6.0732172899999997      3.5811959299999998      6.6827262200000002
   523   1             10.15165483      3.5549080000000002      6.7238477899999998
   524   1             14.29408946      3.1418519599999999      6.6276303800000003
   525   1      18.542390399999999      3.6282123300000002      6.5377279699999997
   526   1             22.31779891      3.5236582300000001      6.4597337499999998
   527   1      26.347602569999999      3.4216599599999999      6.7755399000000001
   528   1             30.46899814              3.63882985              6.72062896
   529   1      32.378397810000003      7.0279703500000004      6.6544097500000001
   530   1      3.9655908700000002      6.9731436499999999               6.4218183
   531   1      8.1305086299999996      7.0769849799999998      6.6336034399999999
   532   1             12.23388055              6.97850562      6.4968268900000004
   533   1      16.127468220000001      6.9485406300000001      6.7732232899999998
   534   1      20.259982369999999      7.1127801399999999      6.8253880100000002
   535   1             24.21130325      7.2300500000000003      6.9806132999999999
   536   1      28.339344010000001      7.0289101399999998      6.5315996600000004
   537   1              2.02450536             10.62874012      6.5821785500000001
   538   1      6.0765586000000003              10.6797383      6.5795686099999999
   539   1             10.35021289             10.42853714      6.8638442900000003
   540   1      14.215502430000001      10.553097190000001      6.7918706200000001
   541   1      18.014126439999998      10.637430520000001      6.6202127400000004
   542   1      22.103263599999998             10.40370779      6.5131531699999998
   543   1      26.323156059999999      10.485053750000001      6.6374162500000002
   544   1             30.54739983             10.48760454      6.8621480899999998
   545   1      32.379586060000001              14.1077964      6.5030405499999997
   546   1      4.1417118400000001             14.22853473      6.6774141399999998
   547   1      8.1951392399999996      14.034783729999999      6.4004873699999996
   548   1      12.181795709999999             14.13484429      6.6109611499999996
   549   1      16.125004409999999      14.067811219999999      6.4102875900000003
   550   1      20.292445470000001             13.95420262      6.6621952999999996
   551   1             24.21276688             13.93176368      6.3787127899999998
   552   1      28.314031700000001      13.954914779999999      6.6602418800000001
   553   1      2.0367483900000001             17.75340649      6.6758828000000001
   554   1      6.0015468700000003      17.453730019999998      6.6802415100000001
   555   1      9.9611552299999992      17.522843699999999      6.5588049000000002
   556   1              14.1557707      17.531955279999998      6.8535099800000001
   557   1             18.16401239      17.442946039999999      6.7338151999999996
   558   1      22.459062079999999             17.64453735      6.5701436099999997
   559   1      26.443842159999999             17.38477112      6.8245474799999997
   560   1             30.33765554      17.366606090000001      6.6907053699999999
   561   1     0.13040135999999999             20.99111663      6.7005452700000001
   562   1      3.9284632199999998             20.91556241      6.5000618100000001
   563   1      8.1351714600000005      21.056254249999999      6.7850513499999998
   564   1             12.34935282      20.977202800000001      6.6268464900000001
   565   1      16.360501490000001      20.900653250000001      6.7591234099999999
   566   1             20.30256894             21.22303527      6.6380402299999997
   567   1               24.477494      21.017319969999999      6.5473880700000002
   568   1      28.259162459999999      21.113352540000001      6.6389533099999998
   569   1              2.02097952             24.65347568      6.4044799799999996
   570   1      6.0141340000000003             24.56615159      6.6610867000000002
   571   1             10.15037646      24.504925610000001      6.5634433899999998
   572   1      14.081137719999999      24.489694329999999      6.5265976700000001
   573   1             18.30012125              24.5233633      6.6969791900000004
   574   1      22.324352619999999      24.663168729999999      6.6567807099999996
   575   1             26.30829799      24.524984180000001      6.6515400700000002
   576   1      30.314579429999998      24.571778500000001      6.5804639500000004
   577   1      1.9225132700000001      1.1747182700000001      7.7475698299999998
   578   1      6.0227000200000003      1.1610577799999999      7.6964493699999998
   579   1      10.221554360000001     0.98367424000000003      7.5120497500000001
   580   1             14.33934228              1.04126374      7.6192999400000003
   581   1      18.203754499999999              1.17064291      7.5767742499999997
   582   1      22.365643169999998              1.21484459      7.4010904000000002
   583   1      26.390931720000001      1.1758851100000001      7.5764311700000002
   584   1      30.398449670000002     0.84750137999999997      7.7837978000000003
   585   1    0.046101990000000002      4.8062618800000001      7.7733291299999996
   586   1      4.1343879399999999              4.72435355      7.3909753199999999
   587   1      8.0657680599999999      4.8633681600000003      7.6722651400000004
   588   1      12.341169150000001      4.7658092400000003      7.5007717300000003
   589   1      16.443299889999999      4.5737499399999999      7.6022071000000002
   590   1             20.46554107      4.7769139200000001      7.5215403700000003
   591   1      24.224275330000001      4.3879748999999997      7.6173933099999998
   592   1      28.427861100000001      4.6389457900000002      7.5096458799999999
   593   1      2.0732776099999999      8.1674752399999999      7.4226665000000001
   594   1      6.4197843499999996      8.4784268699999998              7.40083746
   595   1      10.101549309999999      8.0633809500000009      7.5077926100000001
   596   1      14.333751120000001      8.2321051000000001      7.7213309499999996
   597   1      18.259806080000001      8.0773862899999997      7.1144405900000001
   598   1              22.2155454      8.2860720400000005      7.4337107800000002
   599   1      26.387697280000001      7.9964413600000004      7.4709604199999999
   600   1             30.26192515      8.2074749199999992      7.8012266400000003
   601   1      32.374808250000001             11.62493995      7.6179647399999997
   602   1      4.0925601800000004             11.81222421      7.7317279799999996
   603   1      8.2194556500000004      11.668130639999999      7.5009690200000003
   604   1             12.38769126             11.67066226      7.3745252700000004
   605   1      19.893026320000001      9.3209749100000003      8.0455145699999999
   606   1             20.27717869             11.75737552      7.5680411300000001
   607   1             24.17394548             11.55925562      7.4075086800000003
   608   1      23.969049909999999      9.4134263499999999      8.4666067999999992
   609   1      2.0660109200000001             15.10062435      7.7711222800000002
   610   1              6.15015307      15.244980160000001      7.4123267999999998
   611   1      12.353710080000001      16.209632209999999      8.2609907800000002
   612   1      14.390494479999999             15.36443235      7.3255891799999997
   613   1      18.057475870000001             15.03962329      7.7494936000000001
   614   1             22.18186571      15.321076570000001      7.5939969300000003
   615   1      26.198580790000001             14.89047879              7.56905407
   616   1             30.24339947      15.054638300000001      7.5274148500000004
   617   1      32.371709340000002      18.749595289999998      7.6105645700000002
   618   1      4.2500074100000003      18.653725130000002      7.5389921800000002
   619   1      8.0962097199999992      18.846119789999999      7.5376065499999996
   620   1      11.898049220000001      18.678074779999999      7.3864536799999998
   621   1      16.249868500000002      18.720552699999999      7.5605397200000004
   622   1      20.277366780000001             18.81577673      7.3115714499999997
   623   1      24.387137450000001             18.91568977      7.5768443200000002
   624   1      28.376518879999999      18.615016019999999      7.3364425200000003
   625   1      1.9516980900000001      22.253551470000001      7.5827871900000003
   626   1              5.94232037             22.19565484      7.5205810399999997
   627   1      12.029873650000001      21.027724209999999      8.9403888200000008
   628   1      14.345787440000001      22.120550380000001              7.40448196
   629   1             18.40465421             22.34637468      7.7005937800000002
   630   1      22.442244079999998             22.29807383      7.3325303899999996
   631   1      26.359050740000001             22.34082239      7.5698203499999996
   632   1             30.32164839             22.14718191      7.4156028599999999
   633   1      32.403563089999999      25.667422989999999      7.4095362400000004
   634   1      3.6883130400000002      25.729921189999999      7.4890252200000003
   635   1      8.0363522399999994      25.774697320000001      7.4558034400000004
   636   1      12.057607369999999      25.607830379999999              7.45976514
   637   1      16.293705060000001      25.741647350000001      7.1733822900000002
   638   1      20.159036489999998      25.812947600000001      7.5548390300000001
   639   1      24.297370579999999             25.64904228               7.4021925
   640   1      28.201529619999999      25.741582380000001      7.2522920800000001
   641   1      3.8792558100000001      7.0213294900000003      9.1708911099999995
   642   1              1.84607231      8.2841280400000006      9.7829415799999992
   643   1      5.7262778599999997      3.5396275400000001              9.02829792
   644   1      16.428259430000001              2.18638405      8.3854475199999996
   645   1      10.100130289999999      22.235701389999999      7.4236857000000001
   646   1             22.51806856      24.956911250000001      9.0735923300000003
   647   1      22.308027689999999      5.9260766299999998      8.4104373300000006
   648   1             32.26813069      2.1797575899999999      8.2165734700000002
   649   1      4.3069629599999999      18.633330829999998      9.8952632999999999
   650   1      3.8172049800000001      25.902165230000001      9.8211465100000002
   651   1      17.968158500000001      24.470078279999999      9.0670005400000004
   652   1      14.313820140000001      5.6689828100000001      8.3572267700000005
   653   1             22.22692065             12.93003298      8.3504150999999993
   654   1      3.8067989799999999      28.174067529999999              9.30746903
   655   1      22.165979750000002      27.073304889999999      8.2019176599999994
   656   1      3.6764174600000001      4.5240025299999997      9.8853949599999993
   657   1      8.2832003499999995      9.2440033499999998      8.2937933600000004
   658   1      16.215660410000002      16.585740990000001      8.5262450199999993
   659   1      2.0670989199999998      10.383585439999999      9.2407934600000008
   660   1             10.08819961      5.4493185799999999      8.5782726599999997
   661   1      26.390914209999998      26.838158960000001      8.1792235200000007
   662   1      28.551145250000001      2.1979434100000002      8.4047010100000001
   663   1      20.320238740000001      2.2958513699999998      8.2215847199999992
   664   1      1.8550270799999999             13.00048097      8.3945345499999995
   665   1             12.14006193      9.3573831700000003      8.3895980100000003
   666   1             14.12170332      19.718538840000001      8.0091043099999997
   667   1              8.09750953      18.975419460000001      9.9651389699999999
   668   1             16.07604714      11.929881119999999      7.6813315500000003
   669   1      32.535743660000001              14.0614557      9.0876774000000005
   670   1      28.352316259999998              9.30700152      8.4122921599999998
   671   1      4.0258832499999997      13.723676040000001      9.1760052099999996
   672   1      30.365801730000001              19.8726746      8.2155058800000003
   673   1      32.127340719999999      27.943442229999999               9.0592378
   674   1      8.2143469000000007      16.618218710000001      8.0283018399999992
   675   1      24.257626500000001             14.16934491      8.8734612399999993
   676   1             12.13026779      23.384450170000001      8.2735196099999992
   677   1      22.034574509999999             10.69391444      9.0412498299999999
   678   1             24.80776393      21.214240749999998      9.0916275100000004
   679   1      28.010774090000002      6.9552901499999997      9.0449626199999997
   680   1             28.36146948             11.55420857              7.61279751
   681   1              1.43140358      3.6809270600000001      9.4986191299999998
   682   1             10.09872713      15.242141139999999      7.5165943799999999
   683   1      6.3462606299999997      24.355704840000001      9.1706874000000003
   684   1      14.064234689999999      12.955238319999999      8.4408914799999994
   685   1      22.438190039999999             20.07728036      8.2654346099999998
   686   1      22.467720849999999      17.657243099999999      8.8527895900000004
   687   1             20.14221234      13.968057249999999      9.0843748499999997
   688   1             26.26487556      12.716848840000001      8.6664770400000002
   689   1      20.505956789999999      21.290259410000001      9.1884707100000007
   690   1              4.25869974      16.409284620000001      8.5450178799999996
   691   1  -0.0084191400000000003      6.8022674500000004      9.2587681899999996
   692   1             20.29844447      25.977286639999999      9.8748342699999991
   693   1      18.422496590000002             12.64175345      8.1932580399999999
   694   1             20.17695878      16.339260190000001      8.2627310200000004
   695   1      24.215063829999998      23.343471480000002      8.1867589699999996
   696   1      2.0514967999999998      19.814562670000001      8.1841988400000005
   697   1      3.5212617000000002      2.5213941900000001      8.4313238800000008
   698   1      16.010680359999999      23.375032829999999      8.2516943999999999
   699   1      20.051438829999999             28.20611018      9.1126572800000005
   700   1      17.781371979999999      27.127724629999999      8.5964476600000008
   701   1             10.10964643      26.852900720000001      8.3278151299999994
   702   1             26.58708433      20.008879289999999      8.1039037599999997
   703   1      22.290854790000001              1.11513029      9.5279912200000005
   704   1      28.141109839999999      21.114250800000001      9.2064068999999993
   705   1      2.1218575999999998      5.8053414800000001      8.4362967700000002
   706   1      7.9840432300000002             28.01624619              9.34709039
   707   1      12.141967579999999    0.097259789999999999      9.2001489700000008
   708   1             20.42569842      18.989566230000001      9.6030230999999997
   709   1             22.29610959      3.4695077699999999      9.0519441700000005
   710   1             18.28549177      20.102988490000001      8.2010267500000005
   711   1             30.52111433      3.6204283799999999      9.1554558499999992
   712   1             32.12948943              23.1110668      8.3430545499999997
   713   1             28.26298233             28.01182712              9.09314234
   714   1      3.9368096399999999             21.21948591      8.8085035999999999
   715   1      30.265196710000001      26.474073990000001      8.1284886200000006
   716   1      14.118615670000001      26.532684740000001      8.3099792099999998
   717   1      25.895627919999999             24.48889634      9.0791622200000006
   718   1      30.454351129999999             10.27830312      9.2233507899999996
   719   1    0.089860949999999995      11.856444209999999      9.8804676100000002
   720   1             30.17684732      5.8525188200000002      8.5503017700000008
   721   1      3.9226213099999998      9.2441700000000004      7.9887260099999997
   722   1      7.9535966900000004      21.252879419999999      9.1160121000000007
   723   1      5.9707738600000004      6.2451274300000001      8.3129185700000008
   724   1      5.9453128199999998      10.414487749999999      8.9379203199999999
   725   1             14.53872484      3.0850047300000001      9.1840727199999996
   726   1      16.662212019999998              9.41859453      8.4798837099999993
   727   1             18.22315373      17.836836430000002      9.1294287199999999
   728   1      28.388762620000001      11.645031449999999      9.7817000699999994
   729   1      10.526356420000001      12.706206399999999      8.3838399599999995
   730   1             12.29098907      2.3370472599999998      8.2278976700000008
   731   1             12.10569963      6.9887163699999997      9.1049486399999999
   732   1             16.15515409      7.1670629699999999      9.1826541299999995
   733   1             16.15926202             13.94660541      8.8243857400000003
   734   1      1.7935140000000001      27.013471760000002      8.4826357699999999
   735   1             24.35365625      2.1422208700000001      8.3064258500000001
   736   1      8.2598315600000003             14.20362225      8.9115598400000007
   737   1      32.178470009999998      16.639933190000001      8.3447549399999996
   738   1    0.087884660000000003      9.3792309899999999      8.3505158399999999
   739   1             14.18659137             10.44828012      9.1545360000000002
   740   1      26.179939149999999      5.7144016300000002      8.0704244900000006
   741   1             24.04269738      11.808050789999999      9.9045520600000003
   742   1             26.63822648      3.2705415800000002      9.0794326000000005
   743   1      18.428021170000001              5.86393699      8.3027626800000007
   744   1      30.491029749999999             12.78223375      8.5349015599999998
   745   1      2.0869160099999999      17.576501660000002      9.0238303799999997
   746   1      6.2645777200000001             12.82933074      8.1434569299999993
   747   1      10.147119160000001      17.605799040000001      8.9374389700000005
   748   1      9.9078458699999992      19.990787839999999      8.4185117900000002
   749   1      24.480743889999999      16.406894250000001      8.1310579900000004
   750   1      28.283712749999999      13.999459269999999      9.0386472300000005
   751   1      22.402054329999999             22.43281953      9.8577431700000009
   752   1      6.3990571699999999      17.444968970000001      9.1934888299999997
   753   1      6.0155517400000003      19.939411849999999      8.4465328900000003
   754   1      9.7403530499999995             24.39383419      8.8752656900000009
   755   1      8.1766420100000001              2.50214626      8.3416950399999994
   756   1      7.9687955600000002             23.30901922              7.74551868
   757   1      4.1834983699999997      23.665036959999998      8.5299800799999996
   758   1      26.172952120000001     0.96300889999999995      9.7797127899999996
   759   1      28.434410570000001      16.199530979999999      8.2014250900000008
   760   1      24.236496580000001      27.725953350000001      9.0204225099999995
   761   1      16.363770760000001      20.885289419999999      9.1249795299999992
   762   1      26.082682850000001      10.321862640000001              9.19410916
   763   1      8.2095529999999997      6.9586061399999997      8.9928369099999994
   764   1      6.1146833799999998      26.749157060000002      8.5525552900000008
   765   1      18.463294229999999      3.5151105999999999      9.0402595399999992
   766   1              20.4506029             23.61149159      8.4502123200000003
   767   1      28.333587269999999      23.425658110000001      8.1900077099999997
   768   1      1.9021637499999999      24.396691839999999      8.9877228299999992
   769   2             29.72995749             14.98873189      9.4861462900000006
   770   2      31.355037169999999             15.36393925      9.5544711899999992
