N2-dn2-coord-10bar/700K/snapshots/frame-141612/run-000/../data.lammps (written by ASE) 

770 	 atoms 
2  atom types
0.0      32.470343392086264  xlo xhi
0.0      28.120142247150884  ylo yhi
0.0      31.213473999158239  zlo zhi


Atoms 

     1   1      2.0293964600000001      1.1716090800000001    0.023552650000000001
     2   1      6.0880008999999999              1.17168918              0.02556874
     3   1      10.146952280000001              1.17170328    0.025416459999999998
     4   1      14.205754900000001      1.1716496700000001              0.02501565
     5   1             18.26456816              1.17166478              0.02504435
     6   1             22.32338141      1.1716496700000001              0.02501565
     7   1      26.382184030000001              1.17170328    0.025416459999999998
     8   1      30.441135410000001              1.17168918              0.02556874
     9   1  9.1780000000000006e-05      4.6866847900000002    0.025581599999999999
    10   1      4.0587011400000002      4.6866847900000002    0.025581599999999999
    11   1      8.1174961000000003      4.6866290399999997    0.025584639999999999
    12   1             12.17638011      4.6866852999999997              0.02491202
    13   1             16.23517979      4.6866942700000003    0.025006210000000001
    14   1      20.293956519999998      4.6866942700000003    0.025006210000000001
    15   1      24.352756209999999      4.6866852999999997              0.02491202
    16   1      28.411640219999999      4.6866290399999997    0.025584639999999999
    17   1      2.0293964600000001      8.2016395800000002    0.026613040000000001
    18   1      6.0881071599999999      8.2016314300000008              0.02543782
    19   1             10.14701835               8.2017045    0.025156850000000001
    20   1      14.205766049999999      8.2017080900000003    0.024990459999999999
    21   1             18.26456816      8.2017077599999997    0.025091249999999999
    22   1      22.323370260000001      8.2017080900000003    0.024990459999999999
    23   1      26.382117969999999               8.2017045    0.025156850000000001
    24   1      30.441029149999999      8.2016314300000008              0.02543782
    25   1  9.2789999999999998e-05             11.71671873    0.025573410000000001
    26   1              4.05870014             11.71671873    0.025573410000000001
    27   1      8.1176017700000003             11.71668698              0.02497914
    28   1             12.17637068             11.71673069    0.025001590000000001
    29   1      16.235177310000001      11.716730249999999    0.025074039999999999
    30   1      20.293959009999998      11.716730249999999    0.025074039999999999
    31   1      24.352765640000001             11.71673069    0.025001590000000001
    32   1      28.411534549999999             11.71668698              0.02497914
    33   1      2.0293964600000001             15.23167155              0.02525285
    34   1      6.0881728300000004      15.231678799999999    0.025062859999999999
    35   1             10.14698486      15.231762639999999               0.0250786
    36   1             14.20578841             15.23176782    0.025201990000000001
    37   1             18.26456816              15.2317707    0.025149979999999999
    38   1      22.323347900000002             15.23176782    0.025201990000000001
    39   1      26.382151459999999      15.231762639999999               0.0250786
    40   1      30.440963480000001      15.231678799999999    0.025062859999999999
    41   1      32.470327990000001      18.746748629999999    0.024951939999999999
    42   1      4.0588083299999997      18.746748629999999    0.024951939999999999
    43   1      8.1175770200000006      18.746803499999999    0.025222040000000001
    44   1             12.17637459      18.746799750000001    0.025428470000000002
    45   1      16.235159400000001      18.746805200000001    0.025487360000000001
    46   1      20.293976919999999      18.746805200000001    0.025487360000000001
    47   1      24.352761730000001      18.746799750000001    0.025428470000000002
    48   1             28.41155929      18.746803499999999    0.025222040000000001
    49   1      2.0293964600000001      22.261939099999999    0.025844880000000001
    50   1      6.0881419299999999      22.261841799999999    0.025489439999999999
    51   1             10.14692954             22.26176895              0.02551757
    52   1             14.20573559      22.261804690000002    0.025639160000000001
    53   1             18.26456816             22.26178625    0.025640119999999999
    54   1      22.323400729999999      22.261804690000002    0.025639160000000001
    55   1      26.382206780000001             22.26176895              0.02551757
    56   1             30.44099439      22.261841799999999    0.025489439999999999
    57   1  5.6450000000000003e-05      25.776936450000001              0.02613327
    58   1      4.0587364700000004      25.776936450000001              0.02613327
    59   1      8.1175325399999991              25.7767713    0.024734180000000001
    60   1      12.176376469999999      25.776831090000002              0.02545323
    61   1      16.235145939999999      25.776775220000001    0.025273360000000002
    62   1             20.29399038      25.776775220000001    0.025273360000000002
    63   1      24.352759840000001      25.776831090000002              0.02545323
    64   1      28.411603769999999              25.7767713    0.024734180000000001
    65   1  0.00024266000000000001              2.34304215     0.80166565000000001
    66   1      4.0585502699999996              2.34304215     0.80166565000000001
    67   1      8.1157394600000003              2.34454954     0.80169402000000001
    68   1             12.17601256      2.3433829099999999     0.80116898000000003
    69   1      16.235258170000002      2.3433209100000001     0.80090046999999998
    70   1      20.293878150000001      2.3433209100000001     0.80090046999999998
    71   1      24.353123750000002      2.3433829099999999     0.80116898000000003
    72   1      28.413396859999999              2.34454954     0.80169402000000001
    73   1      2.0293964600000001      5.8582218700000004     0.80119762000000005
    74   1      6.0870566899999998      5.8583336700000004              0.80194851
    75   1             10.14649655              5.85853131     0.80121584000000001
    76   1             14.20597894      5.8582938599999999     0.80086840999999998
    77   1             18.26456816      5.8583798500000004               0.8010794
    78   1      22.323157380000001      5.8582938599999999     0.80086840999999998
    79   1             26.38263976              5.85853131     0.80121584000000001
    80   1      30.442079629999999      5.8583336700000004              0.80194851
    81   1  0.00019438999999999999      9.3717771800000005     0.80082061000000004
    82   1      4.0585985400000002      9.3717771800000005     0.80082061000000004
    83   1      8.1175070500000004      9.3725002699999997     0.80149060999999999
    84   1      12.176590020000001      9.3733583399999993     0.80088261999999999
    85   1             16.23512199      9.3733789200000004              0.80106506
    86   1             20.29401433      9.3733789200000004              0.80106506
    87   1      24.352546289999999      9.3733583399999993     0.80088261999999999
    88   1      28.411629269999999      9.3725002699999997     0.80149060999999999
    89   1      2.0293964600000001             12.88692854     0.80220621000000003
    90   1      6.0883212999999996             12.88743848     0.80138414999999996
    91   1      10.147128609999999             12.88859852     0.80085256000000005
    92   1             14.20571782      12.888558189999999     0.80113791000000001
    93   1             18.26456816      12.888409899999999     0.80109381000000002
    94   1      22.323418490000002      12.888558189999999     0.80113791000000001
    95   1             26.38200771             12.88859852     0.80085256000000005
    96   1      30.440815019999999             12.88743848     0.80138414999999996
    97   1              0.00012365      16.403222639999999     0.80145666999999998
    98   1      4.0586692700000002      16.403222639999999     0.80145666999999998
    99   1      8.1174337899999998      16.403825260000001     0.80097196999999998
   100   1              12.1761021             16.40390721     0.80133072000000005
   101   1             16.23503496      16.403861750000001     0.80140014999999998
   102   1      20.294101359999999      16.403861750000001     0.80140014999999998
   103   1      24.353034220000001             16.40390721     0.80133072000000005
   104   1      28.411702529999999      16.403825260000001     0.80097196999999998
   105   1      2.0293964600000001      19.919205120000001     0.80066369999999998
   106   1              6.08752564             19.91894023     0.80122479000000002
   107   1      10.146078839999999             19.91919038     0.80159137999999996
   108   1      14.204993419999999              19.9192584     0.80178742000000003
   109   1             18.26456816      19.919377350000001     0.80194975999999996
   110   1      22.324142899999998              19.9192584     0.80178742000000003
   111   1      26.383057470000001             19.91919038     0.80159137999999996
   112   1      30.441610669999999             19.91894023     0.80122479000000002
   113   1              0.00142012      23.434536609999999     0.80178442000000005
   114   1      4.0573728100000004      23.434536609999999     0.80178442000000005
   115   1      8.1165862000000004      23.433936769999999     0.80182306000000003
   116   1             12.17555218      23.433996919999998     0.80156656000000004
   117   1             16.23465491      23.434040110000002     0.80170828999999999
   118   1      20.294481409999999      23.434040110000002     0.80170828999999999
   119   1      24.353584130000002      23.433996919999998     0.80156656000000004
   120   1      28.412550110000002      23.433936769999999     0.80182306000000003
   121   1      2.0293964600000001      26.949875330000001              0.80297246
   122   1      6.0858208300000003      26.950066320000001              0.80215291
   123   1             10.14598146      26.949241430000001     0.80165810000000004
   124   1             14.20520604      26.948673230000001     0.80131923999999999
   125   1             18.26456816             26.94858318     0.80108193999999999
   126   1      22.323930279999999      26.948673230000001     0.80131923999999999
   127   1      26.383154860000001      26.949241430000001     0.80165810000000004
   128   1             30.44331549      26.950066320000001              0.80215291
   129   1    0.067648059999999996             -0.00687895              1.70009849
   130   1      4.2537358200000002              0.11543289      1.4460903300000001
   131   1               8.1434856    0.080487580000000003      1.3510301499999999
   132   1             12.01827969    0.077639459999999993              1.48350593
   133   1      16.288492430000002    0.044179929999999999      1.5334661700000001
   134   1      20.205929709999999    0.030135180000000001      1.4274477299999999
   135   1      24.416025829999999     0.13014471999999999      1.6603989299999999
   136   1      28.384929150000001              28.1412412              1.39238554
   137   1              2.15738473      3.5251481099999999      1.6222013399999999
   138   1      6.2385308300000002      3.6847954999999999              1.30142146
   139   1             10.21422394              3.56570557              1.48376233
   140   1             14.31917735      3.3351058500000001      1.4590610900000001
   141   1             18.25615496      3.6568854100000001      1.3082285300000001
   142   1      22.339334269999998      3.4013950999999998              1.37431441
   143   1      26.438248569999999      3.5115381600000002      1.3383133300000001
   144   1      30.373521069999999              3.33308158      1.4831261899999999
   145   1      32.444453250000002              7.00699658              1.33799314
   146   1      4.1168441199999997      7.2157877499999996      1.5111324799999999
   147   1      8.1886384799999998      7.2556315099999997      1.1979899300000001
   148   1             12.20163421              7.04587846              1.41887732
   149   1      16.250863330000001      6.9563842600000001      1.2940724400000001
   150   1             20.23151859      7.1244664799999997              1.45572692
   151   1      24.352684740000001      7.1015125599999998      1.5532141800000001
   152   1             28.52599185      7.0739248799999999      1.6251904399999999
   153   1      2.0093996999999999             10.44778539      1.5409485700000001
   154   1      5.9620700600000003      10.440218399999999              1.73952499
   155   1      10.011204790000001             10.55381882              1.58103733
   156   1             14.27888478             10.50191278              1.46057682
   157   1             18.21281123      10.702634720000001      1.3309171799999999
   158   1      22.297788910000001      10.516003469999999              1.47153921
   159   1      26.449395299999999      10.645720730000001      1.3407795600000001
   160   1      30.506667820000001      10.533680560000001      1.5461446999999999
   161   1      32.442141960000001      13.970379640000001      1.4557777999999999
   162   1      4.1554453599999999              14.0333737      1.2187970800000001
   163   1      8.1698997500000008             14.01328833              1.27817563
   164   1             12.19760387      14.274587110000001      1.5099212900000001
   165   1      16.218065809999999      14.094691129999999      1.4747991499999999
   166   1      20.381472089999999             14.09836907               1.4298777
   167   1      24.377393300000001      14.161335279999999      1.4129305700000001
   168   1             28.30479519             14.11921313               1.6488623
   169   1              1.91665741      17.429677250000001              1.43617956
   170   1      6.0484978099999998      17.577322970000001      1.5527528500000001
   171   1      10.155325360000001      17.582679809999998      1.5286733699999999
   172   1      14.029568749999999      17.490250979999999              1.36004046
   173   1      18.394168759999999      17.654760970000002      1.4533305000000001
   174   1      22.313958849999999      17.539568020000001      1.3904367900000001
   175   1      26.255782549999999             17.46213126              1.81298713
   176   1      30.494176920000001      17.547290889999999      1.4347858499999999
   177   1  -0.0073210999999999997             20.94247236              1.51013095
   178   1      4.0560391300000003             21.13738051      1.3082090200000001
   179   1      8.2047080300000008             21.13249214      1.4884376399999999
   180   1             12.08298267             21.11946305              1.65361161
   181   1      16.271845209999999      21.185959199999999      1.0558684300000001
   182   1      20.250607590000001             21.27531896      1.6251430200000001
   183   1      24.471060980000001             20.80277809      1.6247927499999999
   184   1      28.418415660000001             20.99592427      1.3214828999999999
   185   1              1.84212368      24.694597739999999      1.4403541399999999
   186   1      6.1830021500000001             24.56090245      1.4981606199999999
   187   1              10.1135179      24.670942549999999               1.4310364
   188   1             14.26295283      24.637759989999999              1.47450546
   189   1      18.317547139999999      24.595926670000001              1.43333186
   190   1      22.307200340000001              24.7060393              1.57086616
   191   1      26.545084880000001      24.568668500000001      1.4095367599999999
   192   1      30.540259750000001      24.642719110000002      1.3894031600000001
   193   1              2.01653825               1.2419734              2.37573078
   194   1              6.17217722              1.10466018              2.56306827
   195   1              10.2100784      1.1672466699999999      2.4219479100000001
   196   1      14.283505399999999              1.18031445      2.5952880899999999
   197   1      18.328647440000001      1.2816392700000001      2.3495839300000001
   198   1             22.49320565              1.16169301      2.4405105300000001
   199   1      26.420907969999998              1.11994792              2.46008286
   200   1      30.518514329999999              1.14747501      2.3755717399999998
   201   1   0.0088181700000000002              4.73959054      2.1902271799999999
   202   1              4.13752882      4.6342579199999996              2.41120351
   203   1      8.2188897099999991      4.6450718200000001      2.3623871200000002
   204   1      12.181513580000001      4.6948393900000003      2.4059384499999998
   205   1      16.255371419999999      4.7093639100000004              2.46325518
   206   1      20.371610400000002      4.6365868299999997               2.4938596
   207   1      24.310446550000002      4.6714000799999997              2.28869239
   208   1      28.460142000000001      4.8554817999999997      2.2919368900000001
   209   1      2.0376098900000001      7.9665586399999997              2.40246644
   210   1      6.0479394400000004      8.2263372199999996      2.3319642100000002
   211   1      10.152414800000001      8.2995800200000005      2.3112814699999999
   212   1      14.220436810000001      7.9981909299999998      2.4577917600000001
   213   1      18.232789090000001      8.2064655599999998      2.4742446899999999
   214   1      22.237777600000001      8.0295238300000005      2.2920701700000001
   215   1      26.445060309999999              8.39314216      2.3905471299999999
   216   1      30.527588040000001      8.1291418800000006      2.3857354499999999
   217   1      32.522113359999999      11.640014069999999      2.5597308000000001
   218   1      3.9772968999999998      11.731606319999999              2.44255705
   219   1      8.1389494899999999      11.932604230000001              2.36203897
   220   1             12.16550765      11.656837489999999      2.3833499800000002
   221   1      16.030761609999999             11.61669607      2.4370927400000002
   222   1             20.27786867      11.669125510000001      2.4046759999999998
   223   1      24.404861929999999      11.763125840000001              2.29910697
   224   1      28.457895539999999      11.662863870000001      2.4227484499999998
   225   1      2.1132948800000002      15.138703769999999      2.4561938699999999
   226   1      6.0967026000000004             15.24667606      2.4131255899999999
   227   1      10.252581109999999      15.172399049999999      2.5316734699999999
   228   1      14.264009959999999      15.088091479999999      2.3976784599999998
   229   1             18.22176065             15.12327971      2.3719460400000001
   230   1      22.468094610000001      15.143723100000001              2.36611167
   231   1      26.221297849999999             15.16026248      2.5098249099999999
   232   1             30.49588971             15.24700724      2.5409439100000002
   233   1              0.01661315      18.568804629999999               2.4560602
   234   1      4.1583911499999999             18.84227812      2.4192536100000002
   235   1      8.2843795999999994             18.70431804      2.3285760799999999
   236   1      12.194217699999999      18.821386889999999              2.49638406
   237   1      16.139509289999999      18.790898899999998      2.3203359899999998
   238   1      20.274537819999999             18.81750748      2.3374803399999999
   239   1      24.371052779999999             18.66433863      2.5463911600000002
   240   1             28.31050347      18.891361679999999      2.5477673699999999
   241   1              1.91932758             22.47157533      2.3199799200000002
   242   1      6.2378539499999999             22.12594833      2.4420482099999998
   243   1      10.131318240000001      22.178920999999999      2.6268981199999999
   244   1             14.30488268      22.210782519999999              2.19019086
   245   1             18.23705305      22.445250919999999      2.4283074500000001
   246   1      22.341642499999999      22.029047080000002      2.2892543600000002
   247   1      26.275601340000001      22.152980540000001      2.3677416299999998
   248   1      30.467485960000001      22.296414469999998      2.3985912599999999
   249   1      32.381887450000001      25.737189140000002               2.4669941
   250   1      3.9950741000000001      25.821071069999999      2.4421792299999998
   251   1      8.1580944899999999      25.839568459999999      2.3564724699999999
   252   1      12.315958719999999             25.67025821      2.4159606999999999
   253   1      16.448102460000001      25.713047100000001              2.43412863
   254   1      20.312335770000001      25.664763069999999              2.48872779
   255   1      24.521978600000001             25.71037475              2.35142885
   256   1             28.46022211      25.823378550000001      2.4641828299999999
   257   1      32.362481670000001      2.4952714199999999      3.3950122199999999
   258   1              4.07929063      2.4199796199999999      3.2487073999999998
   259   1      8.1246825099999995      2.3213979600000001      3.2244917700000002
   260   1             12.23741553      2.3088358900000001      3.2171138300000002
   261   1      16.351120009999999      2.2191836399999998              3.45567292
   262   1             20.33891998      2.3133371999999999              3.15248711
   263   1             24.31631625      2.2562398099999998      3.3044122100000002
   264   1             28.41778901      2.2831927400000001      3.1553690799999998
   265   1      2.2366691699999999      5.7615635599999999      3.3576717600000001
   266   1      6.0464534600000004      6.0028546800000004              3.38589684
   267   1             10.12691323              5.73245468      3.2945103100000002
   268   1             14.24586697      5.6244046900000004      3.2742092399999998
   269   1      18.257256430000002      5.9447174800000004      3.2296492300000001
   270   1      22.292734809999999      5.8282072100000004              3.16436472
   271   1             26.46556279      5.9693640700000001      3.1555549300000001
   272   1      30.603451539999998              5.86247118      3.2228722900000002
   273   1     0.12035389000000001              9.17784829      3.1990783399999998
   274   1      4.1100112500000003      9.3390506700000007      3.3106629999999999
   275   1      8.1122759999999996      9.4010152199999997      3.3096849800000001
   276   1             12.25004597      9.3063297800000004              3.31191646
   277   1      16.243606809999999      9.2932455800000007      3.3312315400000001
   278   1      20.190299880000001      9.5242492599999995      3.3101119899999998
   279   1      24.390599349999999      9.4764777799999997      3.3366272800000001
   280   1      28.645433000000001              9.30358734      3.3330882800000001
   281   1      1.9844454199999999      12.920300170000001              3.23576168
   282   1      6.0839804500000003      12.984125629999999      3.4467539500000002
   283   1             10.24919092             12.95564401      3.2449076200000002
   284   1             14.12305634             12.68856422      3.3325218799999998
   285   1      18.269271079999999      12.786838550000001      3.1754284699999999
   286   1      22.308236180000002             12.98760326      3.1459311599999999
   287   1      26.496296489999999      12.780853090000001              3.27503711
   288   1      30.440665970000001             12.77483179              3.35753265
   289   1     0.17281004999999999      16.431844460000001      3.3503233400000001
   290   1      4.3158813499999997      16.481609540000001      3.2610591599999998
   291   1      8.5222670100000002      16.404057229999999               3.3219311
   292   1      12.337035670000001      16.321022330000002              3.25211505
   293   1      16.276432069999998             16.46992608      3.3364425600000001
   294   1      20.341353819999998      16.331433270000002              3.12750627
   295   1      24.434891459999999               16.434904      3.2972451199999999
   296   1      28.491166249999999              16.4121591      3.1742818399999999
   297   1      2.0795387999999999             19.95756441      3.1950137500000002
   298   1      6.1996298400000001      19.872658730000001      3.4117118999999998
   299   1      10.161575109999999             20.01385247              3.28669455
   300   1             14.13511233      20.027804419999999               3.1680481
   301   1      18.329422529999999      19.767263440000001      3.2585895300000001
   302   1      22.301736739999999      19.821140060000001      3.3704187999999999
   303   1      26.441862059999998      19.845389749999999      3.3611245200000002
   304   1      30.294913000000001      20.004352189999999      3.2054503699999999
   305   1              0.10058014      23.533353439999999      3.3801663999999998
   306   1      4.0317127099999999              23.3659514      3.3038766800000001
   307   1      8.1204193999999994      23.440428950000001      3.2398144699999998
   308   1             12.13142515      23.550489859999999      3.2827119699999998
   309   1      16.180442150000001      23.463406039999999      3.0780499899999998
   310   1             20.26476929             23.31453368               3.1191358
   311   1      24.334355370000001      23.352831640000002      3.2245161699999998
   312   1              28.4872853      23.386431930000001      3.1440746900000001
   313   1      2.0829129000000002      26.921635250000001      3.2388165400000002
   314   1      6.2065165699999998             26.84766346              3.15230912
   315   1              10.2807599      26.953224769999999      3.2112654900000002
   316   1             14.33341323      26.844272490000002              3.24381414
   317   1      18.478220839999999              26.8960036              3.22940191
   318   1      22.506874100000001      26.851439750000001      3.2613656299999998
   319   1      26.481715999999999      26.971317299999999      3.3155340799999999
   320   1             30.48693613      26.932262179999999      3.3378143599999999
   321   1              0.03176404      28.022255139999999              4.08721683
   322   1      4.1692437699999996      28.089252500000001      3.8822933000000002
   323   1              8.17997233              0.16130959      4.0063351100000002
   324   1             12.42469603      27.947001799999999      4.2068947899999998
   325   1      16.267708070000001              27.9226277      4.0210418700000004
   326   1      20.375671759999999             27.96709667              4.32414962
   327   1      24.423049550000002             28.06790608      4.2938750900000002
   328   1      28.417225219999999      28.080151050000001      4.0997241100000004
   329   1      2.0839480400000001      3.3874166799999998      4.2742510500000002
   330   1      6.2308973700000001      3.5593816999999999      4.0620056399999998
   331   1             10.25718693              3.51455962      4.1098899099999997
   332   1             14.25449744      3.2683399899999999      4.0961784100000003
   333   1      18.444159119999998      3.3176759699999998              3.97844182
   334   1      22.458136069999998      3.5635580600000001              3.89186012
   335   1      26.377512490000001      3.7031201899999999      3.8933731200000001
   336   1      30.305387549999999      3.5018821500000001      4.0139834299999997
   337   1     0.16021295999999999              6.85170557      4.0534946500000002
   338   1              4.18333654      6.9449781000000002              4.27101738
   339   1      8.2065639200000007      7.0707996900000003      3.9496844599999998
   340   1             12.39685875      6.8277309900000001              4.20211427
   341   1      16.159486149999999               6.8175697      4.0107514000000002
   342   1      20.288829079999999      7.0320034099999997      4.1060459800000002
   343   1      24.437631570000001      7.1141520099999997              4.04473474
   344   1      28.598185109999999      6.9587396500000001      4.0689760899999996
   345   1      2.1461013499999999             10.60390042              4.14401508
   346   1      6.1068486899999996             10.49402954      4.2068009899999996
   347   1              10.0273798             10.53685263      3.9184443799999999
   348   1              14.2771176      10.417284909999999      4.0775136600000002
   349   1             18.16628382             10.67233607      4.2486376899999998
   350   1             22.37070194             10.70160791      4.2655151599999996
   351   1             26.51165834             10.49195724      4.0871578099999999
   352   1      30.580810169999999             10.37321464      4.1497384400000001
   353   1      32.419192789999997             14.00335918      3.9724662400000001
   354   1              3.95848428      14.087782750000001      4.2451873899999999
   355   1      8.2678114899999997      14.080043509999999      3.9968035300000002
   356   1      12.133903869999999             13.99549633      4.3113489200000004
   357   1      16.174166150000001             14.10129521      4.1806567899999996
   358   1              20.2947396             14.05319199      4.0285060799999997
   359   1      24.399028879999999      13.974702880000001      4.0457656799999997
   360   1      28.543360270000001             13.85931289      4.1003262300000003
   361   1      2.0815545499999999      17.640241939999999      4.1797953300000001
   362   1      6.1569671100000001      17.568308770000002      3.9304931700000001
   363   1      10.316498709999999      17.588333209999998      4.2452290000000001
   364   1      14.216419910000001      17.572518039999999      4.1164531599999998
   365   1      18.283225829999999      17.581510359999999      3.8378839999999999
   366   1      22.262205059999999      17.375065379999999      3.7934794799999998
   367   1      26.601063610000001      17.715722530000001      4.0326582599999998
   368   1      30.504225680000001      17.792778469999998      4.0449351699999996
   369   1      32.422978229999998              20.9053611      4.1493727700000003
   370   1      4.1603704600000002      20.992007229999999      4.0986207500000003
   371   1      8.3187023199999999      20.961026319999998      4.2205816799999996
   372   1             12.22258006      20.991844499999999      3.9489565400000002
   373   1      16.207456390000001      20.920327220000001      3.9171939199999999
   374   1      20.197649819999999             20.98427753      4.0929459499999998
   375   1      24.383467589999999             21.04510243      4.1498926899999997
   376   1      28.194572569999998      21.104976180000001      4.1982195300000003
   377   1      2.2254672700000002      24.636878129999999      4.0377121999999996
   378   1      6.2985298700000003             24.56005721              4.05467069
   379   1             10.11056868      24.496174069999999      4.0735399599999997
   380   1      14.120880530000001      24.570570459999999      4.0759062200000002
   381   1      18.258583059999999             24.56007438      3.9888058200000001
   382   1      22.405610070000002      24.552497320000001      4.0579801900000003
   383   1      26.579425350000001      24.397479910000001      4.1194806799999997
   384   1      30.429215790000001      24.499045150000001      4.0582501200000003
   385   1      2.0774720599999998      1.1972091499999999      4.9990181400000004
   386   1      6.2093779099999997      1.1316050200000001      4.9947250399999996
   387   1      10.331662529999999      1.2369713200000001               4.9155951
   388   1      14.159706740000001      1.1437810399999999      5.0706351400000003
   389   1      18.339608259999999      1.2212351400000001      4.7611306600000001
   390   1      22.261716530000001     0.94276702000000001      4.9513716900000002
   391   1      26.438235120000002              1.35378738      4.9432248699999999
   392   1              30.4213016               1.2988643      5.0310138000000002
   393   1              32.4573009      4.6408522400000001      4.9202914599999996
   394   1      4.1080776600000002              4.46781702      4.8309090699999997
   395   1      8.1434451400000007      4.8139671999999996      4.8437374899999996
   396   1      12.183972989999999      4.5105408599999999      4.8628001899999997
   397   1      16.339414590000001      4.6242773699999997      4.8576554099999996
   398   1      20.517422939999999      4.5021508499999996              4.84799092
   399   1             24.46001218      4.6327581499999999      4.7633779299999999
   400   1      28.451477109999999      4.7805133900000003      4.7902760500000001
   401   1      2.3238164800000001      8.2218778700000001              5.11860056
   402   1              6.20338762      8.2119988999999993      5.0817814099999996
   403   1      10.203635630000001      8.0329554200000004      5.0741447500000003
   404   1             14.36392392      8.0084845900000001      4.9722941599999997
   405   1      18.324715619999999      7.9716019500000002      5.0733661799999998
   406   1             22.34043462      8.1489844199999997      4.9496459100000001
   407   1      26.427956609999999      8.2394942699999998      4.8269296400000004
   408   1      30.791980980000002      7.9451071899999999      5.0121855200000001
   409   1    0.080562339999999996             11.68075799              5.09126411
   410   1      4.0984965899999999             11.63396253      5.0927521799999997
   411   1      8.0039376400000002      11.677954590000001      4.8494550700000003
   412   1             12.23557104             11.54719845      4.8793445999999996
   413   1             16.18861635             11.60848807              4.81694859
   414   1             20.36945085             11.81062755      4.8385734999999999
   415   1      24.605243229999999      11.757949760000001      4.6163723900000004
   416   1      28.683688310000001             11.56547207      5.0129823499999997
   417   1      2.0572881500000002      15.140763209999999      5.1078308999999997
   418   1      6.1091069600000001             15.18076761      5.0782785199999996
   419   1      10.250003100000001      15.263281360000001      4.9694453100000002
   420   1      14.153146680000001      15.219550310000001      4.8657742400000004
   421   1      18.182068789999999             15.31570312      4.8151545699999998
   422   1             22.34652225             15.08684322      4.9043680700000003
   423   1      26.461820410000001      15.101733619999999               5.0055014
   424   1      30.599528750000001             15.21256794      5.0464611899999996
   425   1     0.14765574000000001      18.745397319999999      5.0070243300000001
   426   1              4.09433778      18.714360509999999      4.9041180100000004
   427   1      8.1539961299999995      18.604800820000001              5.04283561
   428   1      12.297288419999999      18.625860370000002      4.9917478300000004
   429   1             16.34881566      18.662957169999999      4.8841717899999999
   430   1      20.336936269999999      18.578934010000001      4.9344915299999998
   431   1      24.335681180000002             18.94350725      5.0186744499999998
   432   1      28.566962749999998             18.82833535      4.9621186799999997
   433   1      2.2119084500000001      22.413333680000001      4.8172238199999997
   434   1      6.4473716599999999      22.036166250000001      4.9320291799999998
   435   1             10.30853269      22.106536699999999      5.1422418600000004
   436   1      14.094294850000001             22.24768882      4.6825052600000001
   437   1      18.214129799999998      22.295621319999999      4.8506303800000001
   438   1      22.421448739999999      22.200686059999999      4.8427677100000004
   439   1      26.196679620000001      22.162548430000001      5.0639826599999997
   440   1      30.469004089999999      22.221882950000001      4.9525321800000004
   441   1      32.341868890000001      25.784075430000001      4.9623156699999997
   442   1      4.1298500300000001      25.741770630000001               4.8042194
   443   1      8.3058119599999998      25.907302959999999      4.8538934500000002
   444   1      12.159463179999999      25.821826269999999      5.0165014499999998
   445   1              16.2971273      25.629836839999999      5.1296040700000001
   446   1             20.42061563      25.768412359999999      5.1425675200000001
   447   1             24.53307594      25.807767720000001      5.0012621700000004
   448   1      28.450959879999999      25.940028089999998              5.09090665
   449   1    0.024601379999999999      2.3561697100000001      5.7687583800000004
   450   1      4.2506605300000002              2.33129652      5.6162119800000001
   451   1      8.1780471099999996      2.3748334799999999      5.8492070199999997
   452   1             12.22882675      2.1256204699999999      5.8191604400000001
   453   1      16.162442819999999      2.2738808100000001      5.8226688099999997
   454   1      20.269732479999998      2.1965667500000001      5.7783960800000003
   455   1      24.286453389999998      2.3807795600000001      5.7125829799999996
   456   1              28.3505988      2.3964733300000001      5.7834858100000002
   457   1              2.10155067      5.6583664899999997      5.7368482399999996
   458   1      5.8676576899999997      5.8242818300000003      5.8691316999999996
   459   1             10.30352085              5.61316551      5.6901320599999998
   460   1             14.29032089      5.4470017999999998      5.9550189099999997
   461   1             18.42018599      5.7268233200000003      5.6444614399999997
   462   1      22.537844669999998      5.8824506000000003      5.6405487399999998
   463   1             26.45606068      5.8046276099999998      5.6344864799999996
   464   1      30.401047439999999      5.8241552399999996      5.7734287599999998
   465   1              0.17435533      9.2462349800000005      5.7374328500000003
   466   1      4.1168834900000002      9.3195476799999994      5.9761257800000003
   467   1      8.1033987399999994      9.3117100100000005      5.7206000899999996
   468   1             12.39929075      9.1745824999999996      5.9562558699999997
   469   1      16.366671660000002      9.3387554000000002      5.7491342699999999
   470   1      20.060765239999998      9.5413146300000005      5.7867362399999998
   471   1      24.261727050000001      9.7223143400000005      6.1259276199999997
   472   1      28.664230830000001      9.1161622100000006      5.8046309899999997
   473   1      1.9772679200000001             12.75859691      5.8744047500000001
   474   1              6.15213944      12.807571100000001      6.0364373799999997
   475   1      10.028820830000001      12.816005840000001      5.6105516800000004
   476   1      14.215916999999999             12.76754274      5.9444449099999996
   477   1      18.332018439999999      12.835086280000001      5.7137031199999999
   478   1      22.482710829999998             12.85010829      5.7887890100000003
   479   1      26.498106610000001             12.90327832      5.9195607299999997
   480   1      30.452195110000002      12.887815030000001      5.7935684399999996
   481   1             32.42041236             16.35047363      5.8957531899999998
   482   1              4.22242636      16.488768050000001      5.8948567199999999
   483   1      8.1430235500000006      16.233642679999999              5.90124812
   484   1             12.38643373      16.404727959999999      5.7031619300000003
   485   1      16.186085129999999      16.339808810000001      5.7592452700000001
   486   1      20.405948330000001             16.32964643      5.6102938299999998
   487   1      24.297194210000001      16.352741720000001      5.7068033099999997
   488   1              28.5997953      16.526946890000001      5.7262415799999999
   489   1              2.14611543      19.978032330000001      5.6106747199999996
   490   1      6.2092348800000003      19.917473919999999      5.8432969300000002
   491   1             10.29583906      19.717339890000002      5.8327462800000003
   492   1             14.42607813      19.808703319999999      5.7105972899999999
   493   1             18.25764835             19.89265717      5.7296432499999996
   494   1      22.269923680000002      19.816215929999998      5.9339859500000003
   495   1             26.35331115             20.03379237              5.96477301
   496   1      30.439721779999999      19.941892299999999      5.9116516099999998
   497   1             32.46957407             23.24977483      5.7616330400000004
   498   1      4.2496167199999997      23.523911900000002      5.7775768300000001
   499   1      8.4346457099999999      23.367149090000002              5.87396384
   500   1             12.17235595             23.40769654      5.9461925500000001
   501   1      16.045302060000001      23.320632140000001              5.64639677
   502   1      20.479221259999999      23.223376080000001      5.5617287099999997
   503   1      24.315801499999999      23.364680270000001      5.7292217000000001
   504   1      28.369779550000001             23.50307866      5.7931386700000003
   505   1      2.0527561300000001      26.921908380000001              5.52961423
   506   1      6.1509241100000001             26.86868501      5.6432978299999998
   507   1      10.223286999999999      26.995874700000002      5.7579739300000004
   508   1      14.256336299999999      26.902957579999999      5.7227801200000004
   509   1      18.256008609999999             26.94285893      5.6058120599999999
   510   1             22.59192058             26.74853092      5.7499014099999997
   511   1      26.494484790000001      27.175971220000001      5.7852418099999996
   512   1      30.488795889999999             26.96479442      5.7345594499999999
   513   1              0.11585386      28.127293569999999      6.5138477999999997
   514   1      4.2492917099999996      28.045189090000001      6.4630366800000001
   515   1      8.2382135099999996     0.10783036999999999      6.4175473199999997
   516   1             12.21870431             28.01774305      6.6854432600000004
   517   1      16.178114539999999      27.802160740000001      6.5928692399999997
   518   1             20.24206409      27.899857749999999              6.72854273
   519   1             24.43777133    0.058156819999999998      6.7545301499999999
   520   1      28.394391890000001              0.16377622      6.4951109300000001
   521   1      2.1015874499999998      3.4689276200000001               6.5558622
   522   1      6.1372299699999999      3.4996629000000001              6.77104777
   523   1             10.10958372      3.4310992599999999      6.5994423900000001
   524   1              14.0885669      3.3100999999999998      6.8803088199999998
   525   1      18.224962600000001      3.3078630699999998      6.5259685599999999
   526   1      22.344662639999999              3.55514039      6.3918628799999997
   527   1      26.190352050000001      3.6161036800000002      6.5966274499999997
   528   1      30.518480350000001              3.72318631      6.8513313599999996
   529   1     0.21137974000000001      6.9186388299999999      6.6847509299999999
   530   1      4.0379577400000004      7.0606946600000002      6.6811294999999999
   531   1      8.2147661900000006      6.8629285600000003      6.6763559600000004
   532   1      12.279303929999999      6.7866225499999997      6.7999413400000002
   533   1      16.201088330000001      6.8211839899999998      6.5094712399999999
   534   1      20.444082770000001              7.03372946      6.5844651499999998
   535   1             24.34990548      7.2032710199999999      6.6182245499999999
   536   1      28.398709700000001      6.9791747400000004      6.7559086600000002
   537   1      2.0982775199999999             10.42404097      6.7945664900000002
   538   1      6.1984009599999998             10.49500825      6.7527481399999996
   539   1              10.0615516             10.40548765              6.24866177
   540   1      14.265070639999999             10.26511434      6.6890180900000002
   541   1      18.224626990000001      10.741176919999999      6.7784684799999999
   542   1      22.037826939999999             10.61818002      6.6277206599999996
   543   1      26.529095519999998             10.50802384      6.8449917400000002
   544   1      30.742421700000001             10.23171106      6.7913594399999999
   545   1      32.323769550000002             14.00592941      6.6811716299999997
   546   1      3.9410862099999999             14.08076666      6.8517072600000004
   547   1      8.2039687600000004             13.96156631      6.5415521700000001
   548   1             12.18573767             13.93369199      6.8073954600000004
   549   1      16.297884710000002      14.031536020000001      6.5892946500000003
   550   1      20.473094280000002      14.036052850000001              6.49635067
   551   1             24.47337417             14.12712043      6.4437433400000002
   552   1      28.502124559999999             14.26338913      6.4974084999999997
   553   1      2.0173960200000001      17.496172229999999      6.6810827000000002
   554   1      6.1910870400000002             17.53297237      6.8062353499999997
   555   1             10.37786163      17.316712970000001      6.8074226099999997
   556   1      14.369356639999999      17.580420520000001      6.6421406300000001
   557   1      18.189503890000001      17.337636889999999      6.5677896799999997
   558   1      22.398868719999999              17.3810845      6.5004540500000001
   559   1      26.219372530000001             17.72654343      6.7049343500000003
   560   1      30.592165690000002      17.711688989999999      6.5562456999999998
   561   1              0.21965309      21.072496829999999      6.7377399899999997
   562   1      4.2105368600000004             21.26631862      6.4437323800000001
   563   1               8.4367953             20.89587045      6.9435277199999996
   564   1      12.198625850000001      20.761386479999999      6.4529364100000004
   565   1      16.224085989999999      21.238679990000001      6.4055059300000003
   566   1             20.38527534      20.988827300000001              6.75099128
   567   1             24.34572009      21.177395539999999      6.7820032499999998
   568   1      28.360481679999999      21.105927640000001      6.8013253699999998
   569   1      2.1352298300000001      24.468776779999999      6.4357541400000002
   570   1      6.2747164900000003      24.742681170000001      6.4852820600000003
   571   1              10.2118184      24.595558180000001      6.7852155500000002
   572   1      14.242173210000001      24.676403629999999      6.4609636500000001
   573   1      18.293422459999999      24.398161730000002      6.5075045500000002
   574   1      22.441240480000001             24.63871194      6.7222246600000002
   575   1      26.438516140000001             24.40427571      7.3137398600000001
   576   1      30.471969510000001              24.5785269      6.4736800099999998
   577   1      2.3152732399999998              1.25808235      7.5323363800000003
   578   1              6.15265387     0.80847961999999995      7.5823501100000001
   579   1             10.03795086      1.1737554800000001      7.4504072800000003
   580   1      14.169204880000001              1.14180225      7.5302172599999997
   581   1      18.271888239999999     0.99026904000000004              7.35125078
   582   1             22.17659291      1.1842636200000001      7.2099695400000003
   583   1      26.547014799999999              1.32810289      7.5259662399999998
   584   1      30.671304030000002      1.2044219899999999      7.4543879300000002
   585   1      32.475348339999996      4.6983199100000004      7.6453107500000002
   586   1      4.0105422300000004      4.5449362000000004      7.3388679899999998
   587   1              8.32082327      4.6994451599999998      7.4913702999999998
   588   1             18.35125888     0.94086782999999996      9.7846411399999997
   589   1      16.309011479999999      4.4472817400000002      7.6729140600000001
   590   1      20.326828540000001              4.58586092      7.2373717299999996
   591   1      24.218306129999998      4.6613951499999997      7.3885799600000004
   592   1             28.36010757      4.7398247900000001      7.2460933000000001
   593   1      2.0837321100000001      8.0415649299999998              7.75034432
   594   1      6.2132745199999997      8.0003220099999997      7.5581619099999999
   595   1             10.14897523      8.1200310600000005      7.7228135699999996
   596   1              14.3481185      8.0758517699999999      7.6185013899999996
   597   1      18.264236069999999      8.1641356100000007      7.3869396600000004
   598   1      22.446380510000001      8.3083383600000005      7.5546494800000001
   599   1      26.412598729999999      8.2384221100000001              7.42809455
   600   1      30.371583810000001      7.9729626900000001      7.8597829199999998
   601   1    0.058771530000000002              11.6791462      7.4624458000000002
   602   1      4.1345623199999997             11.68994653      7.6087881800000003
   603   1      8.3374682900000003             11.70299041      7.5672452200000002
   604   1             12.07533566             11.33843184      7.3249799800000002
   605   1             20.60857176              7.07384594      8.9858416499999993
   606   1      20.244685270000002             11.87116088      7.5391447100000004
   607   1      24.478076659999999              11.8810859      7.2263666000000004
   608   1              24.1646137      7.3822928900000004      9.1313035500000002
   609   1              2.06333002                15.34004      7.6742326399999996
   610   1      6.2003802099999996      15.060877420000001      7.5618595600000003
   611   1             12.15074635      16.127258359999999      8.3356425600000001
   612   1             14.22292629             15.20924065      7.3611208000000001
   613   1      18.245560659999999             15.19372452      7.4398422000000002
   614   1      22.547995669999999             15.12125702      7.4068780500000004
   615   1      26.290318070000001             14.96576578              7.79814015
   616   1      30.554445770000001             15.42656161      7.4294679700000001
   617   1      32.422693930000001      18.741023429999998      7.3076588100000004
   618   1      4.1132795700000004      19.032018570000002      7.8208743099999998
   619   1      8.1750743900000007      18.612066590000001      7.8349809500000003
   620   1             12.41413504      18.583600910000001      7.5834341399999996
   621   1      16.552729079999999      18.865029570000001      7.4151396500000004
   622   1      20.330190030000001      18.391039540000001      7.1186944900000002
   623   1      24.272216440000001             18.97047461      7.7558741900000001
   624   1             28.50010855      18.801323570000001      7.6480782200000004
   625   1      2.1026490299999998              22.4880976      7.2583408699999996
   626   1      6.2091609300000004      22.036148659999999      7.5868248300000003
   627   1      12.465721289999999      20.903813150000001      9.1914818100000009
   628   1             14.29797701      22.141380649999999               7.3411567
   629   1      18.423817570000001      22.002188409999999      7.2860113499999999
   630   1             22.38071476      22.349303419999998      7.4116267300000001
   631   1             26.26750693      22.104410590000001      7.5544570999999996
   632   1      30.432044229999999             22.39216034              7.37078275
   633   1    0.049608340000000001      25.750796059999999      7.4614861399999999
   634   1              3.96852209             25.78718752              7.16593137
   635   1      8.2331921300000008             25.81345958              7.27597849
   636   1      12.293949700000001      25.572760129999999      7.4753299000000002
   637   1      16.124254019999999             25.93345046      7.6689907599999998
   638   1      20.157170010000002      25.614969389999999      7.6182246899999999
   639   1             24.44834869      25.977491709999999      7.4393275599999997
   640   1      28.672844510000001             25.89354848              7.45141936
   641   1      4.2412193299999998      7.0636308100000003      9.0346816899999993
   642   1              2.13973228      3.2574287499999999      8.9542710700000008
   643   1      6.2833240100000003              8.39612728             10.03655592
   644   1             14.20283755             24.67993044      8.9236328199999999
   645   1      10.454552509999999      22.353602290000001      7.7201908299999999
   646   1      28.201057720000001      25.567384629999999      9.6763376900000004
   647   1      22.375152839999998      5.8429969899999996      8.1340279199999994
   648   1      7.6805662200000002      2.5741999299999998      8.2562669999999994
   649   1      4.0683133199999997      16.683184180000001      8.3633175299999998
   650   1      4.1046153700000003      23.662601219999999      8.1863947400000008
   651   1              20.2414047      23.316499319999998      8.0340077599999997
   652   1      18.374349540000001      5.8499417200000003      8.1013945199999995
   653   1      22.550156340000001             12.86625508      8.3888257199999998
   654   1      1.8309187499999999      24.826791870000001      8.7845893499999992
   655   1      25.087686099999999             25.17289251      9.6466857699999995
   656   1      8.1202750600000009      23.789663000000001      8.3355548200000005
   657   1             10.40040801      10.599073479999999      9.0754571599999991
   658   1      16.124631539999999             16.58108416      8.3335593299999999
   659   1      28.462114740000001      9.3515712900000008      8.3616075700000003
   660   1      16.395742729999998      6.6357751199999999      9.0572555000000001
   661   1             24.43981286      28.118069519999999      9.2005844200000002
   662   1      28.488229520000001      2.5593543099999998      8.2317304599999996
   663   1             20.39927625             27.83288868      9.2101139100000005
   664   1      1.8964564800000001      12.706159100000001      8.4329470799999999
   665   1              10.4862988             12.86879141      8.2463272199999995
   666   1      14.495184289999999      19.832101479999999      8.1834968400000001
   667   1      6.1886694200000001      17.656061860000001      9.1361302299999991
   668   1      16.041700110000001             11.82562555      7.4160083300000004
   669   1      4.0790618299999997      11.657660760000001              9.82000399
   670   1      28.190936099999998      7.1113524799999999      9.1407241999999993
   671   1      1.9859436399999999             10.39205812      9.2643681699999991
   672   1      1.8505468899999999      20.022188060000001      8.0424225200000006
   673   1      2.2046200499999999             27.02683467      7.8292080100000003
   674   1      2.1089202299999998      18.068532600000001      8.9881893099999992
   675   1      21.990184540000001             19.84645141      8.4217843400000003
   676   1      13.744737949999999      26.975567049999999      8.1524033800000009
   677   1      20.180961409999998      4.8101391600000003      9.5591881599999997
   678   1              22.4810427      17.556212840000001      9.2735779199999993
   679   1      26.177093979999999      3.5873696399999999      8.7942884600000006
   680   1      28.678282509999999              11.8660803      7.5703275400000001
   681   1      2.0553705600000001              5.73492566      8.0902065899999993
   682   1             10.09553406             14.99823207      7.5712420800000002
   683   1      6.0262359200000004             26.56196263      8.1768981200000006
   684   1             12.26185416              9.12562359      8.5568139500000004
   685   1              24.3745519             16.59842772      8.1338153299999991
   686   1             18.25051096              12.9024708      8.3118019099999998
   687   1      14.301820640000001      10.468454700000001      9.0009056699999999
   688   1      22.374477330000001             15.29054182      9.7412789600000007
   689   1      24.245000619999999      21.062726600000001              9.26674167
   690   1      32.440354110000001             16.53077605      8.2271937200000007
   691   1             30.51177113      5.7547574600000004      8.3290690999999999
   692   1             16.46994754      1.9349443900000001      8.5015459700000005
   693   1             16.51631999             14.05494788      9.0186844799999992
   694   1             20.30770119      9.4255783500000003      8.1685777300000009
   695   1      22.330143589999999      26.986486209999999      8.1427932300000005
   696   1      4.0202663200000002      14.149662019999999      9.0515926800000006
   697   1      7.9143478299999996      6.9243910399999997      9.2985919100000007
   698   1      18.161794449999999             26.95243773      8.1952715999999999
   699   1      20.186956800000001      2.1007494699999998      8.5264570499999994
   700   1      15.995625860000001      27.945779340000001      9.3289641999999997
   701   1             14.56234912      3.4116331199999999      9.0425384399999995
   702   1             24.23879797      23.475919210000001      8.3775935199999996
   703   1             22.19973126              3.31519524      9.0602193500000006
   704   1             26.43911142      19.995992739999998      8.3569847100000008
   705   1      4.3156186300000003             28.03164486      8.9237213900000008
   706   1              4.32914317      2.4747081400000002      8.2635840100000006
   707   1      12.509221419999999             23.32909055      8.2133745999999999
   708   1      20.379169990000001      16.051962169999999      8.3234594800000004
   709   1      22.263435260000001      1.1369242399999999             10.01221778
   710   1      18.793045020000001      19.681579589999998      8.3391224800000003
   711   1               0.2094519      7.0133891500000001      9.0485666400000007
   712   1      32.323429599999997      23.419256220000001              8.38585271
   713   1      28.381769810000002              0.15210984      8.8396064499999998
   714   1      3.7742935399999999             21.08203864      8.7015546799999992
   715   1              0.17161498      2.3183130300000001      8.2086965200000002
   716   1              10.2669573             19.79632672      8.2877455399999995
   717   1      26.518354160000001      23.174449790000001      9.7647509100000001
   718   1              0.21816826      9.2512830499999996      8.2842415799999998
   719   1      30.563010540000001             10.21986903      9.1694292799999992
   720   1      30.640453390000001              3.32886068      9.1902481700000003
   721   1      4.4091507300000004      9.3620931699999996      8.5093173800000006
   722   1      10.448211669999999      24.401834390000001      9.1634645799999994
   723   1      8.2037846000000005      9.2300154899999995      8.5421174200000003
   724   1              6.26948463             10.52246416      9.1095320700000002
   725   1             10.22023083      5.8448678599999999      8.2872277499999996
   726   1      16.328587639999999      9.1992722600000008      8.2393414800000002
   727   1      16.239106100000001      23.229134899999998      8.1257557200000008
   728   1      26.326506630000001      12.465172709999999      8.4841324999999994
   729   1      8.2786486400000001             13.83080958      8.9545467399999996
   730   1             12.17903935      4.4608750400000003      7.6996472499999999
   731   1             14.06872252      5.5987962800000002      8.3352045700000001
   732   1      18.431037379999999      10.840441970000001      9.0410481499999999
   733   1      18.390646060000002      17.420246219999999      9.0072369499999994
   734   1             30.56586716      24.957954919999999      9.2638077800000005
   735   1      24.226623249999999      2.1866605200000002      8.2457538800000005
   736   1      8.2617656499999992      16.310572130000001      8.4845091200000002
   737   1             30.53637144              20.0915122      8.1747582699999999
   738   1      24.914922059999999      9.8023621399999996      8.7156435400000003
   739   1             13.94534732             12.74602009      8.3492890499999994
   740   1      26.086993289999999      5.9402624800000003      8.2363522299999996
   741   1      24.501755289999998             14.23056396      9.1640629899999997
   742   1             24.12013043      4.6871478700000004      9.6174154299999994
   743   1      18.507403310000001      8.0119387300000007      9.7064068900000002
   744   1      30.629668880000001             12.87961247      8.3119026799999993
   745   1      28.231931899999999      16.420934209999999      7.9465996299999997
   746   1      6.2736516900000003      12.738801179999999      8.6492606700000003
   747   1      10.359494140000001      17.524132049999999      9.2980769599999995
   748   1      8.3256737399999992      21.289316150000001      9.0395071199999997
   749   1             20.18751172             14.07733286      9.1917352300000008
   750   1      26.282388560000001             17.60409314      9.2353418999999999
   751   1      28.309620030000001             21.35981512      9.2144492200000006
   752   1      6.1746590899999996              14.9849497      10.009840560000001
   753   1      5.9940959200000004      19.954735759999998      8.5328591899999999
   754   1      8.0944852399999991      28.004508659999999      8.9802124699999997
   755   1      5.9451547299999996      5.7800280500000003      8.1992490900000004
   756   1             10.26974424      27.038825889999998      8.1170121000000002
   757   1     0.27330204000000002              0.02510182      9.0303214700000005
   758   1      26.373722879999999             26.92943314      8.3771764999999991
   759   1      28.273011610000001             14.03952655               8.7837315
   760   1      28.597699739999999      23.575719800000002      8.2641982699999996
   761   1      18.145141930000001      24.409600910000002      8.7942976500000007
   762   1      22.548055640000001             10.45591336      9.0200534500000007
   763   1      10.123823890000001      3.2768116200000001      9.0275686700000008
   764   1      12.123059639999999      2.0894774300000001      8.4517894299999998
   765   1      18.344523209999998              3.62382245      9.1296551000000008
   766   1      22.295908529999998             24.87168183      9.1409352800000008
   767   1              30.3280903      17.543486300000001      8.8260138599999998
   768   1      30.502335890000001      27.148889799999999      8.3449248699999998
   769   2             31.89897178             26.56577806      9.6468424200000005
   770   2              0.10552505      25.051248990000001      9.5276599599999994
