N2-dn2-coord-10bar/300K/snapshots/frame-50016/run-000/../data.lammps (written by ASE) 

770 	 atoms 
2  atom types
0.0      32.470343392086264  xlo xhi
0.0      28.120142247150884  ylo yhi
0.0      31.213473999158239  zlo zhi


Atoms 

     1   1      2.0293964600000001      1.1716090800000001    0.023552650000000001
     2   1      6.0880008999999999              1.17168918              0.02556874
     3   1      10.146952280000001              1.17170328    0.025416459999999998
     4   1      14.205754900000001      1.1716496700000001              0.02501565
     5   1             18.26456816              1.17166478              0.02504435
     6   1             22.32338141      1.1716496700000001              0.02501565
     7   1      26.382184030000001              1.17170328    0.025416459999999998
     8   1      30.441135410000001              1.17168918              0.02556874
     9   1  9.1780000000000006e-05      4.6866847900000002    0.025581599999999999
    10   1      4.0587011400000002      4.6866847900000002    0.025581599999999999
    11   1      8.1174961000000003      4.6866290399999997    0.025584639999999999
    12   1             12.17638011      4.6866852999999997              0.02491202
    13   1             16.23517979      4.6866942700000003    0.025006210000000001
    14   1      20.293956519999998      4.6866942700000003    0.025006210000000001
    15   1      24.352756209999999      4.6866852999999997              0.02491202
    16   1      28.411640219999999      4.6866290399999997    0.025584639999999999
    17   1      2.0293964600000001      8.2016395800000002    0.026613040000000001
    18   1      6.0881071599999999      8.2016314300000008              0.02543782
    19   1             10.14701835               8.2017045    0.025156850000000001
    20   1      14.205766049999999      8.2017080900000003    0.024990459999999999
    21   1             18.26456816      8.2017077599999997    0.025091249999999999
    22   1      22.323370260000001      8.2017080900000003    0.024990459999999999
    23   1      26.382117969999999               8.2017045    0.025156850000000001
    24   1      30.441029149999999      8.2016314300000008              0.02543782
    25   1  9.2789999999999998e-05             11.71671873    0.025573410000000001
    26   1              4.05870014             11.71671873    0.025573410000000001
    27   1      8.1176017700000003             11.71668698              0.02497914
    28   1             12.17637068             11.71673069    0.025001590000000001
    29   1      16.235177310000001      11.716730249999999    0.025074039999999999
    30   1      20.293959009999998      11.716730249999999    0.025074039999999999
    31   1      24.352765640000001             11.71673069    0.025001590000000001
    32   1      28.411534549999999             11.71668698              0.02497914
    33   1      2.0293964600000001             15.23167155              0.02525285
    34   1      6.0881728300000004      15.231678799999999    0.025062859999999999
    35   1             10.14698486      15.231762639999999               0.0250786
    36   1             14.20578841             15.23176782    0.025201990000000001
    37   1             18.26456816              15.2317707    0.025149979999999999
    38   1      22.323347900000002             15.23176782    0.025201990000000001
    39   1      26.382151459999999      15.231762639999999               0.0250786
    40   1      30.440963480000001      15.231678799999999    0.025062859999999999
    41   1      32.470327990000001      18.746748629999999    0.024951939999999999
    42   1      4.0588083299999997      18.746748629999999    0.024951939999999999
    43   1      8.1175770200000006      18.746803499999999    0.025222040000000001
    44   1             12.17637459      18.746799750000001    0.025428470000000002
    45   1      16.235159400000001      18.746805200000001    0.025487360000000001
    46   1      20.293976919999999      18.746805200000001    0.025487360000000001
    47   1      24.352761730000001      18.746799750000001    0.025428470000000002
    48   1             28.41155929      18.746803499999999    0.025222040000000001
    49   1      2.0293964600000001      22.261939099999999    0.025844880000000001
    50   1      6.0881419299999999      22.261841799999999    0.025489439999999999
    51   1             10.14692954             22.26176895              0.02551757
    52   1             14.20573559      22.261804690000002    0.025639160000000001
    53   1             18.26456816             22.26178625    0.025640119999999999
    54   1      22.323400729999999      22.261804690000002    0.025639160000000001
    55   1      26.382206780000001             22.26176895              0.02551757
    56   1             30.44099439      22.261841799999999    0.025489439999999999
    57   1  5.6450000000000003e-05      25.776936450000001              0.02613327
    58   1      4.0587364700000004      25.776936450000001              0.02613327
    59   1      8.1175325399999991              25.7767713    0.024734180000000001
    60   1      12.176376469999999      25.776831090000002              0.02545323
    61   1      16.235145939999999      25.776775220000001    0.025273360000000002
    62   1             20.29399038      25.776775220000001    0.025273360000000002
    63   1      24.352759840000001      25.776831090000002              0.02545323
    64   1      28.411603769999999              25.7767713    0.024734180000000001
    65   1  0.00024266000000000001              2.34304215     0.80166565000000001
    66   1      4.0585502699999996              2.34304215     0.80166565000000001
    67   1      8.1157394600000003              2.34454954     0.80169402000000001
    68   1             12.17601256      2.3433829099999999     0.80116898000000003
    69   1      16.235258170000002      2.3433209100000001     0.80090046999999998
    70   1      20.293878150000001      2.3433209100000001     0.80090046999999998
    71   1      24.353123750000002      2.3433829099999999     0.80116898000000003
    72   1      28.413396859999999              2.34454954     0.80169402000000001
    73   1      2.0293964600000001      5.8582218700000004     0.80119762000000005
    74   1      6.0870566899999998      5.8583336700000004              0.80194851
    75   1             10.14649655              5.85853131     0.80121584000000001
    76   1             14.20597894      5.8582938599999999     0.80086840999999998
    77   1             18.26456816      5.8583798500000004               0.8010794
    78   1      22.323157380000001      5.8582938599999999     0.80086840999999998
    79   1             26.38263976              5.85853131     0.80121584000000001
    80   1      30.442079629999999      5.8583336700000004              0.80194851
    81   1  0.00019438999999999999      9.3717771800000005     0.80082061000000004
    82   1      4.0585985400000002      9.3717771800000005     0.80082061000000004
    83   1      8.1175070500000004      9.3725002699999997     0.80149060999999999
    84   1      12.176590020000001      9.3733583399999993     0.80088261999999999
    85   1             16.23512199      9.3733789200000004              0.80106506
    86   1             20.29401433      9.3733789200000004              0.80106506
    87   1      24.352546289999999      9.3733583399999993     0.80088261999999999
    88   1      28.411629269999999      9.3725002699999997     0.80149060999999999
    89   1      2.0293964600000001             12.88692854     0.80220621000000003
    90   1      6.0883212999999996             12.88743848     0.80138414999999996
    91   1      10.147128609999999             12.88859852     0.80085256000000005
    92   1             14.20571782      12.888558189999999     0.80113791000000001
    93   1             18.26456816      12.888409899999999     0.80109381000000002
    94   1      22.323418490000002      12.888558189999999     0.80113791000000001
    95   1             26.38200771             12.88859852     0.80085256000000005
    96   1      30.440815019999999             12.88743848     0.80138414999999996
    97   1              0.00012365      16.403222639999999     0.80145666999999998
    98   1      4.0586692700000002      16.403222639999999     0.80145666999999998
    99   1      8.1174337899999998      16.403825260000001     0.80097196999999998
   100   1              12.1761021             16.40390721     0.80133072000000005
   101   1             16.23503496      16.403861750000001     0.80140014999999998
   102   1      20.294101359999999      16.403861750000001     0.80140014999999998
   103   1      24.353034220000001             16.40390721     0.80133072000000005
   104   1      28.411702529999999      16.403825260000001     0.80097196999999998
   105   1      2.0293964600000001      19.919205120000001     0.80066369999999998
   106   1              6.08752564             19.91894023     0.80122479000000002
   107   1      10.146078839999999             19.91919038     0.80159137999999996
   108   1      14.204993419999999              19.9192584     0.80178742000000003
   109   1             18.26456816      19.919377350000001     0.80194975999999996
   110   1      22.324142899999998              19.9192584     0.80178742000000003
   111   1      26.383057470000001             19.91919038     0.80159137999999996
   112   1      30.441610669999999             19.91894023     0.80122479000000002
   113   1              0.00142012      23.434536609999999     0.80178442000000005
   114   1      4.0573728100000004      23.434536609999999     0.80178442000000005
   115   1      8.1165862000000004      23.433936769999999     0.80182306000000003
   116   1             12.17555218      23.433996919999998     0.80156656000000004
   117   1             16.23465491      23.434040110000002     0.80170828999999999
   118   1      20.294481409999999      23.434040110000002     0.80170828999999999
   119   1      24.353584130000002      23.433996919999998     0.80156656000000004
   120   1      28.412550110000002      23.433936769999999     0.80182306000000003
   121   1      2.0293964600000001      26.949875330000001              0.80297246
   122   1      6.0858208300000003      26.950066320000001              0.80215291
   123   1             10.14598146      26.949241430000001     0.80165810000000004
   124   1             14.20520604      26.948673230000001     0.80131923999999999
   125   1             18.26456816             26.94858318     0.80108193999999999
   126   1      22.323930279999999      26.948673230000001     0.80131923999999999
   127   1      26.383154860000001      26.949241430000001     0.80165810000000004
   128   1             30.44331549      26.950066320000001              0.80215291
   129   1             -0.02683516             28.03761441      1.4481467299999999
   130   1      4.0922619899999999    0.032282449999999997      1.4642321199999999
   131   1      8.1086838300000004      28.180899069999999      1.3890491300000001
   132   1      12.211504189999999      28.053189530000001              1.47177235
   133   1      16.188725349999999   -0.084158930000000007      1.5500464700000001
   134   1      20.249958299999999             28.11061325               1.4960163
   135   1      24.411558100000001             -0.12905674              1.51446166
   136   1             28.34728278   -0.024621460000000001      1.5087078199999999
   137   1               2.0556098      3.4205154900000001      1.3558774600000001
   138   1      6.0076450299999999      3.4431715500000002              1.42840832
   139   1             10.11259482      3.5010313900000001              1.44399911
   140   1             14.21568212              3.48846897              1.40105203
   141   1             18.20131499      3.4808116299999998      1.3306377599999999
   142   1      22.288564650000001      3.5828762900000002              1.44359284
   143   1             26.43247182      3.5011510600000002      1.6337466199999999
   144   1             30.37684088      3.5253453600000002              1.54787604
   145   1      32.569375860000001      7.0956092000000002              1.49011425
   146   1      4.0743447100000001      6.9340933299999996      1.5069615999999999
   147   1      8.1681976699999996      7.0249859900000002              1.45920107
   148   1             12.16463862      7.0734095300000002              1.48359492
   149   1      16.278475440000001      7.0088241699999996      1.4379429100000001
   150   1      20.324954380000001      6.9960382799999996      1.3646269799999999
   151   1      24.339914690000001      7.0009297799999999              1.48180896
   152   1      28.358857029999999      7.0864263799999998              1.38692192
   153   1              2.06202328      10.553692249999999      1.3752592699999999
   154   1      6.0097618600000002             10.61955554              1.34892419
   155   1             10.17057488             10.57922846              1.43695573
   156   1      14.287432559999999             10.62281791      1.4948291600000001
   157   1      18.305368439999999             10.55866252              1.37619976
   158   1      22.282038740000001             10.44775499              1.27035086
   159   1      26.420789410000001             10.61467167      1.6299596599999999
   160   1      30.415709490000001             10.52440814      1.3215254000000001
   161   1    0.092311279999999996              14.0720613      1.5309154599999999
   162   1      4.0671319600000002             14.12195133      1.5000723899999999
   163   1      8.1087764399999998             14.08452348              1.44808694
   164   1      12.160789189999999      14.047360640000001      1.4634545800000001
   165   1      16.206121540000002      14.018494130000001      1.3165817500000001
   166   1      20.292104200000001              14.1160882      1.5398443100000001
   167   1      24.336420220000001      14.166712260000001      1.3642374100000001
   168   1      28.409798970000001             14.13578298      1.4337875200000001
   169   1              1.90125528      17.526935649999999              1.45339185
   170   1      6.0217942000000004             17.61833493              1.36193553
   171   1      10.075049760000001      17.618357899999999              1.51374772
   172   1             14.21115541      17.600849589999999              1.28576932
   173   1             18.22786923      17.507404080000001              1.43444511
   174   1             22.30125181             17.56041329      1.5243585100000001
   175   1      26.425455830000001             17.51777938              1.35489478
   176   1      30.499373550000001      17.591918450000001      1.4707885999999999
   177   1      32.556601209999997      21.078166769999999      1.5333654299999999
   178   1      3.9671777000000001      21.124739689999998      1.4569209400000001
   179   1      8.1580464199999998      21.095027229999999              1.47459385
   180   1             12.23099017      21.049749909999999      1.5311954699999999
   181   1      16.181507270000001      21.003208369999999      1.4220540500000001
   182   1      20.207494919999998      20.951676410000001      1.4573087300000001
   183   1      24.358158079999999      21.131960599999999              1.32179533
   184   1      28.451178970000001             21.05795578      1.4369452700000001
   185   1              1.95576576             24.67500317      1.5304780600000001
   186   1      6.0521943800000004              24.6309225              1.48565397
   187   1             10.07051309             24.50303972              1.43466447
   188   1      14.167807359999999      24.631242619999998              1.34452445
   189   1      18.234983069999998      24.591892049999998      1.4357381499999999
   190   1      22.437007810000001             24.57044505              1.43148616
   191   1      26.419724339999998      24.632646770000001              1.54660815
   192   1             30.48699435      24.648092250000001               1.5388084
   193   1      2.0383517499999999              1.22961601      2.4042640199999998
   194   1              6.11130233      1.1818953999999999      2.4124288200000001
   195   1             10.11217147      1.2185375899999999      2.4106083200000001
   196   1      14.205967660000001              1.00155774      2.5413080199999998
   197   1             18.18041075      1.1449715600000001      2.4336247499999999
   198   1      22.423801149999999      1.1039747600000001      2.3429911899999998
   199   1      26.403959149999999      1.1411789699999999      2.4947686600000001
   200   1             30.50368924      1.2155825099999999      2.4085437000000001
   201   1   -0.011760110000000001      4.6602689899999996      2.4495059000000001
   202   1      4.0544636599999997      4.7922979799999998      2.3908689600000002
   203   1      8.0419787199999995              4.69506376              2.40184848
   204   1      12.201560629999999      4.6449965500000001              2.32560974
   205   1      16.164788649999998      4.6789598999999997      2.3770864399999998
   206   1             20.11763994              4.70851869              2.43582732
   207   1      24.305006280000001      4.7733922900000003              2.42094757
   208   1      28.494929899999999      4.6882590400000002              2.26477854
   209   1               1.9739301      8.2323423499999997      2.4846208600000002
   210   1              6.12388523      8.2906223299999997      2.3440871099999998
   211   1             10.20403204      8.1258325899999999      2.5340143300000002
   212   1             14.35031493      8.1998447900000002              2.37726032
   213   1      18.363326369999999      8.1404302000000008      2.4044378399999999
   214   1      22.320818320000001      8.1981901300000004              2.46557789
   215   1      26.342569730000001      8.3352410999999993      2.4442534299999998
   216   1      30.445456060000001      8.2601738499999993              2.47011687
   217   1   -0.087963860000000005      11.783845189999999      2.3676096200000001
   218   1      3.9494569199999998             11.86365457      2.3499503900000001
   219   1      8.0461121099999993             11.67725948      2.4131870900000001
   220   1             12.08449124             11.78805103      2.4472242999999998
   221   1      16.339129010000001      11.721114480000001              2.34117687
   222   1      20.349073239999999              11.7263354              2.43244098
   223   1             24.37908711      11.810508690000001      2.4189060599999999
   224   1             28.43177262             11.68229292              2.45250528
   225   1      2.0496795900000002      15.227150229999999              2.45519358
   226   1      5.9721530999999999      15.171652290000001      2.4265429200000002
   227   1             10.08322931      15.309008710000001              2.40957687
   228   1      14.178046480000001             15.27644963      2.4535274199999999
   229   1      18.178887540000002             15.12955897               2.3235804
   230   1      22.282660379999999             15.23025176      2.4094292799999999
   231   1             26.42898559             15.23472752      2.4155304800000001
   232   1      30.400570829999999             15.23840107      2.4010749900000001
   233   1             -0.02751588      18.803342709999999      2.4270403100000002
   234   1      4.0481243200000003              18.7628415      2.4929741000000001
   235   1      8.0761670999999993      18.791033089999999              2.48895182
   236   1             12.17280083      18.756403949999999              2.34425807
   237   1      16.167927720000002      18.692834619999999      2.3913623500000001
   238   1      20.343960620000001      18.718057120000001      2.5018828100000001
   239   1      24.388418560000002      18.840418230000001      2.3336739400000002
   240   1             28.40796637      18.638339940000002      2.4046880000000002
   241   1      2.0588493899999998      22.338103589999999      2.4630487699999999
   242   1      6.0850352900000004      22.166069780000001      2.4143793699999998
   243   1      10.195427459999999             22.13609216      2.4246092699999999
   244   1      14.259669560000001             22.30705081      2.4400937300000001
   245   1      18.241878499999999      22.140124459999999              2.36190576
   246   1      22.216316930000001      22.217002099999998      2.3902150299999998
   247   1             26.38893942             22.14767402      2.4211440999999998
   248   1             30.44478681      22.186126869999999      2.3762535699999998
   249   1      32.424981500000001      25.794221700000001      2.5089561300000001
   250   1      4.1189362799999998              25.7829111      2.4383008899999998
   251   1      8.0664543999999996      25.809939270000001      2.4100630600000001
   252   1             12.12968497      25.666331320000001      2.4939239999999998
   253   1             16.25888608             25.67203593      2.5140354600000001
   254   1             20.26232929             25.74741379      2.4627756000000001
   255   1      24.372029439999999      25.764535649999999      2.4944678100000002
   256   1      28.405909040000001              25.6890429      2.3456260900000001
   257   1      32.523786309999998      2.3487626000000001               3.2320989
   258   1      3.9722734000000002      2.2387597000000001      3.2126876499999999
   259   1      8.0449601600000005              2.42347906      3.2380585800000001
   260   1             12.28066025      2.2658860999999999      3.2682661300000002
   261   1             16.16699333      2.3539314600000001      3.2729109799999998
   262   1             20.23686498               2.2488481      3.2585491700000002
   263   1      24.360733450000001              2.33479474      3.2196769299999999
   264   1      28.416627739999999      2.2932339499999999      3.3350106400000001
   265   1              2.12892606              5.91148469      3.2417811099999998
   266   1      6.0856451700000003      5.8604416099999996      3.2063223500000002
   267   1             10.10497445      5.8133647699999997      3.2959959799999998
   268   1      14.211684030000001      5.8289032299999999              3.24382606
   269   1             18.06379407      5.7980143499999999      3.2800642600000001
   270   1             22.34686275      5.8505328499999996      3.2762667400000001
   271   1             26.32936772      5.7619342600000003      3.2127712499999999
   272   1      30.434601690000001      5.8418285900000004      3.2298755699999999
   273   1   -0.071058730000000001      9.4079626100000002      3.3675896399999998
   274   1      4.0158895399999999      9.5023083199999991      3.1597083600000002
   275   1      8.1164395099999993      9.4489503199999998      3.3194493199999999
   276   1      12.131750159999999      9.4073472900000006      3.2701978500000002
   277   1      16.239577870000002      9.4425550600000001      3.2026559400000001
   278   1      20.342506279999998      9.4000638399999996      3.1688588200000001
   279   1      24.338239919999999      9.3789955700000007      3.2672606599999998
   280   1      28.437922759999999      9.4327518700000006      3.3241994300000002
   281   1      1.9407063200000001             12.89700238      3.2317773299999999
   282   1              6.02207005             12.94930709      3.1925437900000002
   283   1      10.151450540000001      12.996509319999999      3.2396799299999999
   284   1             14.16219362             12.86371645              3.28368853
   285   1      18.332261859999999             12.83626022              3.20761881
   286   1             22.27837611             12.92826805              3.26762072
   287   1      26.436063560000001             12.96422501              3.22258427
   288   1      30.427020590000001             12.90835511      3.3474887899999999
   289   1             -0.00054902      16.405113719999999              3.24575331
   290   1              3.97029823      16.436698570000001      3.1703991899999999
   291   1      7.9903106900000003      16.454542140000001      3.1688622199999998
   292   1      12.258094079999999             16.40919573      3.2895066900000001
   293   1      16.168006510000001      16.461713580000001      3.2775935500000002
   294   1             20.30440892             16.35919895      3.2671203200000001
   295   1      24.410846119999999               16.473775      3.2152509399999998
   296   1             28.48416636      16.313250780000001      3.2281657500000001
   297   1              2.05258838      19.959645600000002      3.2539105500000001
   298   1      6.1348967200000004      19.930548959999999      3.2064271199999999
   299   1      9.9794048199999992      19.934158539999999              3.27609218
   300   1             14.20830956      19.896344110000001      3.2573178899999999
   301   1      18.137174810000001             19.82919163              3.36872382
   302   1             22.38408763      19.929132500000001      3.1882218500000001
   303   1      26.385691640000001             19.90751466      3.2094663099999998
   304   1             30.48462739      19.915638220000002      3.2076055700000001
   305   1    -0.11287837000000001      23.476983740000001      3.2010444300000001
   306   1      4.1682752199999999      23.425499569999999      3.2517606699999999
   307   1      8.1634191400000002      23.502111939999999              3.22335598
   308   1             12.05487688      23.350010340000001      3.2701105799999999
   309   1             16.20795438             23.39930245              3.25518398
   310   1             20.25208731      23.465302950000002               3.2635964
   311   1      24.402597109999999      23.343178429999998      3.2211898200000002
   312   1             28.42065668      23.255975629999998              3.17983532
   313   1      2.0919324800000001                26.98734              3.25995086
   314   1      6.0862153599999997             26.85053971      3.2190022300000001
   315   1             10.04140379             26.87525016      3.2830609700000002
   316   1             14.11419673      26.862463730000002      3.2792354399999999
   317   1      18.242686970000001      26.930803529999999      3.2421447900000002
   318   1      22.275690999999998      26.877300600000002              3.26397636
   319   1             26.30692153             26.84045227      3.2476614700000002
   320   1             30.34283593      26.931169270000002              3.23486852
   321   1      32.459962109999999              0.02568933      4.0061397599999999
   322   1      4.0804535599999996      28.167271240000002      4.0362238599999998
   323   1      7.9715827499999996      28.140745509999999      4.0746693199999999
   324   1             12.04632164  -0.0045186999999999996      4.0866619899999996
   325   1      16.195924550000001             -0.01180023      4.1023643400000003
   326   1             20.26906224             28.05808296      3.9639282800000002
   327   1             24.34142095      28.028181870000001      4.0015443700000004
   328   1      28.376684000000001      27.943785170000002      4.1364824200000001
   329   1      2.0276714500000002      3.7064871500000001      3.9272813700000002
   330   1      5.9788315499999998              3.54842171      3.9327424999999998
   331   1      10.169478229999999      3.4335211399999999      3.9591599899999999
   332   1             14.17295786      3.4832569200000001      4.1113432899999998
   333   1      18.252325419999998      3.4456829199999999      3.9358837800000002
   334   1             22.30491756      3.5074708000000001      3.9680490499999999
   335   1             26.29797323      3.4224160700000001      4.0762246400000004
   336   1      30.451058750000001      3.5539704200000002      4.1907133200000004
   337   1   -0.022522009999999999      6.9701267900000001      3.9749149699999999
   338   1              4.04736926      7.1729023300000003      4.2428764699999997
   339   1      8.1575504500000005      7.0336292900000004      3.9516412000000001
   340   1      12.031277899999999      6.9740325800000003      4.1656723299999996
   341   1      16.205085709999999      7.1139924800000003      4.0589301000000004
   342   1             20.29225872      7.0904157999999997      4.0287399099999996
   343   1      24.281698939999998      6.8511584599999997      4.0298103100000002
   344   1             28.36610344      7.0206246099999996      4.1037222199999999
   345   1      1.9860518199999999              10.5710549      4.0198178100000002
   346   1               5.9774338               10.627257      3.9850801200000001
   347   1      10.060879180000001             10.61467938      4.0076083000000002
   348   1              14.2127417      10.597862660000001      4.0977221699999999
   349   1      18.363266280000001      10.444895860000001              3.90547011
   350   1      22.204613200000001      10.568031339999999      4.1344877499999999
   351   1      26.383980090000001      10.606452429999999      4.0765501500000001
   352   1      30.498537169999999      10.653062050000001      4.0609299600000002
   353   1      32.492022980000002             14.15670029      4.0934705500000002
   354   1      4.0031022299999997      14.037430779999999      4.0697706800000004
   355   1      8.0337492099999999             14.07445212      3.9031313399999998
   356   1             12.17574417             14.14540199      3.9988406699999999
   357   1      16.017057399999999      14.181944339999999      3.9625470300000001
   358   1      20.300362939999999             14.00606045      4.0570031899999996
   359   1      24.433194220000001      14.106172089999999      4.1121569600000001
   360   1      28.429148690000002      14.083819999999999      4.0088644200000001
   361   1      2.0100131000000001      17.608329210000001      4.1162728299999998
   362   1              6.03925453      17.513158489999999              3.90218124
   363   1      10.181177809999999      17.598177710000002      3.9595124099999999
   364   1             14.17624816      17.558549379999999      4.0504306000000003
   365   1             18.23994004      17.580177150000001      4.0360900800000001
   366   1      22.340678830000002      17.585228059999999      4.1211029100000003
   367   1      26.490921799999999              17.5462925      4.1299237599999996
   368   1      30.483355799999998             17.62201301      4.0464144500000003
   369   1             -0.03423354      21.082827600000002      4.0489974899999996
   370   1      4.0722928600000001      21.069861379999999      4.0298893600000003
   371   1      8.0820560199999996             21.08169844      4.0709605900000003
   372   1             12.10651066      21.011621519999998      3.9489624299999999
   373   1             16.20383636      21.163471730000001              4.00787782
   374   1      20.291315869999998      20.977699560000001      4.0105006100000002
   375   1      24.239498279999999      21.127327869999998      3.9886131599999999
   376   1      28.390065440000001      21.018114189999999              4.01970122
   377   1      2.0379692299999999             24.65097029      4.0052913600000002
   378   1      6.2000791599999996      24.583555570000001      4.0694856599999998
   379   1             10.13887572      24.545111940000002      4.0011040199999997
   380   1      14.110377659999999             24.62268645      4.0950651499999999
   381   1             18.31873581             24.51371593      4.1989565200000003
   382   1      22.435238269999999             24.59596153      4.0341627000000004
   383   1             26.40737944      24.613908670000001      4.1230105000000004
   384   1      30.445123949999999      24.580908829999998              4.01630968
   385   1      2.0492682200000001      1.2728321300000001              4.84781087
   386   1      6.0257012899999998              1.19126179      4.8594455200000004
   387   1             10.13305712      1.1965122800000001              4.95171663
   388   1             14.19459202              1.09920211      4.9639288300000004
   389   1      18.201335960000002      1.1537495600000001      4.9491689900000004
   390   1             22.24908027      1.0070640500000001              4.85459262
   391   1             26.31321312              1.15456567              5.01739376
   392   1      30.466346229999999              1.14543967      4.9341996000000004
   393   1      32.500100230000001      4.6498268300000003      4.9190384500000004
   394   1      4.0234578399999998      4.7799954700000002      4.9466307399999998
   395   1      8.1450230799999996      4.6920985999999996      4.8345755500000003
   396   1      12.099037210000001      4.7031658099999998      4.9603109500000002
   397   1      16.154491180000001      4.6738157500000002      4.9085329199999999
   398   1             20.23894632      4.7286382299999996      4.8325237200000002
   399   1      24.387535020000001      4.6213855800000001      4.9014087699999997
   400   1      28.511305790000002      4.6492685700000003      4.8098786699999998
   401   1                2.023158      8.2548747799999997      4.9221576300000001
   402   1              6.17100823      8.2894379899999997      4.9758257600000002
   403   1      9.9702800000000007      8.2330850099999999      4.9625885199999997
   404   1             14.23141695      8.2280101800000001      5.0378393099999998
   405   1             18.32352405      8.1593744299999997      4.9891589999999999
   406   1      22.279048459999998      8.1681512099999996      4.8964132999999999
   407   1             26.37574803      8.1644354999999997      4.9751285100000002
   408   1      30.507293879999999      8.1511294999999997              4.90156524
   409   1   -0.080329689999999995             11.70609522      4.8371495299999996
   410   1      4.0898995100000004               11.675492      4.9263923600000004
   411   1      8.0167709600000006             11.78120565      4.8216879400000003
   412   1             12.17506874             11.70310574      4.9153970600000001
   413   1      16.299958010000001      11.707040190000001      4.8386561500000003
   414   1      20.235740750000001      11.582378869999999      5.0514011600000002
   415   1      24.241353520000001      11.805984069999999      4.8375987199999999
   416   1             28.40730958             11.81136045      5.0574010500000002
   417   1      1.9322699800000001      15.306427879999999      4.9851544499999996
   418   1      6.0018521399999996             15.16641705      4.9781392000000002
   419   1             10.08898973             15.19810118      4.9453283099999998
   420   1      14.134056360000001             15.25676378      4.9599143000000003
   421   1      18.288760589999999             15.20277347      4.9728095400000001
   422   1             22.22375121              15.3047904      5.0085378599999997
   423   1      26.431801539999999             15.23983973      4.9451685899999998
   424   1      30.439848600000001      15.402024040000001      4.8554825599999996
   425   1      32.384512059999999             18.72862172      4.9275187799999998
   426   1      4.0285599599999999      18.791867910000001      4.9250159299999998
   427   1      8.1153641299999997      18.680889440000001      4.9531444000000002
   428   1             12.18092762      18.631418889999999              4.98751414
   429   1      16.159715299999998      18.787410600000001              4.97832031
   430   1      20.274937269999999      18.706750469999999      4.9210778700000004
   431   1             24.32137247      18.764000979999999      4.8512166499999996
   432   1      28.376060729999999             18.73422609      4.8649129899999997
   433   1      2.0587269899999998      22.300518480000001      4.8300705800000001
   434   1      6.0684078599999998      22.261778199999998      4.9595655900000004
   435   1             10.17658952             22.24055894              4.92496255
   436   1             14.13736862      22.226925390000002      4.9972356700000002
   437   1              18.1963486      22.261362340000002      4.8959237399999997
   438   1      22.330357840000001      22.291103929999998      4.9385569599999997
   439   1      26.408691709999999      22.240950659999999      4.9693712999999997
   440   1             30.39842157             22.21412042      4.8446273399999997
   441   1             -0.01194188             25.80474705      4.8827290799999998
   442   1      4.0477068000000003      25.787190020000001      4.8449348800000003
   443   1      8.1293184699999994              25.8101451      4.9566329900000001
   444   1             12.10954224      25.770985769999999      4.9782524600000002
   445   1             16.33427841             25.74131547      5.0083539500000001
   446   1             20.42764215             25.76504486      4.9053522300000001
   447   1      24.404045579999998      25.742667969999999      4.9146009900000003
   448   1      28.445811989999999             25.69846639      4.8799632199999996
   449   1      32.399321559999997      2.4175469500000002      5.8018764899999997
   450   1      3.9408126499999998      2.3234824000000001              5.68750293
   451   1      8.1287130800000007      2.4514115099999998      5.6453838100000002
   452   1             12.18433842              2.40846896      5.8144935999999996
   453   1      16.296155150000001              2.27410713      5.8718358300000002
   454   1      20.312952689999999      2.3102797700000002      5.7184120900000002
   455   1      24.252210819999998      2.3330861700000001      5.5637291299999996
   456   1             28.47528398      2.4962309199999999      5.9272552899999997
   457   1      2.0616451100000002      5.9656579399999998      5.7308669600000002
   458   1      6.1289577800000004      5.9659101899999998      5.6905198700000001
   459   1      10.180346439999999      5.9426649600000001      5.7582599099999996
   460   1      14.221721410000001      5.7379645899999998      5.7537248999999999
   461   1      18.257143410000001      5.8137540200000002      5.7907981599999996
   462   1             22.29620074      5.9303373600000002      5.7547640700000002
   463   1             26.45593152      5.7275260100000001      5.6488849400000003
   464   1              30.4087061              5.85920343      5.8270948499999999
   465   1      32.444535780000002      9.3213395899999991      5.7792060300000001
   466   1      4.0479940399999998      9.3990467800000008      5.8576572000000002
   467   1      8.0916101200000004      9.4109106600000008      5.8328349599999996
   468   1             12.05617818      9.3482196200000001      5.7352564099999999
   469   1      16.290294320000001      9.3195665999999999      5.6547960899999996
   470   1             20.31759237      9.2825772700000009              5.65884593
   471   1      24.247460589999999      9.4414909399999996      5.6774664399999999
   472   1             28.39855296      9.4147099900000004      5.7481513599999996
   473   1              1.95797881      12.831270030000001      5.7245383399999996
   474   1      6.1044075299999996      12.909968470000001      5.7257124199999998
   475   1               10.026068             12.81960458      5.7230415299999997
   476   1             14.28783982      12.803555940000001      5.6809013100000003
   477   1      18.295155399999999      12.922494609999999      5.8377146399999997
   478   1      22.241141710000001             12.95502216      5.7608226499999997
   479   1             26.22740512             12.88427589      5.7654874300000003
   480   1      30.470814650000001             12.90848102      5.8191765599999998
   481   1      32.403391800000001              16.5091626      5.7570957800000002
   482   1      4.0207033299999999      16.476994399999999      5.7573241599999996
   483   1      8.0299919299999996             16.37690259      5.6709024599999998
   484   1             12.15180782             16.40821446      5.6736710099999996
   485   1             16.27434547      16.427524689999998      5.6820164999999996
   486   1      20.185551799999999      16.393644779999999      5.7902302099999998
   487   1              24.4189683      16.481165969999999      5.8445206599999997
   488   1      28.455561809999999      16.343369979999999      5.7929273999999999
   489   1      1.9338751700000001             19.91685713      5.7711990699999998
   490   1              5.93968498      19.999313780000001      5.7071018200000001
   491   1             10.16486321             19.93671492      5.7911798299999999
   492   1             14.06348431      19.993780999999998      5.7755292899999997
   493   1             18.17766555      19.964663160000001      5.8491541800000002
   494   1      22.329025949999998      19.937466279999999      5.7516589500000004
   495   1             26.31625506      19.902951439999999              5.70034829
   496   1      30.310105060000001             19.83876179              5.69444441
   497   1             -0.05884325      23.457478170000002      5.6806967500000001
   498   1      4.0436794300000001             23.45079428      5.6654257799999996
   499   1      8.1030616900000005      23.467390439999999      5.7736366200000004
   500   1             12.13580234      23.444415419999999      5.7877566700000003
   501   1             16.26267532             23.47263727      5.7093869899999996
   502   1      20.293956860000002             23.31914686      5.6943472000000002
   503   1      24.486263959999999             23.40188337              5.78471022
   504   1      28.452639179999998             23.25435615      5.6550759900000003
   505   1              1.95948875      27.038303299999999      5.7074737500000001
   506   1      6.0768162999999999      26.992823560000001      5.6985548499999998
   507   1             10.20121484      26.903219960000001      5.6297455999999997
   508   1             14.16271585             26.98312687      5.8785084300000001
   509   1      18.314453759999999      27.030351889999999      5.7957687299999998
   510   1      22.367089459999999      26.974017249999999      5.7156373199999999
   511   1      26.491177069999999             26.99720662              5.79861703
   512   1      30.367622870000002      26.883661570000001      5.7867975500000002
   513   1   -0.072840310000000005    0.054445739999999999      6.6342245599999998
   514   1      4.0068663899999999   -0.060664450000000002      6.5156972099999999
   515   1      8.0774954999999995             28.06914592      6.6165117799999997
   516   1      12.129091880000001      28.098347360000002      6.7229260000000002
   517   1      16.238227989999999   -0.088344729999999996      6.6694988999999998
   518   1             20.32058267      28.164169950000002      6.5196265100000002
   519   1             24.33335421      28.260087890000001               6.4998198
   520   1             28.54709171    0.074322869999999999      6.7025849400000004
   521   1      1.9833506700000001      3.5747418400000002              6.55731033
   522   1      5.9853561500000003      3.4563899400000002      6.5187849699999996
   523   1             10.15101836      3.6413308799999999      6.5197899000000001
   524   1      14.229368559999999      3.5086130199999999      6.6870137100000004
   525   1             18.41307831      3.4398302900000002      6.5602239999999998
   526   1      22.363305270000001      3.5838778100000002      6.4180038000000001
   527   1      26.247328150000001      3.5346144100000001              6.52525741
   528   1             30.48191087      3.5039428199999998      6.7625461400000004
   529   1    0.082258830000000005      7.0191780599999998      6.6082773599999998
   530   1      4.0960138300000004      6.9657387499999999      6.6331579899999999
   531   1      8.0511137999999995      7.1131109600000002      6.5495825500000002
   532   1      12.324933720000001      7.1458423099999999      6.6424442700000004
   533   1      16.264812729999999      7.0664446600000002      6.6592065900000001
   534   1             20.25224291      6.9409503199999998              6.51470006
   535   1             24.39987842      7.0274188300000002      6.3722763599999999
   536   1             28.35731852      7.0979193499999997      6.6388095299999996
   537   1      1.9281136400000001      10.642173100000001      6.6829561799999997
   538   1      6.0212993600000004             10.49915315      6.5326461699999996
   539   1      10.013576580000001      10.457603600000001              6.55401875
   540   1             14.25155979             10.61205496      6.5079417800000003
   541   1             18.27272039             10.49992758              6.48679732
   542   1             22.21687842      10.555157550000001      6.6370276800000001
   543   1      26.342527310000001              10.5325922      6.6586160899999998
   544   1      30.396588139999999             10.56120411      6.7124853199999999
   545   1      32.491989089999997      14.161458209999999      6.5945594700000001
   546   1      3.9032038899999999      14.156030550000001      6.4757704299999999
   547   1              8.08248955      14.112003339999999      6.5795363299999998
   548   1      12.162291140000001               13.959804      6.5403778499999996
   549   1      16.195861699999998             13.99564335      6.5488676899999998
   550   1      20.187899989999998              14.0214225      6.5903948799999998
   551   1      24.268004919999999             14.17539083      6.6481452299999999
   552   1      28.296635519999999             13.96892785      6.6219350500000003
   553   1              2.00411823      17.596199290000001      6.6146050199999999
   554   1      6.0117827400000001             17.70559274      6.5110716999999996
   555   1      10.162711890000001      17.544525579999998      6.4982939100000001
   556   1             14.12543696              17.5156019      6.5084193099999998
   557   1      18.332025560000002      17.637729700000001              6.58561101
   558   1      22.294574669999999      17.514593189999999      6.4872242099999999
   559   1             26.32587736             17.46405167      6.6335433000000004
   560   1      30.379433330000001             17.52506627      6.5425542200000004
   561   1      32.389002949999998      21.060321210000001      6.6468490899999999
   562   1      3.9083320100000001             21.20756124      6.6099563799999999
   563   1      8.0076682800000007      21.097609080000002      6.5008770800000004
   564   1      12.144232779999999      20.999745870000002      6.5498221299999999
   565   1             16.18452503             21.09296668      6.4297260300000003
   566   1             20.27167348      21.119785279999999      6.6041710199999999
   567   1             24.29155789             21.07347987              6.60457041
   568   1      28.328266070000002      20.977520850000001      6.4926120100000002
   569   1      2.0225813600000002      24.566454520000001      6.4368008100000003
   570   1      6.0921216100000004      24.570670759999999      6.6101825600000002
   571   1      10.167058669999999      24.519226410000002      6.5382419799999996
   572   1             14.16331332      24.609400300000001      6.6248120000000004
   573   1      18.156394410000001      24.642994810000001      6.6778706400000001
   574   1             22.29789607      24.620492609999999      6.5715476700000002
   575   1             26.49372687      24.626201460000001      6.4953492700000002
   576   1             30.53390662      24.579645530000001      6.6265056299999996
   577   1      2.0122687400000001      1.1144428200000001      7.2952810699999997
   578   1      5.9044329099999997              1.17242936      7.4715881199999998
   579   1             10.15329755              1.28024863              7.50239017
   580   1      14.236200309999999              1.13136996      7.6179141399999999
   581   1      18.350891369999999      1.1942163100000001      7.5577671999999998
   582   1      22.279747879999999              1.28345997      7.4759652799999996
   583   1      26.432899299999999              1.16017649              7.60397809
   584   1      30.537531479999998      1.1208366999999999      7.7498003200000003
   585   1      32.492221290000003      4.7021150599999997              7.52469593
   586   1      3.9542793700000001      4.6829583100000001      7.6245356199999996
   587   1      8.0373587999999998      4.5750238100000002      7.3153917899999996
   588   1      12.156158700000001      4.6962152599999998      7.5823373600000004
   589   1      16.293873090000002      4.6404689699999997      7.4644823000000002
   590   1      20.381851770000001      4.6949918100000003      7.5847258699999998
   591   1             24.31787194      4.8067644500000002      7.3726743900000002
   592   1      28.320071080000002              4.61674937      7.6496614599999999
   593   1      2.1115179400000001      8.2642105499999996      7.5689943399999997
   594   1      6.1196576900000004      8.2421572800000007      7.6918500300000003
   595   1             10.02844846              8.27602817      7.7029447099999997
   596   1      14.261334140000001      8.1817695500000003      7.5201548699999998
   597   1             18.25578655      8.1139930899999992      7.5147091000000001
   598   1      22.325333650000001      8.1745162400000009      7.3821789200000003
   599   1      26.387150089999999      8.2179219099999994              7.72948755
   600   1              30.4738854      8.2223683899999997      7.5780363800000003
   601   1  -0.0020641600000000002      11.776684749999999      7.5719764700000001
   602   1      4.0155766799999997      11.843833099999999      7.5369313399999998
   603   1      7.9485679200000003             11.70983794      7.4330143599999996
   604   1             12.09621705             11.66941138      7.3792267599999999
   605   1      16.234953910000002             11.86338986      7.4627430199999996
   606   1      20.362785150000001      11.621738799999999               7.6003973
   607   1      24.270105300000001             11.80421138      7.5087299500000002
   608   1             28.40678355             11.63480757      7.7139914899999997
   609   1              1.85618726      15.409844189999999      7.6877394499999996
   610   1      5.8621968400000002             15.26800104      7.4868147399999998
   611   1             10.08991411      15.222735460000001      7.5499126499999996
   612   1             14.19887905             15.13957647      7.4843117399999999
   613   1      18.208671580000001      15.192147540000001      7.5239898600000004
   614   1               22.389367      15.276814359999999      7.5408885300000001
   615   1      26.382299620000001      15.219341289999999      7.6835984699999997
   616   1      30.429624220000001             15.22852134      7.4370006799999997
   617   1      32.381473030000002      18.778993849999999      7.5431410000000003
   618   1      3.9924985199999998      18.785377199999999      7.4126641199999996
   619   1      8.1458255600000005             18.79444402      7.3570404399999996
   620   1      12.168910289999999      18.644772459999999      7.5105612400000004
   621   1      16.155896779999999             18.80277169      7.4972892800000004
   622   1      20.288500150000001      18.860546859999999      7.5320927299999996
   623   1             24.23919896      18.789398380000002              7.51160988
   624   1      28.265715419999999      18.612321269999999      7.4770134099999996
   625   1      1.8829933400000001      22.298158959999999              7.42570496
   626   1      6.0870860000000002      22.335689819999999      7.5674840799999998
   627   1      10.199210190000001             22.23509701      7.4634358000000001
   628   1      14.190031360000001             22.31476589      7.5304352400000001
   629   1      18.182193389999998      22.161752809999999      7.5036030800000004
   630   1      22.252605880000001      22.227206079999998              7.67187821
   631   1      26.375305969999999      22.167009100000001      7.4260033300000003
   632   1      30.316570429999999      22.200730069999999      7.5063438600000003
   633   1    0.073530319999999996      25.704938080000002      7.4521781999999996
   634   1      4.1349894799999998             25.83829523      7.4321448500000002
   635   1      8.0888033900000007      25.727278609999999      7.4506469400000004
   636   1             12.11484218             25.76716532      7.6570700699999996
   637   1      16.158148520000001      25.804026570000001      7.6206163599999996
   638   1             20.21648695             25.87233857      7.4519332900000004
   639   1              24.3318814      25.928972040000001      7.4727454499999997
   640   1      28.391302979999999      25.816975410000001      7.4055791900000001
   641   1             32.63611341      2.3324861399999999      8.4239976799999994
   642   1              3.88773649              2.26926052      8.1987974799999996
   643   1      8.0743072199999997               2.3143501      7.9593014000000002
   644   1              12.1997225              2.32985072      8.2662597099999999
   645   1      16.365879360000001      2.3664468300000001      8.3550958499999997
   646   1             20.29657817      2.3819722900000002      8.1851189099999999
   647   1             24.29591739      2.2137831800000001      8.2194641700000002
   648   1             28.46935594      2.2671445399999999              8.37183791
   649   1      1.9478951200000001      6.0302004599999997      8.1537170799999998
   650   1      6.0006153900000001      5.7722881299999997      8.1725528900000004
   651   1      10.017249639999999      5.7876105300000003      8.1760080800000008
   652   1      14.211118300000001              5.85183052      8.2410060099999995
   653   1      18.398840960000001      5.8463771700000002              8.16045731
   654   1      22.380901609999999      5.8845917700000001      8.2285338100000001
   655   1      26.243461050000001      5.8241544200000002      8.2730246699999999
   656   1      30.475726170000002      5.8627330200000003      8.2088685899999998
   657   1      32.550487910000001      9.4290954199999995      8.1707775500000004
   658   1      3.9920062700000001      9.5267979500000006      8.3520394400000004
   659   1      8.1287349800000008      9.5404289200000001      8.2956517900000009
   660   1      12.197089030000001      9.3095229800000006      8.2493849899999994
   661   1      16.245435130000001      9.3921121500000009      8.1437620299999995
   662   1             20.37033971      9.3363101999999998      8.0866545599999995
   663   1      24.387584950000001      9.4037595700000001      8.0374434600000004
   664   1      28.382921450000001      9.2517369200000008      8.4928331999999997
   665   1              1.91622352             12.95739498      8.2012917600000002
   666   1      6.0382736100000001             12.96402668      8.1016783700000001
   667   1      9.9324903599999992      12.840783930000001      8.2589229599999996
   668   1      14.129792070000001      12.900432309999999      8.2204494500000003
   669   1             18.09028859             12.83908274      8.1759842799999998
   670   1      22.356571979999998             12.90976777      8.2073837300000001
   671   1      26.305462769999998             12.80596972      8.2851345999999992
   672   1      30.351749380000001             12.86967785      8.0949576099999998
   673   1      32.354094549999999             16.40955701      8.3044940999999994
   674   1      3.9148135499999999      16.589080989999999      8.2424266599999996
   675   1      8.0575015000000008      16.424563339999999      7.8995030399999999
   676   1              12.0603383      16.322838390000001      8.2952361499999991
   677   1      16.176171449999998             16.44184104      8.1606956999999998
   678   1      20.240457880000001             16.36853481      8.0510941999999996
   679   1             24.34369513             16.46477922      8.3306429699999995
   680   1             28.31229274      16.239248580000002      8.3211631500000003
   681   1      1.8628531100000001             19.87086047      8.2013434299999997
   682   1      6.0599364199999997      19.878326170000001      8.1206237399999992
   683   1              10.2159431      19.930651220000001      8.2523607200000004
   684   1             14.15235116      19.902147249999999      8.2646043999999996
   685   1      18.260503409999998             19.83438129      8.2574071199999999
   686   1             22.22223425      19.939258299999999      8.3881266300000004
   687   1      26.352736969999999      19.858444259999999      8.0608913999999992
   688   1      30.341711069999999      19.724930700000002      8.0620027200000006
   689   1             -0.22708749      23.483778260000001      8.2600167800000008
   690   1      4.0628520200000002      23.420104850000001      8.0858504700000005
   691   1      8.1008970300000005      23.343064689999999      8.2407074100000006
   692   1              12.1572566      23.337951910000001      8.3088081900000006
   693   1             16.33146481      23.426979840000001      8.3033427900000003
   694   1      20.171820310000001             23.44753313      8.1415022700000002
   695   1             24.38441564      23.533443299999998      8.1843738199999994
   696   1      28.313904669999999      23.287144189999999      8.1425854199999996
   697   1              1.99887546             26.96361138      8.0468847100000005
   698   1      6.1719087100000003      26.944692719999999      8.2211366399999992
   699   1             10.09220831      27.021651599999998      8.1301962099999994
   700   1      14.174578500000001      26.958385759999999      8.3309171200000005
   701   1      18.311395340000001      26.959799449999998              8.23718678
   702   1             22.40733938      27.137960039999999      8.1152505000000001
   703   1             26.41719587             27.03510936      8.1152336799999993
   704   1      30.507789720000002      26.919132300000001      8.1475806399999993
   705   1   -0.020497129999999999             27.99473442      8.9971678399999995
   706   1      3.9824234700000001   -0.095401239999999998      8.8993765099999997
   707   1      8.0862501499999997      28.137644949999999      8.9541096899999992
   708   1      12.124569429999999      28.067502099999999      9.0271182200000002
   709   1      16.220192399999998     0.12671172999999999      9.1344746099999998
   710   1      20.420667439999999   -0.039418380000000003      8.9274580700000001
   711   1             24.45195292      28.047952989999999      8.9714643200000008
   712   1      28.245827429999999      28.013309679999999      9.0890752999999993
   713   1      2.0401426100000002      3.7477860600000001      9.0225381799999997
   714   1      5.9281876499999999      3.4084971899999998      8.7595846500000007
   715   1             10.13779104      3.5692084500000001      8.9675720299999995
   716   1             14.33419372      3.4688100899999998      9.0977231399999994
   717   1             18.26788312      3.6264170600000001      9.0469955800000008
   718   1      22.230463109999999      3.5142462800000001      9.0065187800000004
   719   1      26.399608130000001              3.33045876      8.9436166299999993
   720   1      30.447986570000001      3.3330564699999998      9.0406759099999991
   721   1      32.584895199999998      7.1271531299999999      9.0572427900000001
   722   1      4.1400740699999998      7.2107966699999997      8.8934153600000005
   723   1      7.9818177300000004      7.2195917700000001      8.9864078299999992
   724   1             11.99722704      6.9930346600000002      8.9849980899999995
   725   1      16.281684540000001      6.9654473000000001      8.9721326000000001
   726   1      20.358704840000001      7.0448461499999997      9.0023286799999997
   727   1      24.287986149999998      7.2034483900000001      8.8156745399999998
   728   1      28.432692679999999      6.9249516199999999      9.0606826199999997
   729   1              1.84686832             10.61554437      9.0420092200000006
   730   1      6.0792431100000002             10.53576777      8.9355984799999995
   731   1             10.12157274      10.660026930000001              8.85316759
   732   1             14.24007905             10.61108357      8.9344484200000007
   733   1      18.351263450000001              10.4605987      8.8359613800000005
   734   1      22.541295559999998      10.552239309999999      8.8638882100000007
   735   1      26.294031560000001      10.480332499999999      9.1505281099999998
   736   1      30.533323559999999      10.602932750000001      9.0662671199999991
   737   1      32.295401220000002             14.09013876      9.0505694200000004
   738   1      3.9152289499999999             13.98648474      9.0246362799999993
   739   1      7.8566802300000003             14.24255438      8.8894110099999999
   740   1      12.157468039999999      13.834641599999999      8.9210618099999994
   741   1      16.135309700000001             14.18246519      8.8479511100000003
   742   1      20.285263459999999             13.97056033      8.9837968200000002
   743   1             24.49310813             14.16887337      9.0811556000000007
   744   1      28.536414789999998      13.881481369999999      9.1340727600000005
   745   1              1.91759883             17.60295795      9.1555990499999993
   746   1      6.2931316500000003      17.559044870000001      8.8843625700000004
   747   1             10.12647778      17.667098429999999      8.8633369999999996
   748   1      14.211571790000001      17.414505160000001      8.9890954300000008
   749   1             18.42337307      17.382299580000002      8.9116710500000007
   750   1             22.13006395             17.50238667      9.0121782600000007
   751   1              26.4472278      17.586044560000001      9.1509833900000004
   752   1      30.435897369999999      17.467161990000001               9.0370431
   753   1      32.240236260000003      21.078521810000002      8.9026107900000007
   754   1      4.0754910100000004      21.030232850000001      8.9806422999999995
   755   1      7.9752433600000003      21.036574330000001      9.0397935399999998
   756   1             12.14255397             21.10985076      9.0426882299999995
   757   1      16.365845759999999             21.00407281      8.8327892499999994
   758   1      20.254050280000001      21.365385589999999      9.1017230799999993
   759   1      24.483825070000002      21.223879199999999      8.9932086400000006
   760   1             28.40145145             20.83547604      8.8279832299999992
   761   1      2.2434011800000002             24.75140425      8.7339195299999997
   762   1      5.8951935600000001      24.730809539999999      9.2157557400000005
   763   1             10.00922847      24.530205689999999      9.0130720699999998
   764   1      14.136003260000001      24.663081290000001      9.0745704499999995
   765   1      18.283038489999999      24.665147340000001      8.9599921400000007
   766   1             22.33430328      24.673520119999999              8.83654078
   767   1      26.488183110000001      24.824557429999999      9.0027210699999998
   768   1      30.275067150000002      24.661116620000001      8.9783048000000001
   769   2      29.202638700000001      26.422427089999999      9.2404551500000007
   770   2      28.365745440000001      24.995287709999999      9.0840958700000005
