N2-dn2-coord-10bar/300K/snapshots/frame-68872/run-000/../data.lammps (written by ASE) 

770 	 atoms 
2  atom types
0.0      32.470343392086264  xlo xhi
0.0      28.120142247150884  ylo yhi
0.0      31.213473999158239  zlo zhi


Atoms 

     1   1      2.0293964600000001      1.1716090800000001    0.023552650000000001
     2   1      6.0880008999999999              1.17168918              0.02556874
     3   1      10.146952280000001              1.17170328    0.025416459999999998
     4   1      14.205754900000001      1.1716496700000001              0.02501565
     5   1             18.26456816              1.17166478              0.02504435
     6   1             22.32338141      1.1716496700000001              0.02501565
     7   1      26.382184030000001              1.17170328    0.025416459999999998
     8   1      30.441135410000001              1.17168918              0.02556874
     9   1  9.1780000000000006e-05      4.6866847900000002    0.025581599999999999
    10   1      4.0587011400000002      4.6866847900000002    0.025581599999999999
    11   1      8.1174961000000003      4.6866290399999997    0.025584639999999999
    12   1             12.17638011      4.6866852999999997              0.02491202
    13   1             16.23517979      4.6866942700000003    0.025006210000000001
    14   1      20.293956519999998      4.6866942700000003    0.025006210000000001
    15   1      24.352756209999999      4.6866852999999997              0.02491202
    16   1      28.411640219999999      4.6866290399999997    0.025584639999999999
    17   1      2.0293964600000001      8.2016395800000002    0.026613040000000001
    18   1      6.0881071599999999      8.2016314300000008              0.02543782
    19   1             10.14701835               8.2017045    0.025156850000000001
    20   1      14.205766049999999      8.2017080900000003    0.024990459999999999
    21   1             18.26456816      8.2017077599999997    0.025091249999999999
    22   1      22.323370260000001      8.2017080900000003    0.024990459999999999
    23   1      26.382117969999999               8.2017045    0.025156850000000001
    24   1      30.441029149999999      8.2016314300000008              0.02543782
    25   1  9.2789999999999998e-05             11.71671873    0.025573410000000001
    26   1              4.05870014             11.71671873    0.025573410000000001
    27   1      8.1176017700000003             11.71668698              0.02497914
    28   1             12.17637068             11.71673069    0.025001590000000001
    29   1      16.235177310000001      11.716730249999999    0.025074039999999999
    30   1      20.293959009999998      11.716730249999999    0.025074039999999999
    31   1      24.352765640000001             11.71673069    0.025001590000000001
    32   1      28.411534549999999             11.71668698              0.02497914
    33   1      2.0293964600000001             15.23167155              0.02525285
    34   1      6.0881728300000004      15.231678799999999    0.025062859999999999
    35   1             10.14698486      15.231762639999999               0.0250786
    36   1             14.20578841             15.23176782    0.025201990000000001
    37   1             18.26456816              15.2317707    0.025149979999999999
    38   1      22.323347900000002             15.23176782    0.025201990000000001
    39   1      26.382151459999999      15.231762639999999               0.0250786
    40   1      30.440963480000001      15.231678799999999    0.025062859999999999
    41   1      32.470327990000001      18.746748629999999    0.024951939999999999
    42   1      4.0588083299999997      18.746748629999999    0.024951939999999999
    43   1      8.1175770200000006      18.746803499999999    0.025222040000000001
    44   1             12.17637459      18.746799750000001    0.025428470000000002
    45   1      16.235159400000001      18.746805200000001    0.025487360000000001
    46   1      20.293976919999999      18.746805200000001    0.025487360000000001
    47   1      24.352761730000001      18.746799750000001    0.025428470000000002
    48   1             28.41155929      18.746803499999999    0.025222040000000001
    49   1      2.0293964600000001      22.261939099999999    0.025844880000000001
    50   1      6.0881419299999999      22.261841799999999    0.025489439999999999
    51   1             10.14692954             22.26176895              0.02551757
    52   1             14.20573559      22.261804690000002    0.025639160000000001
    53   1             18.26456816             22.26178625    0.025640119999999999
    54   1      22.323400729999999      22.261804690000002    0.025639160000000001
    55   1      26.382206780000001             22.26176895              0.02551757
    56   1             30.44099439      22.261841799999999    0.025489439999999999
    57   1  5.6450000000000003e-05      25.776936450000001              0.02613327
    58   1      4.0587364700000004      25.776936450000001              0.02613327
    59   1      8.1175325399999991              25.7767713    0.024734180000000001
    60   1      12.176376469999999      25.776831090000002              0.02545323
    61   1      16.235145939999999      25.776775220000001    0.025273360000000002
    62   1             20.29399038      25.776775220000001    0.025273360000000002
    63   1      24.352759840000001      25.776831090000002              0.02545323
    64   1      28.411603769999999              25.7767713    0.024734180000000001
    65   1  0.00024266000000000001              2.34304215     0.80166565000000001
    66   1      4.0585502699999996              2.34304215     0.80166565000000001
    67   1      8.1157394600000003              2.34454954     0.80169402000000001
    68   1             12.17601256      2.3433829099999999     0.80116898000000003
    69   1      16.235258170000002      2.3433209100000001     0.80090046999999998
    70   1      20.293878150000001      2.3433209100000001     0.80090046999999998
    71   1      24.353123750000002      2.3433829099999999     0.80116898000000003
    72   1      28.413396859999999              2.34454954     0.80169402000000001
    73   1      2.0293964600000001      5.8582218700000004     0.80119762000000005
    74   1      6.0870566899999998      5.8583336700000004              0.80194851
    75   1             10.14649655              5.85853131     0.80121584000000001
    76   1             14.20597894      5.8582938599999999     0.80086840999999998
    77   1             18.26456816      5.8583798500000004               0.8010794
    78   1      22.323157380000001      5.8582938599999999     0.80086840999999998
    79   1             26.38263976              5.85853131     0.80121584000000001
    80   1      30.442079629999999      5.8583336700000004              0.80194851
    81   1  0.00019438999999999999      9.3717771800000005     0.80082061000000004
    82   1      4.0585985400000002      9.3717771800000005     0.80082061000000004
    83   1      8.1175070500000004      9.3725002699999997     0.80149060999999999
    84   1      12.176590020000001      9.3733583399999993     0.80088261999999999
    85   1             16.23512199      9.3733789200000004              0.80106506
    86   1             20.29401433      9.3733789200000004              0.80106506
    87   1      24.352546289999999      9.3733583399999993     0.80088261999999999
    88   1      28.411629269999999      9.3725002699999997     0.80149060999999999
    89   1      2.0293964600000001             12.88692854     0.80220621000000003
    90   1      6.0883212999999996             12.88743848     0.80138414999999996
    91   1      10.147128609999999             12.88859852     0.80085256000000005
    92   1             14.20571782      12.888558189999999     0.80113791000000001
    93   1             18.26456816      12.888409899999999     0.80109381000000002
    94   1      22.323418490000002      12.888558189999999     0.80113791000000001
    95   1             26.38200771             12.88859852     0.80085256000000005
    96   1      30.440815019999999             12.88743848     0.80138414999999996
    97   1              0.00012365      16.403222639999999     0.80145666999999998
    98   1      4.0586692700000002      16.403222639999999     0.80145666999999998
    99   1      8.1174337899999998      16.403825260000001     0.80097196999999998
   100   1              12.1761021             16.40390721     0.80133072000000005
   101   1             16.23503496      16.403861750000001     0.80140014999999998
   102   1      20.294101359999999      16.403861750000001     0.80140014999999998
   103   1      24.353034220000001             16.40390721     0.80133072000000005
   104   1      28.411702529999999      16.403825260000001     0.80097196999999998
   105   1      2.0293964600000001      19.919205120000001     0.80066369999999998
   106   1              6.08752564             19.91894023     0.80122479000000002
   107   1      10.146078839999999             19.91919038     0.80159137999999996
   108   1      14.204993419999999              19.9192584     0.80178742000000003
   109   1             18.26456816      19.919377350000001     0.80194975999999996
   110   1      22.324142899999998              19.9192584     0.80178742000000003
   111   1      26.383057470000001             19.91919038     0.80159137999999996
   112   1      30.441610669999999             19.91894023     0.80122479000000002
   113   1              0.00142012      23.434536609999999     0.80178442000000005
   114   1      4.0573728100000004      23.434536609999999     0.80178442000000005
   115   1      8.1165862000000004      23.433936769999999     0.80182306000000003
   116   1             12.17555218      23.433996919999998     0.80156656000000004
   117   1             16.23465491      23.434040110000002     0.80170828999999999
   118   1      20.294481409999999      23.434040110000002     0.80170828999999999
   119   1      24.353584130000002      23.433996919999998     0.80156656000000004
   120   1      28.412550110000002      23.433936769999999     0.80182306000000003
   121   1      2.0293964600000001      26.949875330000001              0.80297246
   122   1      6.0858208300000003      26.950066320000001              0.80215291
   123   1             10.14598146      26.949241430000001     0.80165810000000004
   124   1             14.20520604      26.948673230000001     0.80131923999999999
   125   1             18.26456816             26.94858318     0.80108193999999999
   126   1      22.323930279999999      26.948673230000001     0.80131923999999999
   127   1      26.383154860000001      26.949241430000001     0.80165810000000004
   128   1             30.44331549      26.950066320000001              0.80215291
   129   1   -0.039584149999999999      28.184416160000001              1.43032549
   130   1      4.0030559700000001      28.056224579999999      1.4871296000000001
   131   1      8.1450752400000006      28.028196600000001      1.3971244300000001
   132   1             12.19034568    0.042105209999999997      1.4423346399999999
   133   1      16.207127069999999             28.09814965              1.46075993
   134   1             20.25680904    0.033140219999999998              1.52308734
   135   1              24.3014799      28.112996420000002              1.46552394
   136   1      28.504953019999999   0.0032430599999999999              1.41836406
   137   1      2.0545808999999999              3.53805843              1.35508216
   138   1              6.09547989      3.4828385599999998      1.4368418599999999
   139   1      10.071434760000001      3.5884821499999999      1.4766173499999999
   140   1             14.14351976              3.55960783              1.41630134
   141   1      18.248722399999998      3.5388628999999998              1.31708732
   142   1      22.290592960000001      3.5812795300000002              1.45837547
   143   1      26.348988630000001              3.53436181      1.4820901399999999
   144   1      30.484478110000001      3.5308298499999999      1.5058429499999999
   145   1      32.433585630000003      7.0021513300000002      1.4723447999999999
   146   1      4.1585609799999999              7.01407925      1.4852193199999999
   147   1      8.1286792200000004      7.0502258600000003      1.4538922599999999
   148   1             12.10840262      7.0879379299999998              1.48796558
   149   1             16.25881566      7.0542178900000003      1.4786653700000001
   150   1      20.176542820000002      7.0603624399999996              1.65524987
   151   1      24.291180829999998      7.0608101799999998      1.5005930000000001
   152   1      28.417784950000001      6.9401170900000002      1.5445124100000001
   153   1      2.0945902099999998             10.46200464              1.59159977
   154   1      5.9792203400000004      10.430047480000001      1.4228586000000001
   155   1             10.08310391      10.662423410000001              1.48115503
   156   1      14.234526300000001      10.558236470000001              1.51402525
   157   1      18.316798890000001      10.559202819999999              1.34801437
   158   1      22.287826320000001      10.537006999999999              1.53197771
   159   1      26.452930550000001      10.445350189999999              1.56072872
   160   1      30.392648210000001      10.438239830000001      1.6562550599999999
   161   1   -0.056614110000000002             13.96252456      1.4458254100000001
   162   1      4.1204806100000004      13.997486889999999              1.46430606
   163   1      8.1482629800000002      14.046163999999999      1.3501243599999999
   164   1             12.12603094             13.92070667              1.41951899
   165   1             16.19279994             14.11842605      1.4675202599999999
   166   1      20.240171879999998      14.017375850000001      1.5470504700000001
   167   1      24.314236810000001      14.037495030000001              1.32667241
   168   1      28.433761029999999      14.090921249999999      1.3488144099999999
   169   1      2.1035638300000001             17.62300514              1.47169346
   170   1      6.0678788600000004      17.671337189999999              1.46173303
   171   1      10.034244149999999             17.62390864      1.5682012999999999
   172   1      14.234346759999999      17.574397009999998      1.4429079899999999
   173   1      18.324023650000001      17.591464970000001              1.38433092
   174   1      22.281985639999998      17.678817810000002      1.4436600399999999
   175   1      26.389481060000001      17.616557369999999      1.3660882700000001
   176   1             30.52058306             17.47223923      1.5044912800000001
   177   1      32.393307589999999      21.153908560000001              1.54941084
   178   1      4.0650791000000002      21.076405340000001      1.4285530900000001
   179   1      8.0832407499999999             21.10298766      1.4300466199999999
   180   1      12.173496070000001      21.111583830000001      1.5133267699999999
   181   1             16.23192173      21.082005580000001      1.5193300999999999
   182   1      20.313496829999998      21.237853220000002      1.4863302300000001
   183   1      24.361638500000002      21.074736269999999      1.4557932499999999
   184   1      28.408421359999998             20.91677271              1.50045458
   185   1      1.9566642599999999             24.70953072      1.3105620499999999
   186   1      6.2004580699999998      24.638479190000002              1.44960994
   187   1             10.14891173      24.616938380000001      1.4628923199999999
   188   1      14.290249640000001      24.637198160000001              1.49917133
   189   1      18.247470910000001      24.623410629999999      1.5184414500000001
   190   1      22.346678260000001      24.574014519999999              1.48353124
   191   1      26.371348390000001      24.625503940000002      1.4738138599999999
   192   1             30.46652508      24.716576849999999              1.43274273
   193   1      1.9478532799999999      1.1143012699999999      2.4280314199999999
   194   1              6.17628617      1.1144307600000001      2.3398870199999999
   195   1      10.041601440000001              1.18780347      2.4370251999999999
   196   1             14.17895186      1.1975046199999999      2.3794962399999999
   197   1      18.204704150000001      1.3062935899999999      2.5265979700000001
   198   1      22.352337139999999      1.1968380999999999      2.4139673699999999
   199   1      26.383837799999998      1.2371639000000001      2.4495663900000002
   200   1      30.477766259999999      1.1255643500000001      2.4330229399999999
   201   1   -0.096635840000000001      4.6969784499999996      2.4176760800000001
   202   1      4.1455042500000001      4.7421264000000001              2.37794237
   203   1      8.0222135699999999      4.7097916099999999      2.4255627299999998
   204   1      12.181257029999999      4.7086423799999997      2.4055468200000001
   205   1      16.266987459999999      4.7097575100000002      2.4880740000000001
   206   1      20.304865490000001      4.6537696200000003      2.3733133300000002
   207   1      24.239255620000002      4.7062886700000002      2.3906040900000001
   208   1             28.46045608              4.66736621              2.43400303
   209   1      2.1008976399999999      8.2978650100000007      2.4505620299999999
   210   1      6.1612615699999997      8.1209663499999998      2.4852470900000001
   211   1      10.148188899999999      8.2161774100000002      2.3996800700000001
   212   1             14.20863692      8.2244524299999995      2.3816359399999998
   213   1      18.198516619999999      8.2128923999999994      2.5113489100000002
   214   1      22.161564210000002      8.1525380599999995               2.4516966
   215   1      26.436479569999999      8.1566151900000001      2.4465530800000002
   216   1      30.367879179999999      8.1629094599999998              2.31319607
   217   1    0.093116599999999994             11.63687545      2.4735941800000001
   218   1      4.1663313100000003             11.60584145      2.4859440199999998
   219   1      8.0628739500000002      11.708734659999999              2.37828857
   220   1              12.0722015      11.570821240000001      2.4784972399999998
   221   1      16.352385049999999             11.83601745      2.3704928600000001
   222   1      20.221347099999999      11.760008170000001      2.4319499499999999
   223   1      24.337399690000002             11.84048482      2.3332287599999999
   224   1             28.39880385             11.71982817      2.5013137099999998
   225   1      2.1062892899999999             15.25846067              2.42384434
   226   1              6.07181164             15.39517246      2.4227979999999998
   227   1             10.15782523             15.24938051      2.3750014400000001
   228   1      14.203894590000001      15.174734450000001              2.42362703
   229   1      18.293653939999999      15.252487220000001      2.4142051599999999
   230   1      22.365480080000001      15.303473779999999      2.4322296799999998
   231   1             26.37420955             15.23685841              2.36234564
   232   1      30.454418950000001             15.23523432      2.4587641699999998
   233   1      32.552134000000002              18.7801276      2.3909384199999999
   234   1      4.0823319700000003      18.728411359999999      2.4315461599999999
   235   1      8.1259341900000006      18.799521890000001      2.4935371399999999
   236   1      12.193460529999999      18.772600010000001      2.4032633099999998
   237   1      16.205205719999999      18.758919930000001              2.40136942
   238   1      20.190415420000001      18.725357110000001      2.3984220600000001
   239   1             24.35316323             18.69986651      2.3649299799999999
   240   1      28.464688509999998             18.73656957      2.4719827300000001
   241   1      2.0133118799999998      22.320436170000001      2.3078683199999999
   242   1      6.0589089899999999              22.4182436      2.4103212200000002
   243   1             10.14227331             22.26897327               2.4601468
   244   1      14.124159929999999      22.243394129999999      2.4550146800000001
   245   1      18.276993279999999             22.33566991      2.4330208899999999
   246   1             22.35786993      22.321571590000001      2.3463167899999999
   247   1      26.422240720000001      22.273059279999998      2.3876757799999999
   248   1             30.36644484      22.321933300000001              2.34228367
   249   1      32.418192150000003      25.761654830000001      2.4549069700000001
   250   1      4.1594139999999999      25.749209860000001              2.41910538
   251   1      8.0369838100000006      25.805294100000001              2.44331209
   252   1             12.08691376      25.731222469999999              2.37760398
   253   1      16.261329790000001      25.833160589999999      2.4002716199999998
   254   1      20.386354239999999      25.836542040000001      2.4353090800000001
   255   1      24.379486849999999      25.791987850000002      2.3221164299999999
   256   1      28.400639730000002      25.827212459999998      2.3778153199999998
   257   1      32.536630119999998              2.26865286      3.2214407299999999
   258   1      4.1568017900000003              2.29526853              3.16860433
   259   1      8.1402554299999998      2.4313696899999999      3.2204681399999999
   260   1      12.055129170000001      2.3948241399999999      3.2503724300000001
   261   1      16.227183839999999      2.4486796599999998      3.2817558500000001
   262   1      20.356719040000002      2.2857067199999999              3.19363288
   263   1             24.42698553      2.3342262300000001      3.2483422700000002
   264   1              28.4435398              2.30399406               3.2802864
   265   1      2.0057898600000001      5.7984209699999996      3.1779441300000002
   266   1      5.9628405600000001              5.89432052      3.2984623100000001
   267   1             10.05892246      5.7948838499999997      3.3137199900000001
   268   1      14.323996169999999              5.88623751      3.2462138999999999
   269   1      18.205665239999998      5.9335618200000004      3.3108494300000002
   270   1      22.242344209999999      5.8513910600000001      3.2948004900000001
   271   1      26.452552399999998      5.8528570599999998      3.1425544799999998
   272   1             30.56043747      5.8879804900000003      3.2907407499999999
   273   1      32.460035810000001      9.2768953199999995      3.2970840099999998
   274   1      4.1409040499999996      9.2629415900000005      3.1733511999999999
   275   1      8.1745540800000001      9.3879654800000001              3.31627122
   276   1             12.23401327      9.2830864200000001      3.2527208299999999
   277   1             16.20713877      9.5618481899999992      3.3591513000000002
   278   1             20.16434872      9.3156723800000005      3.3448125000000002
   279   1      24.189831210000001              9.42018019      3.3696736899999999
   280   1             28.37673886      9.3593255200000005      3.2501918700000001
   281   1              2.12496412      12.794697319999999              3.22855077
   282   1      6.1332200099999996      13.019778820000001      3.2391972600000001
   283   1             10.08993641             12.90337289      3.1258194000000001
   284   1             14.09703292             12.86171944      3.2785031999999998
   285   1      18.257329049999999             12.93745176      3.2705176800000002
   286   1      22.359275799999999              12.9653317      3.3623878999999999
   287   1             26.37960872               12.818343              3.34418309
   288   1      30.443832910000001      12.865490449999999      3.3811849700000001
   289   1      32.403680729999998      16.403703440000001      3.3064019600000001
   290   1      4.0536805500000002             16.38610826      3.2521932699999998
   291   1      8.2600935799999995      16.541583190000001      3.2960122300000001
   292   1      12.240225690000001      16.401720019999999      3.1825770699999998
   293   1      16.136478069999999      16.376844269999999              3.29724175
   294   1      20.355615100000001             16.47657422      3.2769884500000002
   295   1      24.438965710000002             16.34436045      3.2242942999999999
   296   1             28.41174212      16.304222679999999              3.25704913
   297   1      2.0439150700000002      20.012011959999999      3.2678201499999999
   298   1      6.0033358799999998             20.09036798      3.3268945599999999
   299   1      10.180232520000001      19.867025139999999      3.3408941900000002
   300   1             14.18981748             19.95531815      3.3685313799999999
   301   1      18.262647399999999      20.037471350000001      3.1776564899999999
   302   1             22.23782898      19.926374150000001      3.2309859400000001
   303   1             26.36784282      19.814049730000001              3.26862086
   304   1      30.476811940000001      19.948216989999999      3.3283205200000001
   305   1   -0.083736379999999999      23.437563999999998              3.25952434
   306   1      3.9171695099999999             23.52632861      3.3155411699999999
   307   1      8.1127600900000001      23.534110689999999      3.2932903200000001
   308   1      12.240984279999999             23.43393476      3.2670980799999998
   309   1      16.221253789999999      23.330046029999998      3.2169852099999998
   310   1      20.378646100000001      23.444162949999999      3.2959388000000001
   311   1             24.27220221      23.534809379999999      3.3224955899999999
   312   1             28.53983689      23.492661160000001      3.3555572100000002
   313   1      1.9303564900000001      27.005273169999999      3.2399861900000002
   314   1      6.0498887000000003      27.013262090000001      3.2466590200000001
   315   1              10.0021845      27.105714679999998      3.3399868100000001
   316   1      14.198868060000001      26.989053999999999      3.2341067300000002
   317   1      18.286463810000001      26.983233439999999      3.2242003600000002
   318   1      22.413668650000002             26.99810239              3.15564592
   319   1      26.354696959999998      27.062717540000001      3.2838479299999999
   320   1      30.393020050000001      26.940349699999999      3.2609985899999998
   321   1    -0.15513761000000001   -0.071863979999999994      4.0374479399999998
   322   1      4.0617432500000001      28.067890089999999      4.0054320700000003
   323   1      8.0811096599999992     0.15159238999999999      4.1673780100000002
   324   1      12.047657729999999             28.12230057      4.0461472599999997
   325   1             16.26577327      28.241973080000001      4.0031526599999996
   326   1      20.394891000000001   -0.027542440000000001      3.9655666100000002
   327   1             24.37621128      28.172191389999998      4.0741511399999997
   328   1      28.445149780000001      28.081098950000001      4.0946348099999996
   329   1      2.1081973299999999      3.4173498699999998      4.0132445199999998
   330   1      6.0642736299999997      3.5273441399999999      3.9978460500000002
   331   1      10.026100169999999      3.6131916199999998      4.1196263000000002
   332   1             14.17653977              3.52564973      4.0263378100000002
   333   1      18.244466150000001              3.42431544      4.0937879300000004
   334   1      22.429857070000001      3.4990069400000001      3.9813858099999999
   335   1      26.361605000000001      3.4874995200000001      4.0982011800000002
   336   1      30.445742970000001      3.4886226100000002      4.0239928000000003
   337   1             32.62619128      6.9826248199999998      4.0824982399999996
   338   1              4.01764849      6.9243037999999997      4.1692614399999997
   339   1      8.0874974900000005      6.9582023700000004      4.1274055799999996
   340   1      12.149945580000001      6.9230000599999997      4.0820043999999998
   341   1             16.15454317      7.1437128999999997      4.1088101300000002
   342   1              20.2541349              7.02549826              4.14058511
   343   1             24.26255471      7.0021797799999996      4.0604093800000003
   344   1             28.41250883      7.0302141200000001      4.0574036600000003
   345   1      2.0655846800000002             10.44719297      4.1142228999999997
   346   1      6.1508111200000002      10.544785149999999      3.9960243200000001
   347   1      10.217564360000001             10.64899668      4.1221806699999997
   348   1      14.165015990000001             10.58018055      4.1194906800000002
   349   1             18.25561999             10.65416055      4.0510143699999999
   350   1      22.326624020000001      10.601918019999999      4.1113935799999997
   351   1      26.379874229999999      10.516460889999999      4.0973364800000001
   352   1      30.401211849999999      10.571238109999999      4.1750457000000001
   353   1    0.041258580000000003             13.96946556      4.0681806700000003
   354   1              4.04957265             14.02951365      4.1311975500000004
   355   1      8.1157463399999994      14.129765450000001      3.9993884500000001
   356   1      12.181721830000001      14.137576709999999      4.0384211199999998
   357   1      16.140866989999999             14.07550161      4.1072050000000004
   358   1      20.233919700000001      14.244167579999999      4.1277118000000002
   359   1      24.364559969999998      14.035916350000001      4.0552735100000001
   360   1      28.431350729999998      14.023205020000001      4.0025915999999997
   361   1      2.0961987999999998      17.611526390000002      3.9704684800000001
   362   1      6.2046088599999996      17.714400919999999      4.0102901600000003
   363   1             10.20871191      17.642233319999999      4.0983290600000002
   364   1             14.21178669      17.637469129999999      4.1395243500000003
   365   1      18.153524279999999             17.57286092      4.0539096900000002
   366   1      22.340408400000001      17.585235640000001      4.1856275500000004
   367   1             26.48644801      17.519171140000001              4.02999375
   368   1             30.45202544      17.497427600000002      4.0504549900000004
   369   1      32.489893799999997      21.086123749999999      4.0661448099999999
   370   1      3.8954252700000001      21.194450339999999      4.0564479799999997
   371   1      8.1828788400000008              21.2194027      4.1180646699999999
   372   1             12.03898745      21.148960710000001      4.1784857899999999
   373   1      16.197731820000001      21.107363710000001      3.9987592799999998
   374   1             20.34599833      21.078807990000001      3.9803749800000001
   375   1             24.46022327             21.08785525              4.02312884
   376   1      28.487556189999999             21.09034012      4.0767202400000002
   377   1      1.9738851900000001      24.584386510000002      4.0784567000000003
   378   1      5.9795979299999997      24.656005059999998              4.16135623
   379   1             10.15252364      24.743913370000001      4.0888976399999999
   380   1             14.17678995      24.703471499999999      4.0041375600000002
   381   1      18.319358439999998             24.59432902      3.9754858500000001
   382   1             22.29039199      24.673583229999998              4.09506017
   383   1      26.347615699999999      24.627454929999999      4.0373847600000001
   384   1               30.541819             24.69865682      4.0052838599999996
   385   1      2.0492521699999999      1.1194276000000001      4.9604669899999996
   386   1      6.0224870499999996      1.1718715500000001      4.8330331199999996
   387   1      10.110681120000001              1.26901632      4.9081988399999998
   388   1             14.14611038              1.22237039      4.8272171000000004
   389   1      18.260361759999999              1.18550142      5.0255895800000001
   390   1      22.296587049999999              1.15007645      4.9123144600000002
   391   1             26.34145573              1.18710084      5.0034881499999999
   392   1      30.450571350000001              1.14032684      4.9870089999999996
   393   1    0.012013019999999999      4.6211144500000003      4.8088324299999998
   394   1      4.0421427799999998      4.6470917399999996              4.88312116
   395   1      8.0833511199999997      4.6639524200000002      4.8668960700000001
   396   1      12.107801459999999      4.7062679699999999      4.8508855000000004
   397   1      16.107579019999999      4.6231585099999997      5.0582947999999996
   398   1             20.19485573      4.6754962200000003      4.9423765199999998
   399   1      24.426655060000002      4.7196905600000001      4.9942748000000003
   400   1      28.431157729999999      4.7253868800000003      4.7866749899999999
   401   1      2.0656784899999998      8.1590929899999995      5.0189519300000001
   402   1      6.0232386199999999      8.0814896800000007      4.9697232900000001
   403   1             10.12133766      8.1874591799999994      5.0134798800000002
   404   1      14.087965130000001      8.2498462900000007      4.8866682900000002
   405   1             18.21404532      8.3174744700000005      4.9624659600000003
   406   1             22.28004005      8.1210980999999993      5.0151800299999998
   407   1      26.324172860000001      8.3144292800000006      4.9289764500000004
   408   1      30.465236789999999      8.1646137000000003      4.8490264300000003
   409   1             -0.07136199      11.666354180000001      5.0006481699999998
   410   1      4.1022156599999997      11.750914829999999      4.9688230600000001
   411   1      8.0805822500000009             11.78977856      4.9350095600000001
   412   1      12.125314360000001             11.76784003      4.9685830099999997
   413   1      16.229901770000001             11.77102335      5.0113002900000003
   414   1      20.283111170000002      11.623716480000001              4.98537214
   415   1             24.37354401      11.713490970000001      4.8432975100000002
   416   1      28.466603280000001             11.77340515      4.9825724999999998
   417   1      2.0395612999999999      15.369146750000001      4.8643013399999999
   418   1      6.0919150399999999      15.253308390000001      4.9297953000000003
   419   1             10.17141721             15.31877658      4.8965193100000004
   420   1             14.29425148      15.243832940000001      4.9732404299999997
   421   1      18.249409350000001             15.25700672      4.8916782200000002
   422   1      22.280126930000002             15.27137213      4.9389737199999999
   423   1             26.36454118      15.168613280000001      4.8343681500000004
   424   1      30.424336050000001             15.24946501      4.9424504300000001
   425   1      32.496452679999997      18.769537530000001      4.8621169699999998
   426   1      4.1229422099999997      18.659154869999998      5.0401343900000004
   427   1      8.1334197800000005      18.947145750000001      4.9066864399999996
   428   1             12.15108294      18.773543780000001      4.9248965299999998
   429   1      16.220392910000001      18.755510990000001      4.9859278400000004
   430   1      20.197188650000001             18.90811952      4.9317011800000001
   431   1             24.43869115      18.853755329999998      4.9114998400000003
   432   1             28.56560953      18.737763560000001      4.9505133399999997
   433   1      1.9573791700000001      22.351411819999999      4.9267495099999996
   434   1      6.0518421699999996      22.377054000000001      4.8761169000000004
   435   1             10.09782684      22.424551829999999      4.9133933299999999
   436   1              14.1416881      22.265957790000002      4.9123749800000001
   437   1             18.22767657      22.285216219999999      4.8710215100000003
   438   1      22.342578199999998      22.272326159999999      4.8727132900000001
   439   1             26.48536902             22.21969897      4.9426780900000002
   440   1      30.402732369999999      22.227618840000002              4.99257434
   441   1      32.554139839999998             25.80960747              4.90998321
   442   1              3.94342266             25.75060693      4.9267843200000003
   443   1      8.2155469300000004             25.86429532      4.9132096599999997
   444   1             12.28652436      25.856473260000001      4.9661189500000003
   445   1      16.355459369999998      25.810244770000001      4.9129167999999996
   446   1      20.304308949999999      25.650669480000001      4.9391930200000003
   447   1             24.44408709      25.826804599999999                4.751385
   448   1      28.411300170000001             25.79626536      5.0086854799999996
   449   1 -0.00049184999999999995      2.3558023600000002      5.7536907700000004
   450   1      4.0244714699999999      2.4349166000000002      5.6583032099999997
   451   1      8.1679435399999996      2.4059907599999999               5.6958924
   452   1      12.165755860000001              2.40658452      5.7090783299999996
   453   1      16.180276889999998      2.2779155599999998      5.7405767399999998
   454   1      20.294542530000001      2.3943212300000001      5.7948926099999998
   455   1      24.410874419999999              2.33413146      5.7914641700000002
   456   1      28.311024790000001      2.3483160999999999      5.7611470200000001
   457   1      2.1306463899999999      5.8205755300000002      5.8257305800000001
   458   1      5.9713132900000003      5.8057592099999997      5.8163739400000001
   459   1             10.15202684      5.9358267700000003      5.8028503899999997
   460   1      14.077386280000001      5.9337691100000001      5.6807386500000003
   461   1             18.24555024      5.9895957099999997      5.8308852800000004
   462   1      22.176827459999998      5.8298306100000001      5.7885517899999996
   463   1             26.41585946      5.9572200200000003      5.6237770999999999
   464   1      30.361656589999999      5.8490273300000002      5.6910892500000001
   465   1      32.581930249999999      9.4027229499999994      5.8482703000000003
   466   1      4.1514957800000003      9.4357941600000004      5.7840668900000001
   467   1      8.0548406400000001      9.3357749200000004      5.8020005399999999
   468   1      12.048724979999999      9.4362967700000002      5.9611309200000004
   469   1             16.19128203      9.4495966199999994      5.7572026100000002
   470   1             20.30112673      9.3474010500000002      5.8702574500000004
   471   1             24.41209564      9.4786447200000001      5.7238152600000003
   472   1             28.42104806      9.3918782600000004              5.72412689
   473   1      2.0199623299999998      12.992394300000001      5.7064274399999997
   474   1      6.1741346699999999      13.076511869999999      5.6999164899999997
   475   1      10.137051899999999              12.8927341      5.5998776799999996
   476   1             14.20414998             12.94478842      5.8344478200000003
   477   1      18.232383710000001      12.897946879999999      5.7731652100000002
   478   1             22.20690506      12.995012559999999      5.8526113400000002
   479   1      26.207588739999998             12.88007708      5.7689619700000003
   480   1      30.427771409999998             12.95013612      5.8294014299999999
   481   1             32.49181059      16.381583039999999      5.7721216599999998
   482   1      4.0682566299999996             16.42527093      5.7538116099999996
   483   1      8.2883221000000002      16.489645790000001      5.6914981899999999
   484   1             12.20514816      16.414164029999998              5.76849364
   485   1             16.25972337      16.405482200000002      5.7924067800000003
   486   1      20.349542419999999             16.45690188      5.7690678000000002
   487   1             24.24248687      16.518445410000002      5.5945471099999997
   488   1      28.309994320000001      16.427354300000001      5.7788207900000002
   489   1      2.0148328100000001      20.000313129999999      5.7748412699999996
   490   1      5.9922200200000004             19.96120131      5.7688446300000003
   491   1              10.0940198      19.960924009999999      5.8579717000000002
   492   1             14.17273638      19.902308640000001      5.7258696000000002
   493   1      18.282627980000001             19.94253664      5.6227112899999998
   494   1      22.217207160000001             19.96824943               5.7801817
   495   1      26.514918349999999      19.940936959999998      5.7427313900000003
   496   1      30.515131369999999      19.892204379999999      5.7582216199999996
   497   1    0.035243150000000001      23.461939600000001      5.7206593899999998
   498   1      3.9155684100000001      23.373178849999999      5.9122660099999997
   499   1      8.0425339600000001             23.67422805      5.8125178100000001
   500   1      12.141242999999999      23.557576610000002      5.7428798600000004
   501   1      16.193435730000001      23.453764119999999      5.6467876300000004
   502   1      20.333973530000002      23.364879439999999      5.8364551699999998
   503   1      24.310556439999999      23.359606960000001               5.7012665
   504   1      28.491686260000002      23.404598360000001              5.92961458
   505   1      1.9977078100000001             26.94566013      5.6514915700000001
   506   1      6.0738136599999999      26.912690359999999      5.6429733500000001
   507   1      10.225269259999999      27.133686999999998      5.7219594699999998
   508   1             14.22348159      27.039559839999999      5.7512831699999998
   509   1      18.341510060000001      26.943946019999998      5.6646040800000002
   510   1      22.437349019999999      26.937466010000001      5.6303288499999997
   511   1      26.329917890000001             26.91140081      5.7848075400000001
   512   1      30.433553570000001      26.974094260000001      5.7511831999999998
   513   1      32.511324850000001      28.200064080000001      6.6354357500000001
   514   1      3.9570286499999998             28.06284887      6.5167433199999998
   515   1      8.0848608599999991    0.040136949999999998      6.6210939499999997
   516   1      12.148915410000001      28.113559160000001      6.4191521099999997
   517   1      16.275928350000001             28.15119739      6.5412092900000003
   518   1      20.428152470000001              27.9865809      6.5197510699999999
   519   1      24.368024370000001      28.130229979999999      6.5295469900000001
   520   1      28.316179680000001              0.00123259      6.7642892200000002
   521   1      2.0527725000000001      3.5187306199999999      6.5976118599999998
   522   1      6.1605813700000001      3.5158775200000001      6.4895392200000002
   523   1             10.14658728              3.48238387      6.5578637100000003
   524   1              14.2175175              3.57485579      6.4770816499999997
   525   1      18.310489019999999      3.5819811700000002      6.5091305400000001
   526   1      22.386144770000001      3.5069053000000001      6.5930456499999996
   527   1             26.33645443      3.6261832200000002      6.4949695700000003
   528   1             30.42196156      3.5090693900000001              6.58448207
   529   1             -0.00301564      7.0062842600000002      6.5445179600000003
   530   1      4.0705363200000004              7.10662342      6.6588203699999999
   531   1      8.1163958699999998      6.9847490199999998      6.5606245699999999
   532   1             12.08446217      7.0147046499999997      6.3984424400000002
   533   1      16.274798409999999      7.0087962700000004      6.5049376399999996
   534   1      20.268240120000002      7.0091384400000001      6.6944190099999998
   535   1      24.339017139999999      7.0749906600000001      6.5570696999999996
   536   1      28.298168889999999      7.1235900900000004              6.46525353
   537   1      2.1026927999999998      10.575793450000001      6.5901359299999998
   538   1      6.0552633900000004             10.68441857      6.4830640300000004
   539   1             10.13935895      10.685761449999999      6.6445423300000002
   540   1      14.239930129999999      10.593761219999999      6.6319054199999998
   541   1              18.1227616             10.55788798      6.5671801199999997
   542   1      22.311172119999998             10.53736112      6.6709886100000002
   543   1             26.38154887      10.581577469999999      6.6316386500000002
   544   1             30.36242785             10.54080235              6.57354372
   545   1              0.02408211              14.0336929      6.6551330999999996
   546   1      4.1038482600000004              14.1343842      6.6177678000000002
   547   1      8.1711960900000005             14.17137005      6.5571741899999996
   548   1             12.14248669             14.16301962      6.5810556499999997
   549   1             16.27477644             14.01486437              6.65530489
   550   1      20.269387380000001             14.16053956      6.5743353000000004
   551   1      24.267015069999999             14.05171391      6.6162050800000003
   552   1      28.401553849999999      14.018260639999999      6.6210231999999998
   553   1      2.0190056200000002      17.596117379999999      6.4852854899999999
   554   1      6.0753486399999996      17.576995109999999              6.67323982
   555   1             10.20787814      17.765485210000001      6.6128031099999998
   556   1      14.139331690000001             17.55264025      6.6252080199999996
   557   1             18.31744995             17.64093673      6.6143430199999997
   558   1      22.282954010000001      17.634240439999999      6.7684784100000002
   559   1      26.302795889999999      17.556406200000001              6.58238799
   560   1      30.374823249999999      17.458894470000001      6.6786126399999999
   561   1    0.037238449999999999      21.151057609999999      6.5795927299999999
   562   1              3.97799192      21.041801459999999      6.6767889299999998
   563   1      8.0970157100000009      21.228850229999999      6.6659366699999998
   564   1             12.08269947               21.195359              6.57572986
   565   1      16.210799770000001      21.144520870000001      6.4828379500000004
   566   1      20.259098739999999      21.144887440000002      6.5223030599999996
   567   1      24.411338600000001      21.041356449999999      6.5642524699999996
   568   1             28.46290381      20.872492999999999      6.6295519199999999
   569   1      2.0123635499999999      24.614367139999999      6.6340337199999997
   570   1      6.0193581299999996      24.570456849999999      6.6304508499999999
   571   1             10.08387065             24.67375423      6.5178869800000001
   572   1      14.293804160000001      24.717728390000001      6.5480583899999996
   573   1              18.3258714      24.665946640000001      6.5120395599999998
   574   1      22.272815980000001             24.52786777      6.6223612599999999
   575   1      26.460798870000001             24.48972775      6.4946574000000004
   576   1      30.528903629999999      24.676999670000001                6.642658
   577   1      2.1027567399999998              1.33479218      7.4131149599999997
   578   1              6.13187952      1.1916064099999999              7.40214237
   579   1      10.222137099999999              1.15210689      7.4249661500000004
   580   1             14.21365905      1.2522575300000001      7.3139750699999997
   581   1             18.35463201      1.1703284700000001      7.5701516299999998
   582   1      22.393598369999999              1.18361761      7.4657830900000004
   583   1      26.484226509999999                1.083253      7.5287019700000002
   584   1      30.503174349999998              1.16416509      7.5392136699999996
   585   1             -0.01810517      4.6984724499999997      7.3358528300000003
   586   1              3.99239633      4.7311521000000001      7.5285761899999999
   587   1      8.1680241099999993      4.6359559399999997      7.4180505999999999
   588   1             12.17154478      4.6971136099999997      7.3973343700000003
   589   1      16.268140240000001      4.7884162100000003      7.6193374299999999
   590   1             20.24486271      4.6419070400000004              7.73775659
   591   1             24.38000718      4.7779577299999998      7.6765825799999998
   592   1      28.326274130000002      4.7100427199999997      7.4280818499999999
   593   1              1.98809368      8.3412751899999993      7.6675358200000003
   594   1      6.0504638000000002      8.2543872599999997      7.5119188499999998
   595   1      10.037917070000001      8.2796505099999997      7.5762298699999997
   596   1      14.185204479999999      8.0734718500000007      7.4436151199999996
   597   1      18.338970440000001      8.2322672800000003      7.5867078699999997
   598   1      22.320202210000001              8.28324982      7.5454910100000001
   599   1             26.32120974      8.2661431499999996      7.5053984800000002
   600   1      30.451351899999999      8.2550641099999993      7.5300955199999997
   601   1    0.039695870000000001      11.730623169999999      7.4587851499999998
   602   1      4.1337138700000002      11.703800879999999      7.4687908900000002
   603   1      8.1353755499999991             11.76679916      7.5269959100000001
   604   1             12.22702565             11.79248668      7.6126288899999999
   605   1             16.25881021             11.69730493              7.67308038
   606   1      20.265341320000001      11.827657139999999      7.4549904199999997
   607   1      24.342467389999999      11.642911059999999      7.7183376099999998
   608   1             28.43626252      11.811764520000001      7.6532422599999999
   609   1      2.0680787199999999      15.268410599999999      7.5619584700000004
   610   1              6.07674409      15.252968559999999      7.5805232299999998
   611   1             10.15150701             15.34476725      7.6009501899999998
   612   1             14.20400658      15.321546789999999      7.5546860300000001
   613   1             18.20144136             15.32726572      7.5586570599999998
   614   1             22.28926397      15.252691929999999      7.5820118299999999
   615   1             26.41833244      15.145565149999999      7.3359534100000001
   616   1      30.435390170000002      15.174047720000001      7.4503149200000003
   617   1    0.088363300000000006             18.66701209      7.3593144099999996
   618   1      3.9991620800000001      18.746206130000001      7.5276597299999999
   619   1      8.0653796599999996      18.762747579999999      7.5671812300000001
   620   1             12.20766064      18.828086209999999      7.6191435399999996
   621   1      16.211672750000002      18.611097010000002      7.4434218300000001
   622   1      20.326183390000001      18.803912969999999      7.5611558700000003
   623   1      24.302233269999999      18.758102489999999      7.5305032199999999
   624   1      28.419947270000002      18.674944060000001      7.5161172299999999
   625   1              1.97619956      22.131633369999999      7.6008952799999996
   626   1      6.0927632999999997      22.180102389999998      7.4699404300000003
   627   1             10.17661412      22.378288999999999      7.5955756799999996
   628   1      14.253071719999999      22.257265950000001      7.4767764100000003
   629   1             18.23801654      22.211677460000001      7.4619238899999996
   630   1               22.317446      22.134133460000001      7.5487337999999999
   631   1      26.459734090000001      22.220465900000001      7.4773205300000001
   632   1             30.40926052             22.22620805      7.6147502100000004
   633   1             32.52400703             25.85011385      7.3969924599999999
   634   1              4.02803705      25.760663210000001              7.61723778
   635   1      8.0765413299999995             25.70517151      7.6311146599999997
   636   1      12.282056259999999      25.910429059999998      7.4748373099999998
   637   1      16.288732589999999      25.934621119999999      7.5779850399999997
   638   1             20.37051121              25.6687847      7.5574334700000003
   639   1      24.415500550000001      25.602715280000002      7.3116150099999997
   640   1      28.507909300000001             25.71257915      7.4473957100000003
   641   1    0.097766350000000002      2.5034336800000001      8.2821645999999998
   642   1              3.97718734      2.4048006800000001      8.0494705300000007
   643   1      8.1767429800000002      2.3704556299999999      8.0768714300000006
   644   1             12.17184213      2.4592124000000002      8.0240334400000002
   645   1             16.33706282      2.3629127699999999      8.1049255900000006
   646   1      20.424700470000001      2.2945637099999998      8.1576479800000001
   647   1      24.416973070000001      2.3824398699999998      8.1712079899999992
   648   1      28.359724539999998      2.3556140399999999      8.3107535000000006
   649   1      2.0200063300000002      5.8114803400000001      8.1750296799999997
   650   1      6.1305037999999996      5.8376986200000003      8.1145014100000008
   651   1             10.17234929      5.9148984100000002      8.2263670300000005
   652   1             14.17715544      5.7471806799999996      8.2790820699999994
   653   1      18.260461339999999      6.0426895500000004      8.4535492100000003
   654   1      22.313152890000001      6.0073855700000003      8.3311198999999991
   655   1      26.430050659999999      5.9004596999999999      8.1485837500000002
   656   1              30.3723451      5.8860853000000004      8.0869000999999994
   657   1   -0.080382300000000004      9.4219366600000001      8.3324835499999992
   658   1      4.0663854099999996      9.3463018499999997      8.4059045099999992
   659   1      8.1412219199999996      9.4768920600000008      8.1931342899999997
   660   1      12.176989389999999      9.5284527800000003      8.2421272499999993
   661   1             16.20068346      9.3726467299999996      8.2178729500000003
   662   1      20.247869049999998      9.5470642699999999      8.1809323200000001
   663   1      24.295942180000001      9.3211362799999993      8.3783819699999995
   664   1             28.29241459      9.4597061599999996      8.2336366499999993
   665   1      2.1385252399999999      12.833894819999999      8.1885548200000002
   666   1      6.0238142999999997      12.933555739999999      8.0782147599999998
   667   1             10.11986218             12.88460396      8.1216403899999996
   668   1      14.237472909999999             12.94203727      8.3245990400000007
   669   1             18.16405172      13.044830709999999      8.2286767800000007
   670   1      22.305932640000002             12.87148897      8.2844395800000008
   671   1      26.392019300000001             12.83426613      8.3085612900000001
   672   1      30.547359920000002             13.02961354      8.2370030199999995
   673   1    0.012270379999999999      16.351119059999998      8.1670717100000001
   674   1      4.0507707799999997             16.49625601      8.2869347700000002
   675   1      8.1644879100000001      16.492514549999999      8.2856125400000007
   676   1      12.285135479999999      16.501039859999999              8.19082665
   677   1      16.314799170000001      16.486783460000002      8.3459011000000007
   678   1      20.265690249999999      16.476747979999999      8.3451926099999998
   679   1             24.30379937      16.411183309999998      8.0635029399999993
   680   1              28.2804173      16.338776419999999      8.2742394600000004
   681   1              1.97437726      19.810193300000002      8.2197348800000007
   682   1      5.9218534900000002             19.94997115      8.1808132100000002
   683   1      10.135029039999999             19.96904425      8.3907648899999998
   684   1             14.22275606      19.882432049999998      8.0935171300000004
   685   1      18.154607089999999             19.92730208      7.9366803700000004
   686   1             22.28189407      19.942861910000001      8.2460709600000008
   687   1      26.338892980000001             20.03198454      8.3158837400000003
   688   1             30.37335276      19.832698780000001      8.1668846300000002
   689   1      32.499937170000003             23.51689223      8.3197029699999998
   690   1      4.0824833399999996             23.44300819              8.36341775
   691   1              8.18592312      23.354347239999999      8.3971004699999998
   692   1             12.22257793             23.52854181      8.0729963799999993
   693   1      16.316320640000001             23.52172114      8.0353004299999995
   694   1      20.304890019999998             23.40119219              8.37896705
   695   1      24.367786429999999      23.380386009999999      8.0429959699999998
   696   1      28.344200189999999             23.57371788      8.2630900300000008
   697   1      2.1007482199999998             27.11004204      8.1215618000000003
   698   1      6.1104679400000004      26.982641529999999      8.2221781099999998
   699   1             10.11572091      26.886624829999999              8.21396631
   700   1             14.23362998      27.066742489999999      8.2571813899999995
   701   1      18.365853489999999      26.924721859999998      8.1425502499999993
   702   1      22.317575229999999             26.91846134      8.1552667099999994
   703   1      26.553383100000001      26.931221319999999      8.3352125400000006
   704   1      30.568842960000001      26.987151369999999      8.1940256199999997
   705   1  0.00065592999999999999    0.043994289999999998      8.9633989700000001
   706   1      4.1668759299999998      28.205663139999999      8.8909575099999998
   707   1      8.2339035700000007      28.161189239999999      8.8509121000000004
   708   1             11.99190514    0.033905539999999998      8.7872462900000006
   709   1      16.529189209999998    0.033889570000000001      9.0026367999999994
   710   1      20.438120619999999      28.018437380000002      9.0404241299999999
   711   1      24.137074739999999  -0.0033969299999999998      9.0168954400000008
   712   1      28.452555919999998   0.0090808899999999994      9.1096752700000003
   713   1              2.06596877      3.6069438300000001      9.0677148200000008
   714   1      6.0638025500000001      3.5027794999999999      8.8680470699999994
   715   1             10.22184313      3.5933940899999999      8.8027183400000002
   716   1              14.2985983      3.3321652500000001      8.8910377399999998
   717   1      18.203355930000001      3.6336779199999998      9.0073399599999995
   718   1      22.527436470000001      3.6407330999999998      8.9197544700000009
   719   1      26.413699229999999      3.6006817500000001      8.9980337600000002
   720   1      30.330228569999999      3.5064799500000001      8.8928253999999995
   721   1    0.020820040000000001      7.0199158500000003      8.7989708400000008
   722   1      4.1247130800000003      6.9567578599999997      9.0176665200000006
   723   1      8.1172886299999991              7.10296138      8.9211421200000007
   724   1             12.11919715              7.28116378      8.9604260799999995
   725   1             16.09393747      7.1934909400000002      8.9669940300000004
   726   1      20.376369050000001      7.3093995400000003      9.0066268699999998
   727   1      24.342247660000002      7.0839998099999999      8.9431295800000008
   728   1      28.437275809999999      7.0904997300000003      8.8922738900000002
   729   1      2.1037635899999998             10.64003007              8.95355904
   730   1      5.9833665399999996      10.756836959999999      8.8975249299999994
   731   1      10.066076669999999      10.636475920000001      9.0359485500000005
   732   1             14.22267826             10.58911837      9.0162105100000005
   733   1      18.271500379999999             10.51522896      8.9670658900000006
   734   1      22.210760220000001      10.460762239999999      9.1382335399999999
   735   1      26.381288869999999             10.43083066      9.0025182299999997
   736   1             30.25323813             10.71700586      9.0455204299999998
   737   1    0.053893879999999998             13.99169521      8.9821656900000004
   738   1              4.16171515      14.270017409999999      9.0246862799999992
   739   1      7.9303810199999996             14.21040528      8.8184782800000008
   740   1      12.084650509999999             14.04700018      9.0079755699999993
   741   1      16.167035340000002             14.09315662      9.0934485299999999
   742   1      20.273586649999999             14.12974331      8.9841066099999995
   743   1      24.462956930000001             14.08148768      8.9311115999999995
   744   1      28.392885499999998      14.032173820000001      9.1173772300000007
   745   1      2.0439815800000001      17.467340610000001      8.8855510599999992
   746   1      6.3086280600000002      17.641671970000001      9.0201816600000004
   747   1      10.202176290000001      17.489491489999999      8.9252706800000006
   748   1              14.2395882      17.487596360000001      9.0744971000000003
   749   1      18.386750190000001      17.770667979999999      9.0065347199999994
   750   1      22.574811029999999      17.658293560000001      9.0200048200000005
   751   1      26.365936380000001      17.518900030000001      8.9926689900000003
   752   1      30.339200819999999      17.358800460000001              9.05515078
   753   1              0.03230073             21.12913429      8.9370761299999995
   754   1      3.8105966900000001      21.143297400000002      9.0245747099999996
   755   1      7.9283539699999999      20.911366999999998               9.1370746
   756   1             12.31273094      21.305012699999999      8.9094564500000004
   757   1      16.236242480000001      20.996360760000002      8.7727733299999997
   758   1      20.424370239999998      21.150699110000001      8.9395648699999999
   759   1      24.248493159999999      21.147710700000001      9.0723722599999999
   760   1      28.493660729999998      21.087580450000001      8.9864235200000007
   761   1      2.0855830700000002      24.682783579999999      8.9258694199999997
   762   1      6.2422819900000004      24.500731649999999      9.0830107299999998
   763   1      10.124013700000001      24.703585499999999      9.0660498199999999
   764   1             14.26238839      24.595128979999998      8.8236132200000004
   765   1      18.275639030000001      24.770846160000001      9.0535637900000001
   766   1      22.494415029999999      24.661390870000002      9.0886567700000001
   767   1      26.165785400000001             24.51581006      9.1025445099999995
   768   1             30.59611469      24.705691359999999      8.9105339800000003
   769   2      23.473586659999999      26.353337440000001      9.4748243799999994
   770   2              25.1878782             26.18343617      9.4613273400000004
