N2-dn2-coord-10bar/700K/snapshots/frame-125003/run-000/../data.lammps (written by ASE) 

770 	 atoms 
2  atom types
0.0      32.470343392086264  xlo xhi
0.0      28.120142247150884  ylo yhi
0.0      31.213473999158239  zlo zhi


Atoms 

     1   1      2.0293964600000001      1.1716090800000001    0.023552650000000001
     2   1      6.0880008999999999              1.17168918              0.02556874
     3   1      10.146952280000001              1.17170328    0.025416459999999998
     4   1      14.205754900000001      1.1716496700000001              0.02501565
     5   1             18.26456816              1.17166478              0.02504435
     6   1             22.32338141      1.1716496700000001              0.02501565
     7   1      26.382184030000001              1.17170328    0.025416459999999998
     8   1      30.441135410000001              1.17168918              0.02556874
     9   1  9.1780000000000006e-05      4.6866847900000002    0.025581599999999999
    10   1      4.0587011400000002      4.6866847900000002    0.025581599999999999
    11   1      8.1174961000000003      4.6866290399999997    0.025584639999999999
    12   1             12.17638011      4.6866852999999997              0.02491202
    13   1             16.23517979      4.6866942700000003    0.025006210000000001
    14   1      20.293956519999998      4.6866942700000003    0.025006210000000001
    15   1      24.352756209999999      4.6866852999999997              0.02491202
    16   1      28.411640219999999      4.6866290399999997    0.025584639999999999
    17   1      2.0293964600000001      8.2016395800000002    0.026613040000000001
    18   1      6.0881071599999999      8.2016314300000008              0.02543782
    19   1             10.14701835               8.2017045    0.025156850000000001
    20   1      14.205766049999999      8.2017080900000003    0.024990459999999999
    21   1             18.26456816      8.2017077599999997    0.025091249999999999
    22   1      22.323370260000001      8.2017080900000003    0.024990459999999999
    23   1      26.382117969999999               8.2017045    0.025156850000000001
    24   1      30.441029149999999      8.2016314300000008              0.02543782
    25   1  9.2789999999999998e-05             11.71671873    0.025573410000000001
    26   1              4.05870014             11.71671873    0.025573410000000001
    27   1      8.1176017700000003             11.71668698              0.02497914
    28   1             12.17637068             11.71673069    0.025001590000000001
    29   1      16.235177310000001      11.716730249999999    0.025074039999999999
    30   1      20.293959009999998      11.716730249999999    0.025074039999999999
    31   1      24.352765640000001             11.71673069    0.025001590000000001
    32   1      28.411534549999999             11.71668698              0.02497914
    33   1      2.0293964600000001             15.23167155              0.02525285
    34   1      6.0881728300000004      15.231678799999999    0.025062859999999999
    35   1             10.14698486      15.231762639999999               0.0250786
    36   1             14.20578841             15.23176782    0.025201990000000001
    37   1             18.26456816              15.2317707    0.025149979999999999
    38   1      22.323347900000002             15.23176782    0.025201990000000001
    39   1      26.382151459999999      15.231762639999999               0.0250786
    40   1      30.440963480000001      15.231678799999999    0.025062859999999999
    41   1      32.470327990000001      18.746748629999999    0.024951939999999999
    42   1      4.0588083299999997      18.746748629999999    0.024951939999999999
    43   1      8.1175770200000006      18.746803499999999    0.025222040000000001
    44   1             12.17637459      18.746799750000001    0.025428470000000002
    45   1      16.235159400000001      18.746805200000001    0.025487360000000001
    46   1      20.293976919999999      18.746805200000001    0.025487360000000001
    47   1      24.352761730000001      18.746799750000001    0.025428470000000002
    48   1             28.41155929      18.746803499999999    0.025222040000000001
    49   1      2.0293964600000001      22.261939099999999    0.025844880000000001
    50   1      6.0881419299999999      22.261841799999999    0.025489439999999999
    51   1             10.14692954             22.26176895              0.02551757
    52   1             14.20573559      22.261804690000002    0.025639160000000001
    53   1             18.26456816             22.26178625    0.025640119999999999
    54   1      22.323400729999999      22.261804690000002    0.025639160000000001
    55   1      26.382206780000001             22.26176895              0.02551757
    56   1             30.44099439      22.261841799999999    0.025489439999999999
    57   1  5.6450000000000003e-05      25.776936450000001              0.02613327
    58   1      4.0587364700000004      25.776936450000001              0.02613327
    59   1      8.1175325399999991              25.7767713    0.024734180000000001
    60   1      12.176376469999999      25.776831090000002              0.02545323
    61   1      16.235145939999999      25.776775220000001    0.025273360000000002
    62   1             20.29399038      25.776775220000001    0.025273360000000002
    63   1      24.352759840000001      25.776831090000002              0.02545323
    64   1      28.411603769999999              25.7767713    0.024734180000000001
    65   1  0.00024266000000000001              2.34304215     0.80166565000000001
    66   1      4.0585502699999996              2.34304215     0.80166565000000001
    67   1      8.1157394600000003              2.34454954     0.80169402000000001
    68   1             12.17601256      2.3433829099999999     0.80116898000000003
    69   1      16.235258170000002      2.3433209100000001     0.80090046999999998
    70   1      20.293878150000001      2.3433209100000001     0.80090046999999998
    71   1      24.353123750000002      2.3433829099999999     0.80116898000000003
    72   1      28.413396859999999              2.34454954     0.80169402000000001
    73   1      2.0293964600000001      5.8582218700000004     0.80119762000000005
    74   1      6.0870566899999998      5.8583336700000004              0.80194851
    75   1             10.14649655              5.85853131     0.80121584000000001
    76   1             14.20597894      5.8582938599999999     0.80086840999999998
    77   1             18.26456816      5.8583798500000004               0.8010794
    78   1      22.323157380000001      5.8582938599999999     0.80086840999999998
    79   1             26.38263976              5.85853131     0.80121584000000001
    80   1      30.442079629999999      5.8583336700000004              0.80194851
    81   1  0.00019438999999999999      9.3717771800000005     0.80082061000000004
    82   1      4.0585985400000002      9.3717771800000005     0.80082061000000004
    83   1      8.1175070500000004      9.3725002699999997     0.80149060999999999
    84   1      12.176590020000001      9.3733583399999993     0.80088261999999999
    85   1             16.23512199      9.3733789200000004              0.80106506
    86   1             20.29401433      9.3733789200000004              0.80106506
    87   1      24.352546289999999      9.3733583399999993     0.80088261999999999
    88   1      28.411629269999999      9.3725002699999997     0.80149060999999999
    89   1      2.0293964600000001             12.88692854     0.80220621000000003
    90   1      6.0883212999999996             12.88743848     0.80138414999999996
    91   1      10.147128609999999             12.88859852     0.80085256000000005
    92   1             14.20571782      12.888558189999999     0.80113791000000001
    93   1             18.26456816      12.888409899999999     0.80109381000000002
    94   1      22.323418490000002      12.888558189999999     0.80113791000000001
    95   1             26.38200771             12.88859852     0.80085256000000005
    96   1      30.440815019999999             12.88743848     0.80138414999999996
    97   1              0.00012365      16.403222639999999     0.80145666999999998
    98   1      4.0586692700000002      16.403222639999999     0.80145666999999998
    99   1      8.1174337899999998      16.403825260000001     0.80097196999999998
   100   1              12.1761021             16.40390721     0.80133072000000005
   101   1             16.23503496      16.403861750000001     0.80140014999999998
   102   1      20.294101359999999      16.403861750000001     0.80140014999999998
   103   1      24.353034220000001             16.40390721     0.80133072000000005
   104   1      28.411702529999999      16.403825260000001     0.80097196999999998
   105   1      2.0293964600000001      19.919205120000001     0.80066369999999998
   106   1              6.08752564             19.91894023     0.80122479000000002
   107   1      10.146078839999999             19.91919038     0.80159137999999996
   108   1      14.204993419999999              19.9192584     0.80178742000000003
   109   1             18.26456816      19.919377350000001     0.80194975999999996
   110   1      22.324142899999998              19.9192584     0.80178742000000003
   111   1      26.383057470000001             19.91919038     0.80159137999999996
   112   1      30.441610669999999             19.91894023     0.80122479000000002
   113   1              0.00142012      23.434536609999999     0.80178442000000005
   114   1      4.0573728100000004      23.434536609999999     0.80178442000000005
   115   1      8.1165862000000004      23.433936769999999     0.80182306000000003
   116   1             12.17555218      23.433996919999998     0.80156656000000004
   117   1             16.23465491      23.434040110000002     0.80170828999999999
   118   1      20.294481409999999      23.434040110000002     0.80170828999999999
   119   1      24.353584130000002      23.433996919999998     0.80156656000000004
   120   1      28.412550110000002      23.433936769999999     0.80182306000000003
   121   1      2.0293964600000001      26.949875330000001              0.80297246
   122   1      6.0858208300000003      26.950066320000001              0.80215291
   123   1             10.14598146      26.949241430000001     0.80165810000000004
   124   1             14.20520604      26.948673230000001     0.80131923999999999
   125   1             18.26456816             26.94858318     0.80108193999999999
   126   1      22.323930279999999      26.948673230000001     0.80131923999999999
   127   1      26.383154860000001      26.949241430000001     0.80165810000000004
   128   1             30.44331549      26.950066320000001              0.80215291
   129   1      32.415160999999998      28.246125760000002      1.4346085500000001
   130   1               3.9603921    0.094932409999999995              1.36129286
   131   1      8.1591042300000005  -0.0097137500000000002              1.45347629
   132   1             12.13822425             -0.00388149               1.4703203
   133   1      16.045085279999999      28.124176460000001      1.6049906199999999
   134   1      20.368722399999999   -0.070511770000000001      1.4513133600000001
   135   1             24.30570814      28.050586160000002              1.42330716
   136   1      28.563663649999999 -0.00059022999999999996      1.5237053700000001
   137   1      1.8643681000000001      3.7066357299999999      1.4841210199999999
   138   1      6.2283185699999999      3.4564103500000001              1.39918633
   139   1      10.212848920000001      3.5644756200000001      1.4487601400000001
   140   1             14.15938849              3.62462485              1.53909118
   141   1      18.323223410000001      3.4770401899999999              1.43037809
   142   1             22.40976367               3.5418265      1.4725539400000001
   143   1             26.27040191      3.5064564499999999      1.6588335000000001
   144   1             30.51376673      3.6204525200000002              1.51851077
   145   1      32.432264660000001              7.10410114              1.42442066
   146   1      4.1617832999999997      7.0965459900000001              1.44644533
   147   1      8.1627491400000007      6.9296326800000001      1.6518732300000001
   148   1             12.22178845      7.1076722700000001      1.5130770600000001
   149   1              16.2185205      7.2190422400000003      1.5237909700000001
   150   1      20.363439840000002      7.0649326300000004      1.6754103499999999
   151   1      24.295557160000001      7.1418097300000003              1.42167383
   152   1      28.286002620000001      7.0784420700000004      1.4685037000000001
   153   1      1.9887810100000001             10.59573131      1.4121030800000001
   154   1      6.0478711599999997             10.52345658              1.59039945
   155   1             10.13412681      10.557300570000001      1.6135564600000001
   156   1             14.24864887             10.65738045              1.46508755
   157   1      18.241066610000001             10.40873841      1.6880158000000001
   158   1             22.35397506      10.502286489999999              1.52365678
   159   1      26.422194390000001             10.50846988      1.4046118999999999
   160   1             30.32076035             10.55966374      1.4671284899999999
   161   1      32.570059569999998      14.125424430000001              1.30295384
   162   1              3.96295917             14.04760894      1.4694927200000001
   163   1      8.0232722299999999      14.042533990000001      1.8318057400000001
   164   1             12.08172474      14.048213349999999      1.6101597700000001
   165   1      16.207057599999999             13.99901011              1.46983146
   166   1              20.3823677             14.03663057      1.4395494600000001
   167   1              24.3787117             14.21173662      1.6940685200000001
   168   1      28.324580529999999             14.09778674              1.30759341
   169   1      2.0629774400000001      17.576746239999999              1.39216904
   170   1      5.9056158400000003      17.648675870000002      1.5073949499999999
   171   1      10.036914579999999      17.656801260000002      1.4117761499999999
   172   1      14.214734760000001      17.369535670000001      1.5055848700000001
   173   1             18.40998197             17.54112323              1.21350359
   174   1      22.289023530000001             17.46528198      1.4697407499999999
   175   1      26.121660309999999             17.44639892              1.38431083
   176   1      30.410610670000001      17.527397090000001                1.447187
   177   1      32.754187940000001             21.14561986      1.5889864499999999
   178   1      3.9132965899999999      21.076629950000001               1.3801075
   179   1              8.27831121      21.056609170000002      1.4927075400000001
   180   1             12.14226506      20.874777850000001      1.4062791100000001
   181   1      16.165691989999999      21.136320309999999              1.35341723
   182   1      20.227321920000001             21.09380839      1.2364835000000001
   183   1      24.329747709999999      21.153201920000001              1.58473592
   184   1      28.559915499999999      21.030864300000001      1.4785381799999999
   185   1      1.9008611200000001             24.66153679      1.4837154299999999
   186   1              6.21350158             24.67550838      1.4255009999999999
   187   1      10.165811679999999             24.64565576      1.2872516700000001
   188   1             14.34475166      24.685246360000001      1.3627590999999999
   189   1             18.29553787             24.64608398               1.7069775
   190   1      22.309587199999999             24.62216935              1.59943613
   191   1      26.355017669999999             24.53137589              1.52797512
   192   1      30.463634160000002      24.621170639999999      1.5216566899999999
   193   1               2.1465489              1.32136115      2.4048784400000001
   194   1      5.8945275199999996              1.25753085               2.3741789
   195   1             10.09008107      1.0995558599999999      2.3032511200000001
   196   1             14.14064969              1.29292647      2.4212696399999998
   197   1      18.162003469999998      1.2808659200000001      2.3779577700000001
   198   1      22.185283349999999      1.1431574099999999      2.3908979600000002
   199   1      26.434969039999999              1.19359098      2.3039999999999998
   200   1              30.3547479              1.10287322              2.38877614
   201   1      32.483327719999998      4.8278273199999999      2.4822845500000001
   202   1      3.9467006800000002      4.5806910900000002              2.38639644
   203   1      8.0476793900000008      4.6338453800000003      2.6047765599999999
   204   1             12.08873739      4.7294679000000004      2.3822329799999999
   205   1      16.254487099999999      4.9809896800000004              2.47085621
   206   1             20.26177702      4.7811866199999997      2.4199909599999998
   207   1      24.385587839999999      4.8918712500000003      2.6232672099999998
   208   1      28.368769589999999      4.6493618999999997      2.3178864099999998
   209   1      2.0851555300000002      8.1373358099999997      2.4010257400000001
   210   1      6.1745137300000001      8.1168408799999998      2.3823621300000002
   211   1             10.15930734      8.4651890200000004      2.4708673499999998
   212   1      14.165269909999999      8.2867381699999996      2.3634547499999998
   213   1      18.415966260000001      8.2865164500000006      2.5293039400000001
   214   1      22.264258040000001      8.2728836999999995      2.5404626000000001
   215   1      26.316358869999998      8.3639164899999994      2.3804914799999999
   216   1      30.185018809999999      8.3570879199999997                2.378066
   217   1      32.371157760000003      11.670571410000001      2.3455779400000001
   218   1      3.9781855400000001      11.772408649999999              2.43289986
   219   1      8.0580002099999994             11.65114498      2.4071240500000002
   220   1      12.246021580000001             11.75690719      2.3551669099999999
   221   1      16.186282599999998              11.6926272      2.3645066300000002
   222   1      20.332218480000002               11.716567      2.4358218100000002
   223   1      24.394703610000001      11.772837040000001      2.3788513400000002
   224   1             28.52840153             11.69676948      2.3162907399999999
   225   1      2.1193671200000002      15.278238160000001      2.4413668799999999
   226   1      5.9006458400000001             15.21734391              2.33102521
   227   1             10.01818241      15.402155970000001      2.3649354499999999
   228   1             14.11212974      15.098383950000001              2.46202247
   229   1      18.327208250000002             15.16516607                2.532718
   230   1             22.33380047             15.16562304      2.6304719699999999
   231   1      26.449987149999998      15.204280280000001      2.3397076999999999
   232   1      30.456281130000001             15.14327226      2.2329072700000001
   233   1     0.14747159000000001      18.811536440000001              2.52093261
   234   1               3.9620004             18.82226395      2.4102357699999999
   235   1      8.0764320299999994      18.803448469999999      2.3879919699999999
   236   1      12.156174699999999             18.66120489              2.32789307
   237   1      16.190127950000001      18.801636649999999              2.41843181
   238   1             20.42722097             18.89064531      2.4731657600000001
   239   1      24.340214329999998      18.608966330000001      2.4181779900000002
   240   1      28.503424949999999      18.645885679999999      2.5898047200000001
   241   1      1.9598150599999999      22.502627879999999      2.4426031899999998
   242   1              6.16674656      22.272754939999999      2.4823296799999999
   243   1      10.116304380000001             22.31012934      2.4014107199999999
   244   1             14.01031126      22.304524560000001      2.4729029200000001
   245   1      18.359870780000001             22.22130486      2.4151376600000001
   246   1      22.374069160000001      22.330249309999999      2.4991231599999999
   247   1      26.412741459999999             22.17237364              2.64171157
   248   1      30.437702609999999             22.25849608      2.3264992100000002
   249   1      32.411656819999997      25.866786900000001      2.3523125299999998
   250   1      4.0706644299999999      25.682813209999999      2.3120483599999999
   251   1      8.1535247099999992      25.680478959999999      2.4449267200000002
   252   1             12.17234517      25.673722380000001      2.4199990900000001
   253   1      16.371121290000001             25.92006237      2.5629453400000002
   254   1             20.21468926             25.78922592      2.5454450999999998
   255   1      24.268069440000001      25.836654530000001              2.46855308
   256   1             28.32871974      25.695787790000001      2.4175408100000002
   257   1   -0.084318589999999999              2.29568979      3.3168147299999999
   258   1      4.0156625100000003      2.4433999200000001      3.2257561799999999
   259   1      8.0890997999999996      2.2950696700000002      3.3881488200000001
   260   1              12.1768983      2.3893901999999998      3.3498572800000002
   261   1      16.098367079999999      2.3669390099999998      3.3650611499999998
   262   1             20.29498392      2.3357937400000002      3.3686336300000002
   263   1             24.25563069      2.2057128100000001      3.2474147200000001
   264   1      28.399833709999999      2.3264415700000001      3.2969883599999998
   265   1      1.9423871500000001              5.87071217      3.2145322200000002
   266   1      6.0617036400000002      5.7164827200000001      3.3714887299999998
   267   1      10.156209499999999      6.0555447300000003      3.2420510199999999
   268   1      14.134248639999999      6.2020417800000001              3.34374131
   269   1             18.20661024      5.6409417599999996      3.3667709100000001
   270   1      22.190026289999999      5.7299474500000001      3.4808986399999999
   271   1      26.041251410000001      6.0783347499999998      3.3104206899999999
   272   1      30.169130880000001      5.9114363399999998      3.2777366200000002
   273   1      32.423834769999999      9.2878441299999999      3.1775758999999999
   274   1      3.9883261700000001      9.4220143499999995      3.1938896099999998
   275   1      8.0434280699999992      9.3818500599999997      3.2329907100000002
   276   1             12.20940663      9.5321468500000002      3.1854864100000002
   277   1      16.107134680000001      9.3149060099999996      3.2345795700000002
   278   1             20.17321329      9.5639685300000004      3.4633677700000001
   279   1             24.43378375      9.5463049899999994      3.3162642199999999
   280   1      28.231468320000001      9.3884705799999999      3.2993322300000001
   281   1              1.95545949              12.9840432      3.2449105399999998
   282   1              6.17823499      12.855898290000001      3.3848158800000001
   283   1      10.132013949999999      12.875807200000001      3.4120232399999999
   284   1              14.2368349      12.942199909999999      3.5046472400000002
   285   1      18.269227010000002      12.705843509999999      3.2580122899999999
   286   1             22.24540163             12.81836521      3.3481649099999999
   287   1      26.471236640000001      12.800192020000001              3.23459729
   288   1      30.613871710000002      13.012859479999999      3.3084296100000001
   289   1    0.078989119999999996      16.232774540000001      3.2643388999999998
   290   1      3.9752158899999999      16.367914679999998      3.1125660900000001
   291   1      8.0483272299999999      16.302344269999999      3.1661596099999998
   292   1             11.99410022      16.284536200000002      3.2094701799999998
   293   1      16.237282069999999      16.275748109999999      3.0991616099999999
   294   1      20.487044860000001             16.32703308              3.27853423
   295   1      24.426143190000001      16.321803930000002      3.4078646199999998
   296   1      28.346859940000002      16.449872580000001      3.2094687899999998
   297   1      1.8336107399999999      20.173787449999999      3.2401625200000002
   298   1              6.04996723      19.887478770000001      3.4916055400000001
   299   1      9.9567319300000001      19.996163589999998      3.1435091100000001
   300   1             14.13595501             20.04103078      3.2193692999999999
   301   1             18.26493202      20.016441440000001      3.1517430000000002
   302   1      22.363370209999999      19.992323559999999      3.2600463400000002
   303   1      26.380634369999999             19.89846524              3.17069891
   304   1      30.388985569999999      19.985890009999999      3.1593994300000001
   305   1    -0.10087699999999999      23.533071809999999      3.3084881099999999
   306   1      4.0068864199999998      23.407320940000002      3.2872364799999998
   307   1      8.0894772600000007      23.470154010000002      3.2915442000000001
   308   1      12.058668709999999             23.53340223      3.4779138000000001
   309   1      16.018618920000002      23.471686470000002      3.1916419299999998
   310   1      20.298831509999999             23.55502813               3.5119414
   311   1             24.42772128      23.366054720000001      3.2226100799999999
   312   1             28.44106348      23.378069180000001              3.29020074
   313   1      2.0259790799999999      27.060418930000001      3.2279305100000002
   314   1      5.9208681099999998             27.10998429      3.2673425300000001
   315   1      10.205795760000001      27.056541760000002      3.2987024800000002
   316   1      14.286141819999999      26.888539139999999      3.2254568099999998
   317   1      18.314419319999999      26.908935809999999      3.3483649500000001
   318   1             22.22271151      27.024655320000001      3.3989666199999999
   319   1             26.25159262      26.829959030000001      3.3634004399999999
   320   1      30.310183510000002      26.915760509999998      3.1693230300000002
   321   1      32.492772350000003  -0.0026183199999999999      4.0603219399999997
   322   1      3.9637232500000001   -0.055308860000000001      4.0071970500000003
   323   1      8.2427270400000001     0.21312121000000001      4.0040710600000002
   324   1      12.247177900000001             -0.06151856      4.1377847599999997
   325   1      16.354911749999999    0.038161550000000002      4.4063959700000002
   326   1             20.22533928             -0.10668322              4.14454776
   327   1      24.359419339999999    -0.10776732999999999      3.9494675899999998
   328   1             28.32119698      28.122784710000001      4.0157205200000003
   329   1              1.92318061      3.5497794699999998      4.0642952699999997
   330   1      6.0424437700000002              3.53374561              4.11821679
   331   1      10.240627890000001      3.5705620200000001      4.1181017500000001
   332   1             14.20835864              3.63976926      4.2109538300000002
   333   1      18.113458189999999      3.4215625099999998      4.2497662700000003
   334   1             22.15468873      3.2734443099999999      4.0530510700000004
   335   1      26.212694039999999      3.7699485400000001      4.1141733699999996
   336   1      30.160899050000001              3.63209684      4.0378187499999996
   337   1      32.327968140000003      7.0381194499999999      4.1243913499999998
   338   1              3.93391176      6.9446989099999996              3.87348399
   339   1      8.2876578399999996      7.0234946000000003      4.0294649800000002
   340   1             12.14870026      7.2580784899999999      4.0796161399999997
   341   1             16.30925508      6.9683463699999999      4.0417390700000002
   342   1      20.223559210000001      6.9620474899999998      4.0007390599999999
   343   1      24.273676179999999      7.1894862399999999      4.2951120300000003
   344   1      28.193407959999998      7.0532983400000004      4.1187302199999998
   345   1      1.9782906499999999             10.64817306      4.0781995200000001
   346   1      6.0555679900000001      10.460451279999999      4.1620673300000002
   347   1      10.142725390000001             10.74703431      4.1034336099999997
   348   1      14.050018359999999      10.447067479999999      4.4721428200000002
   349   1      18.077165170000001             10.51674073              4.19297057
   350   1      22.368812999999999              10.5584443      4.1001967199999996
   351   1      26.414674739999999             10.51926276      4.0982284800000004
   352   1      30.527455570000001             10.53733662      4.0760284599999999
   353   1              32.6308224             14.17413024              4.28361781
   354   1      3.8551768000000002             14.06845547      3.9751003699999998
   355   1      8.0281693199999999             14.10519942      4.1754875299999998
   356   1             12.14343442             14.01887771      4.0443087499999999
   357   1      16.237395599999999             14.03738102      4.0969412900000002
   358   1      20.305971469999999             14.06988758      4.2218667099999996
   359   1      24.379226930000002             14.06538359      4.1913321000000003
   360   1      28.535438460000002             14.19828521      3.8820318500000002
   361   1              2.05883891             17.65871572              3.95080622
   362   1      6.0452434799999999      17.611004569999999      4.0690338400000003
   363   1             10.18142012             17.59408986      4.1143615999999996
   364   1             14.22925545      17.554969570000001      3.9345970600000002
   365   1      18.311648290000001      17.424966860000001      3.9966529400000002
   366   1      22.473597340000001      17.656609360000001      4.0997342999999997
   367   1      26.395229130000001             17.70012865      4.0442772099999997
   368   1      30.650472709999999             17.67565493      4.0434018800000002
   369   1   -0.063059950000000004      21.109480770000001      4.0714131900000003
   370   1      3.9216215399999999             21.04544662              4.26715657
   371   1      8.2094998100000005      21.234860980000001      4.2351367099999999
   372   1              11.9846919      20.966335350000001      4.0213264899999999
   373   1      16.188814449999999      21.084893269999998      4.1292081200000004
   374   1      20.303118909999998      21.080352619999999      4.0284148000000002
   375   1      24.590994810000002      21.007485590000002      4.3832366699999996
   376   1      28.470833949999999             21.06434243      4.0346734800000004
   377   1              1.96848377             24.59186772      3.7855908199999999
   378   1      6.0892138999999998      24.675076690000001      4.0069855399999996
   379   1             10.04343957      24.734242569999999      4.0916118099999998
   380   1      14.040489389999999             24.64586813      4.3261703799999998
   381   1      18.124865329999999      24.692278439999999      4.1867730200000004
   382   1             22.37391835      24.535120509999999      4.2497684500000004
   383   1             26.35945886      24.465364990000001      4.2337448100000001
   384   1      30.391626429999999      24.675139210000001              4.11694315
   385   1      2.0144917900000001      1.2376987399999999      4.9084687799999998
   386   1      6.1279967600000003      1.3487592100000001      4.9238311100000001
   387   1             10.16476185              1.26811162      5.0847015000000004
   388   1      14.251046110000001              1.40454733      4.8743783299999999
   389   1      18.287584320000001      1.0155205899999999      5.0591120600000004
   390   1             22.40427523              1.08743944      4.9936577499999997
   391   1      26.323574690000001      1.1378286799999999      4.8622519000000004
   392   1      30.532505270000001              1.19213119      4.8464818899999997
   393   1             -0.18690978      4.5477561499999997      4.8900601200000002
   394   1      4.1247408200000004      4.5597840700000001      4.8999343800000004
   395   1      8.0990791899999994      4.8425758099999996      4.9820122199999997
   396   1             12.20164097      4.9450112199999996              4.91606363
   397   1      16.082581879999999      4.6425131500000001      4.9512782199999998
   398   1      20.219655039999999      4.6855076499999999      4.8774872599999997
   399   1      24.221963290000001      4.7248385800000001      5.0634105299999996
   400   1             28.26739177      4.6242372899999999      4.8497137500000003
   401   1              1.98295691      8.1524720599999991      4.6340277900000002
   402   1      6.0891592299999999      8.1669377999999995      4.7223502799999997
   403   1      10.143365899999999      8.3966014199999996      4.8839384900000002
   404   1      14.003516360000001      8.1838238099999998      5.2604448599999998
   405   1      18.163349589999999      8.2131255999999997      4.9957250000000002
   406   1      22.149740170000001      8.1373663599999997              5.03973402
   407   1      26.228754429999999      8.4070965300000005              5.16583477
   408   1      30.328118190000001      8.3037330100000002      4.8749784900000002
   409   1      32.481791209999997             11.94362666               4.9922195
   410   1      4.0470256999999998      11.541196729999999      4.8898003299999999
   411   1      8.0699556099999992             11.68791882      5.0628211299999997
   412   1             12.13322952             11.99016825      5.1676268800000003
   413   1             16.12272797      11.829732910000001      5.0076551299999998
   414   1      20.167902219999998             11.75057606      5.0313545800000004
   415   1      24.462223359999999             11.82757144      4.8702221799999998
   416   1               28.436156             11.58511863      4.8365137100000002
   417   1              1.94362072             15.37916439      5.0587452900000001
   418   1      5.9401648099999997             15.03485547      4.8072941399999998
   419   1      9.9824026200000002             15.31042729      4.9037109799999996
   420   1             14.10040884      15.179866199999999      5.0098941200000002
   421   1      18.102627340000002             15.22758514              5.03278479
   422   1      22.317834260000001             15.19634226      5.0901718200000001
   423   1             26.39035457             15.37911239      4.9691271400000003
   424   1      30.465106890000001      15.388463639999999      4.8607017499999996
   425   1      32.660852009999999      18.787982880000001      5.2484645399999996
   426   1              3.91005292             18.85699674      4.9475534400000001
   427   1      7.9943665499999996      18.690013270000001      4.9826283699999996
   428   1      12.060672840000001             18.73083389      4.7769996199999998
   429   1      16.116777979999998      18.746799280000001      4.9290668100000001
   430   1      20.295436930000001      18.692416189999999      4.9305528299999999
   431   1      24.507477040000001      18.869479030000001      5.1505731299999997
   432   1      28.399976720000002             18.80522539              4.79014674
   433   1      1.9897077000000001      22.335152990000001      4.8861541600000002
   434   1              6.00524083      22.205670420000001      4.8526354100000004
   435   1             10.10480233      22.422374059999999      4.8664596500000004
   436   1      14.066930409999999             22.31460646      4.8410251400000002
   437   1      18.141596570000001             22.30860015      4.7699678099999998
   438   1      22.344445019999998      22.118608810000001      5.2196239100000001
   439   1      26.291565330000001      22.292501869999999      5.1595811300000003
   440   1      30.404763020000001      22.298617620000002      4.7575290399999997
   441   1      32.484665630000002      25.691698720000002      4.9560329799999998
   442   1      4.1221073199999996      25.742057379999999      4.8273678000000002
   443   1      8.0250262499999998      25.894030699999998      4.8684284699999996
   444   1      12.125903660000001      25.846423600000001      5.1178005500000001
   445   1             16.16808606      25.724534630000001      5.1575715799999999
   446   1             20.34867251      25.808387140000001      5.2452790900000004
   447   1      24.458151610000002      25.902014680000001      4.9503545500000001
   448   1             28.50107822      25.834982669999999      4.9760121100000001
   449   1      32.494888619999998      2.1743012500000001      5.7283615699999997
   450   1      3.9795781200000002              2.21392071              5.67422205
   451   1      8.1324860700000006      2.4340723299999998      5.7756534400000001
   452   1      12.134232730000001      2.5750196000000001              5.80689191
   453   1             16.23779635      2.3674171899999998      5.7832714799999998
   454   1      20.301096229999999      2.2536107200000002      5.6804921899999998
   455   1      24.274610899999999      2.2544753599999998      5.7636248300000004
   456   1             28.34259089      2.1430720399999998      5.5091455500000004
   457   1      1.8776459599999999      5.6145712100000003      5.5831606100000002
   458   1      6.0321844799999997              5.80107938      5.6471695200000003
   459   1      10.359242119999999      6.1069304300000002      5.7513230699999998
   460   1             14.19014072      5.9404439699999996      5.8936799200000003
   461   1             18.30062186      5.9815770600000002              6.02877025
   462   1      22.122951029999999      5.8300610300000004      6.0191349399999998
   463   1      26.219947470000001      5.9874236500000002      5.8765887699999997
   464   1             30.39464882      5.9756638200000003              5.82468129
   465   1    -0.13438201999999999      9.2665701600000006      5.7002234500000002
   466   1      3.8363063799999999      9.3851164800000006      5.5979515800000001
   467   1              7.99949698      9.3991282500000004      5.7599579800000003
   468   1             12.09549344      9.6175516200000004      5.7033946200000001
   469   1             16.23960537      9.5270151300000006      5.9210851499999997
   470   1      20.017588100000001      9.3776937799999995      5.9234129900000001
   471   1      24.193843600000001      9.4283914099999997      5.8301012999999999
   472   1      28.286784999999998      9.4022880499999992      5.9303935399999999
   473   1      1.9829961300000001             13.01708103      5.8928914299999997
   474   1      6.0043245499999998             12.73833561      5.7410411999999997
   475   1              10.2250836      13.163907249999999      5.8851979700000001
   476   1      14.202564949999999      13.232988089999999      6.0382306300000002
   477   1             18.23136981             12.96170753      5.8259012999999999
   478   1      22.201093319999998             12.97092269      5.8867963400000001
   479   1      26.499352030000001              12.9795835      5.6065485300000004
   480   1      30.384342050000001             12.96330178      5.6018295299999998
   481   1      32.521814749999997      16.474834950000002      5.9753107600000002
   482   1      3.8548045800000001      16.517857859999999      5.7308526300000002
   483   1      7.9752597200000004             16.45202772      5.7882142400000003
   484   1      11.965731030000001             16.57221225      5.8491948100000002
   485   1      16.142430940000001      16.533546050000002              5.63105235
   486   1             20.46766826      16.339143150000002      5.8355717800000004
   487   1      24.252671020000001      16.425428140000001      5.8595405700000001
   488   1             28.51027466      16.611297839999999      5.5934227500000002
   489   1      2.0183626499999998              19.8769125              5.84680863
   490   1      5.9490049599999999              19.8929294      5.9461149600000001
   491   1             10.00792847      19.933545550000002      5.7035689200000004
   492   1              14.0800958             19.84634299      5.5789181599999997
   493   1      18.100864940000001      19.914856100000002      5.6508108999999997
   494   1      22.439834619999999             19.82718401      5.7885916599999998
   495   1      26.591938540000001             20.00806845      5.6281723299999999
   496   1      30.380927849999999      19.847392630000002      5.5604076899999999
   497   1   -0.039181779999999999              23.5316507      5.8163427900000002
   498   1      4.0039553899999998              23.4598738      5.6847896100000002
   499   1      8.1875096500000009             23.32838976      5.9259715999999996
   500   1             12.14970022      23.559042560000002      5.8174973400000001
   501   1             16.22524361      23.426175990000001      5.8038020699999997
   502   1      19.990345269999999             23.55383273      6.0248711799999999
   503   1      24.418427619999999      23.627371320000002      5.8501672400000002
   504   1             28.44657729      23.541371040000001      5.6696638500000001
   505   1              2.08996877             26.84436621      5.6772359400000001
   506   1      6.0716932100000003      27.092821860000001      5.9148057999999999
   507   1               10.097339             26.96345161      5.8092191800000004
   508   1      14.111145499999999             26.76101469      5.8686317299999997
   509   1      18.191282520000001      26.798435229999999      5.8945760500000004
   510   1             22.38506482      26.868627790000001      5.7829076199999996
   511   1      26.383460830000001      26.988903409999999              5.63068759
   512   1             30.52012599              26.9998304      5.7076896499999998
   513   1      32.599565259999999   -0.095422969999999996      6.6292351500000004
   514   1      3.7421827699999999    -0.27308132000000002      6.5644112300000002
   515   1      8.1763307899999997      28.334575820000001      6.8571546100000003
   516   1      11.967824950000001             -0.00638107      6.5929376599999996
   517   1      16.111092159999998    0.069190160000000001      6.7082567600000003
   518   1      20.197799270000001      28.065392200000002      6.7310781500000001
   519   1      24.190415529999999              0.04277218      6.4536480799999998
   520   1      28.255588580000001      28.037724879999999      6.3807338400000004
   521   1              2.00011925      3.5673697099999999      6.6484422299999997
   522   1      6.1430613200000002              3.48613974      6.5274278299999997
   523   1      10.017293690000001      4.0516213700000003      6.5439529700000003
   524   1             14.20991916      3.5373592399999998      6.6952870600000001
   525   1              18.2386999      3.5797248499999998      6.6070712599999997
   526   1      22.241803279999999              3.39287502      6.6357805499999998
   527   1      26.233652800000002      3.5662798000000002              6.50656561
   528   1      30.419704679999999      3.4202820599999999      6.4959978300000003
   529   1      32.345159379999998      7.0308993299999996      6.4816918000000001
   530   1      4.0458343599999997      6.7285386999999997      6.3919816599999999
   531   1      8.3427762800000007      6.9458698800000001      6.5397283100000001
   532   1      12.277833380000001               7.2223948      6.6107022799999999
   533   1             16.39926603              7.35022427      6.7067591100000001
   534   1      20.195886810000001      7.1627327699999999      6.7310337100000002
   535   1      24.228745780000001      7.1188380799999997      6.8162430599999997
   536   1      28.430790869999999      7.2053855000000002      6.7454284600000003
   537   1              1.82053811             10.46404559      6.5933110800000003
   538   1      6.1468544999999999             10.41929977      6.8152401200000003
   539   1      9.9882777699999998              10.5865914      6.7312816399999997
   540   1      14.040049379999999      10.602945869999999      7.0535447299999996
   541   1             18.14488996      10.538440870000001      6.7584757199999999
   542   1      22.126239699999999             10.50927643      6.4831449799999996
   543   1      26.420317220000001      10.600838380000001      6.7313780400000001
   544   1      30.410374489999999      10.538762699999999      6.5087325500000004
   545   1      32.453924659999998             14.05883721      6.7374819700000002
   546   1      3.8718756700000001      14.201404950000001      6.6441347799999999
   547   1              7.80390126      14.175836739999999      6.5234178800000002
   548   1             12.16681026      14.251455379999999      6.9037329099999996
   549   1             16.43222462             14.23859526      6.8555390100000002
   550   1             20.27442929             14.11044721      6.7328488999999996
   551   1      24.299420690000002             14.01822286      6.5603377399999996
   552   1      28.443783610000001      14.280402110000001      6.7675531299999996
   553   1      2.0106592399999998      17.487285100000001      6.7233467400000002
   554   1      5.9190264199999998      17.645718080000002      6.7582497400000001
   555   1              10.0634447      17.750547510000001      6.6235679699999999
   556   1             14.18579589      17.658301359999999      6.6814560800000002
   557   1      18.285309600000001             17.29400759      6.5466999299999999
   558   1      22.339095029999999      17.680578359999998      6.8461515999999998
   559   1      26.570478940000001             17.67026693      6.5793799699999997
   560   1      30.702170020000001      17.796404630000001      6.5953272600000004
   561   1   -0.055265380000000003      21.130964670000001      6.5398572000000001
   562   1      3.9142896199999999             21.12760415              6.66024934
   563   1      7.9870854700000002      21.090388990000001              6.63494224
   564   1             11.99403135             20.95174879      6.5836703600000002
   565   1             16.06297855             21.05903829      6.5937709699999996
   566   1      20.226577989999999               21.012286      6.2965430400000004
   567   1      24.372101260000001      21.202854210000002      6.5878235600000004
   568   1      28.491648550000001      21.062299029999998      6.8117250399999998
   569   1              1.83545914      24.547893269999999      7.0274378400000002
   570   1              6.10839307      24.664237329999999      6.6527334299999996
   571   1             10.18114531      24.570077569999999      6.6903276900000002
   572   1             14.06257763      24.518040719999998      6.7099023000000004
   573   1      17.904011520000001      24.676162860000002      6.8327488799999996
   574   1      22.140688099999998      24.612813979999999      7.0402077900000002
   575   1      26.452460859999999      24.773268550000001      6.6897607800000003
   576   1      30.417349099999999             24.70659508      6.4560236800000004
   577   1      2.0970927399999999               1.0889788              7.48832991
   578   1      5.9434288000000004      1.0710017300000001      7.7330132699999998
   579   1             10.13793282               1.4837023               7.4557449
   580   1      13.954804230000001      1.1321458600000001              7.37608686
   581   1      18.182567649999999              1.14570284      7.3761112999999998
   582   1      22.300062189999998              1.16887618      7.5479951300000003
   583   1      26.213091769999998      1.1197093300000001      7.1873998200000004
   584   1      30.217568709999998      1.1918129900000001      7.4372674300000003
   585   1      32.429615949999999              4.60791225      7.5090579399999999
   586   1      4.0315284299999998      4.7276676799999997      7.4877992999999998
   587   1      7.9742892799999998      4.6503356699999996      7.6383537500000003
   588   1      10.161714269999999      3.5696066499999999      9.0657136000000005
   589   1      16.326797620000001      4.8209894999999996      7.2196969099999997
   590   1             20.14706099      4.7244259700000004      7.5566280399999997
   591   1      24.208810270000001      4.6442208899999997              7.38311633
   592   1      28.261281919999998      4.7420547700000002      7.5035238399999997
   593   1      1.9865162300000001      8.0343203600000006      7.2509602299999996
   594   1      5.9439821300000002      8.0929020400000002      7.2780732500000003
   595   1      10.210171689999999      8.2357573899999998      7.7205490399999999
   596   1             14.34096849      8.2274333199999994      7.7513087599999997
   597   1      18.185854580000001      8.3124522699999996      7.8215963999999998
   598   1      22.232406560000001      8.0149592700000003              7.74237193
   599   1      26.459663559999999      8.2807666700000002              7.77953384
   600   1      30.404737180000001      8.2447041900000002      7.6792595400000003
   601   1      32.488154170000001      11.416967570000001      7.3809632699999996
   602   1      3.9566482600000001      11.664739089999999      7.1509766499999996
   603   1      8.1425129300000005             12.13599322      7.3606416599999998
   604   1      11.932782619999999      11.605970040000001      7.6810640499999998
   605   1      20.305417500000001      9.5558353100000009      8.4978856999999994
   606   1      20.267770169999999      11.714937450000001      7.4635681700000003
   607   1      24.292002700000001      11.632824859999999      7.3534737999999997
   608   1      24.257942719999999      9.5575038899999996      8.3779710200000004
   609   1              1.99960359      15.180677579999999      7.6664173399999997
   610   1      5.9697394499999996      15.312366430000001      7.3823037999999999
   611   1      12.200226349999999             16.15097497      8.3947700100000002
   612   1      14.367956019999999              15.2891043      7.4317844800000001
   613   1      18.541479989999999             15.32555632      7.8388831100000003
   614   1      22.515792990000001      15.093709710000001      7.6213947900000001
   615   1      26.490450339999999             15.38951316      7.5801640700000004
   616   1      30.561101699999998             15.32441824      7.1893652699999997
   617   1      32.507574050000002      18.790605939999999      7.5957550700000001
   618   1      3.8996569299999999      18.756382089999999      7.5394955100000001
   619   1      8.0463918900000007      18.609411739999999      7.5823295799999997
   620   1             12.19556633      18.649438669999999      7.6246544500000004
   621   1      16.331836840000001              18.5530498      7.4629627699999999
   622   1      20.197998009999999      18.712006670000001              7.51675073
   623   1      24.662726379999999      18.854854830000001      7.4153357700000004
   624   1      28.782452370000001             18.68761765      7.3955340999999999
   625   1      1.7409633799999999      22.099563060000001              7.54039079
   626   1      5.8223575800000003      22.209812889999998      7.3568294099999996
   627   1             12.14641529      20.815450120000001      8.9219532200000007
   628   1      14.172989340000001      21.968651829999999      7.6871286200000002
   629   1             18.15775064      22.188325500000001      7.6942603600000004
   630   1      22.003770840000001      22.037109050000002      7.7494276199999996
   631   1      26.347256300000002      22.530159650000002      7.5783954900000001
   632   1      30.355880039999999      22.421623589999999      7.7840646600000003
   633   1    -0.10754449000000001             25.76645139      7.3534841399999999
   634   1      4.1603979000000004      25.809032200000001      7.2700230100000001
   635   1      8.1479446499999995             25.85089133      7.2162833300000004
   636   1             12.14448602              25.7973462      7.6805506799999996
   637   1             16.05394544      25.928633059999999      7.8610213900000003
   638   1             20.06060111             25.91494922              7.82180813
   639   1      24.330600220000001      25.766846000000001              7.38764383
   640   1      28.434237039999999             25.81210823      7.5217894899999997
   641   1      4.1104045600000001      6.9662099499999997      8.8551707400000002
   642   1      30.576422409999999              3.41763715      8.8968365400000007
   643   1      5.9332521199999997      9.0877855800000003      9.5643257500000001
   644   1      13.870518779999999      27.392069660000001      8.7687807299999996
   645   1              10.0007059             22.17987527      7.5351750600000003
   646   1             24.30763026      25.958958970000001      9.8182437900000004
   647   1             22.40918087      5.7993096399999997      8.2701038100000002
   648   1      4.1784902099999996      28.232634050000001      9.0492696600000002
   649   1      4.0945998100000001      16.433395820000001      8.3604253400000008
   650   1      3.9582986299999998      23.655843189999999      8.2217022100000001
   651   1      17.911873190000001             24.47692764      9.1009662000000002
   652   1      14.326026219999999      5.7143043200000001      8.2360120600000002
   653   1      22.279415350000001             12.95878796      8.5932530600000003
   654   1      3.9581869099999998      2.4499046400000002      8.3223076999999996
   655   1      22.418006989999999             27.06979552      8.1937711199999992
   656   1      32.485809750000001      2.0968845100000002      8.1953824100000006
   657   1              7.83304709      9.5580678799999994      8.2214009499999996
   658   1             14.11724804      17.407373620000001      9.1003480099999994
   659   1              2.11465974      8.2964865900000007      9.6712741199999996
   660   1      15.947301400000001      2.5334757699999999      8.1132425799999996
   661   1      26.287971720000002      26.844716720000001      8.1853587500000007
   662   1      28.372238150000001      2.2260976700000001      8.2923621399999998
   663   1      20.289557370000001   -0.068564700000000006      9.1816156200000005
   664   1      2.0053897599999999              12.7906599      8.1983875400000006
   665   1      9.6235855899999994      11.066227599999999      9.2375669800000004
   666   1      14.460091500000001             19.84156269      8.3280224300000008
   667   1      6.0822058999999999      17.494199720000001              9.43601241
   668   1             16.34053377             12.09019191      7.5572087799999998
   669   1      3.7815057400000001              14.3102073      9.1178445299999993
   670   1      28.402089620000002      9.6570347699999992      8.3624154799999992
   671   1      4.0227318299999997      11.488799180000001      9.5579375100000004
   672   1              1.90143997             20.02636837      8.4837301800000002
   673   1              1.83111216      26.935294219999999      8.1217761700000004
   674   1              3.93381545      18.545662270000001      9.8470194200000005
   675   1      24.399581770000001      16.659267679999999      8.1086849799999996
   676   1      9.9422318900000004      24.492741509999998      9.1196075200000006
   677   1      22.375873630000001             10.73194713              9.28929735
   678   1      24.460246860000002      21.221515629999999      9.0808797800000001
   679   1             26.22430018      5.8045290100000004      8.3050741200000004
   680   1      28.553564990000002      11.792908969999999      7.3827233200000002
   681   1    0.076228649999999995      6.8667861700000001      8.9523507599999999
   682   1      9.9781241200000004      15.245011590000001      7.2970499200000001
   683   1      7.9162882899999998      23.822035979999999      8.2535881999999994
   684   1             14.25169191      13.145070369999999      8.3514373899999992
   685   1      22.272084509999999      19.389553410000001      8.3697267699999998
   686   1             20.48707048      14.465349720000001      9.1031169100000007
   687   1      18.459882879999999             13.09953501      8.5319226300000004
   688   1             24.63288245             14.14153115      9.0541177800000003
   689   1             20.20569429      20.891336020000001      8.8816798499999994
   690   1      32.341222080000001      16.269502880000001              8.35363963
   691   1      28.455566220000001      7.0961936100000003      8.9219041499999996
   692   1      18.043489009999998             27.08688673      8.4359539100000003
   693   1             18.39085511             10.77043317      9.1026902199999995
   694   1             20.21558186             11.93555357      9.7841228099999995
   695   1      24.307451839999999      23.474617550000001      8.3542311999999992
   696   1      1.9322186299999999      17.418549509999998      9.2761542600000002
   697   1      6.1432608100000001      5.8619169299999996      8.0433676399999996
   698   1      16.041187919999999      23.577893289999999      8.1916630500000007
   699   1      20.134706220000002      2.4008611800000002      7.9823237999999996
   700   1             15.84337215     0.28796106999999999      9.0466844300000009
   701   1             12.28354013      2.3940633500000001      8.3493526100000004
   702   1      26.538915710000001             19.98068954              7.98494042
   703   1             22.10067986      3.3900598099999999      9.1071295200000009
   704   1      28.412916419999998      20.824897360000001      9.1674788899999999
   705   1      2.0164697500000002      5.8779098400000001      8.0822207600000002
   706   1              1.88464794      3.5977780199999998      9.0526272999999993
   707   1      14.051248080000001      24.548148189999999      8.9220105099999998
   708   1             18.50124894      17.530131350000001      9.1564453599999993
   709   1      24.428155369999999      4.8852708500000004      9.7169773399999997
   710   1             18.08673404             19.77571124      8.1532069800000002
   711   1      30.340437869999999      5.7790035599999996      8.2043509599999993
   712   1      30.557292889999999      20.045529299999998              8.21876724
   713   1      28.120439449999999             28.10186474      9.2058573500000005
   714   1      3.9311155800000002      21.313754469999999      9.0729155499999994
   715   1      30.372958449999999      27.125958480000001      8.1648741400000002
   716   1             12.04388666      23.376472110000002      8.0676830099999997
   717   1             26.51425875             24.67748971      9.2683365200000001
   718   1             30.40974632              10.7966792      8.8406736800000001
   719   1              1.72808893             10.56063078      8.9586848900000007
   720   1      28.436590679999998      4.4684390599999997      9.8709276199999998
   721   1              3.93060849      9.3724359899999996      8.2204643100000006
   722   1              7.78343148      21.599700670000001      9.0479061699999992
   723   1      7.9969915399999998      7.1423723499999996      8.9759790299999995
   724   1      6.9972414299999999             11.57687833              9.48968247
   725   1      18.282623319999999                3.475838      9.0620416400000003
   726   1             12.44505949      9.4506194499999996               8.4194806
   727   1             16.29091361      18.322577169999999      9.8907872099999992
   728   1      26.481009790000002      12.739783790000001      8.4783339600000005
   729   1      7.9143701100000001      13.852951190000001              9.04902725
   730   1      12.108681069999999      5.0109324199999996      7.6200726699999999
   731   1             12.66476707      7.1255415900000001      9.2766069499999997
   732   1      16.172351219999999      9.9534228099999993      8.5055870900000006
   733   1      16.424238689999999      16.204781990000001      8.3083186500000004
   734   1      32.613920960000002      23.245317199999999      8.1734195399999994
   735   1             24.39191065              2.49772521      8.3750928099999999
   736   1      7.7127858700000003      16.321481500000001      8.3648951500000006
   737   1      30.521348360000001      17.902156099999999      9.0556718800000002
   738   1             -0.01376728      9.1116233799999993      8.2496952700000001
   739   1      10.198619239999999             13.16316469      8.4155959599999992
   740   1      24.532929960000001      7.2842575099999998      9.2421122499999999
   741   1      24.554982689999999      12.041178589999999              9.89688576
   742   1      26.275011880000001      3.5706205099999999      8.8711242800000001
   743   1      20.176771500000001      6.7688755699999996      9.2093626299999993
   744   1             30.66478232             13.02000043      8.1074022699999997
   745   1      28.787723289999999      16.532948640000001      8.1901825099999996
   746   1      5.7255740399999997             12.81335455      8.3179023599999997
   747   1      10.105904799999999      16.995781130000001      8.9772698500000008
   748   1      9.9462274599999994      19.938550129999999      8.3093949400000007
   749   1             20.66371724      16.625416510000001      8.3101243199999999
   750   1      28.449144100000002      13.989742379999999      9.0059804299999993
   751   1      22.147455090000001      24.556738809999999      9.3877837999999993
   752   1      5.8801471999999997             15.16775515      9.9699940999999992
   753   1              5.92288367             19.84395816      8.4891879699999997
   754   1              8.12485371              2.15137416      8.3007934100000007
   755   1      6.1288076800000004      3.7301847299999999      8.9250589900000001
   756   1      10.167449299999999      27.019509589999998      8.1048206799999996
   757   1      5.9736711700000003      24.017735510000001      9.2369883399999999
   758   1             26.38696332              1.32909608      9.5619532100000004
   759   1      26.714806759999998      17.799330009999998      9.0475948099999997
   760   1      24.249784529999999    0.086202619999999994      8.9524908500000002
   761   1      16.262334509999999      21.090074659999999      9.0719693499999998
   762   1      26.409028320000001      10.475638379999999      9.5190257700000007
   763   1      9.9736456899999997      5.9312734599999999      8.4740414600000005
   764   1      6.1961153600000003      26.794772519999999      8.3632737600000002
   765   1             18.06180818      5.8021559299999996      8.3682582399999994
   766   1      20.105656230000001      23.413000929999999      8.3760526300000002
   767   1      28.318996890000001             23.43651809      8.3102509799999993
   768   1             30.76415261             24.80390152      8.7874898300000002
   769   2      25.028308769999999             18.36052316      9.2244380100000001
   770   2             23.93422421      19.596813910000002      9.5336346699999996
