N2-dn2-coord-10bar/700K/snapshots/frame-86649/run-000/../data.lammps (written by ASE) 

770 	 atoms 
2  atom types
0.0      32.470343392086264  xlo xhi
0.0      28.120142247150884  ylo yhi
0.0      31.213473999158239  zlo zhi


Atoms 

     1   1      2.0293964600000001      1.1716090800000001    0.023552650000000001
     2   1      6.0880008999999999              1.17168918              0.02556874
     3   1      10.146952280000001              1.17170328    0.025416459999999998
     4   1      14.205754900000001      1.1716496700000001              0.02501565
     5   1             18.26456816              1.17166478              0.02504435
     6   1             22.32338141      1.1716496700000001              0.02501565
     7   1      26.382184030000001              1.17170328    0.025416459999999998
     8   1      30.441135410000001              1.17168918              0.02556874
     9   1  9.1780000000000006e-05      4.6866847900000002    0.025581599999999999
    10   1      4.0587011400000002      4.6866847900000002    0.025581599999999999
    11   1      8.1174961000000003      4.6866290399999997    0.025584639999999999
    12   1             12.17638011      4.6866852999999997              0.02491202
    13   1             16.23517979      4.6866942700000003    0.025006210000000001
    14   1      20.293956519999998      4.6866942700000003    0.025006210000000001
    15   1      24.352756209999999      4.6866852999999997              0.02491202
    16   1      28.411640219999999      4.6866290399999997    0.025584639999999999
    17   1      2.0293964600000001      8.2016395800000002    0.026613040000000001
    18   1      6.0881071599999999      8.2016314300000008              0.02543782
    19   1             10.14701835               8.2017045    0.025156850000000001
    20   1      14.205766049999999      8.2017080900000003    0.024990459999999999
    21   1             18.26456816      8.2017077599999997    0.025091249999999999
    22   1      22.323370260000001      8.2017080900000003    0.024990459999999999
    23   1      26.382117969999999               8.2017045    0.025156850000000001
    24   1      30.441029149999999      8.2016314300000008              0.02543782
    25   1  9.2789999999999998e-05             11.71671873    0.025573410000000001
    26   1              4.05870014             11.71671873    0.025573410000000001
    27   1      8.1176017700000003             11.71668698              0.02497914
    28   1             12.17637068             11.71673069    0.025001590000000001
    29   1      16.235177310000001      11.716730249999999    0.025074039999999999
    30   1      20.293959009999998      11.716730249999999    0.025074039999999999
    31   1      24.352765640000001             11.71673069    0.025001590000000001
    32   1      28.411534549999999             11.71668698              0.02497914
    33   1      2.0293964600000001             15.23167155              0.02525285
    34   1      6.0881728300000004      15.231678799999999    0.025062859999999999
    35   1             10.14698486      15.231762639999999               0.0250786
    36   1             14.20578841             15.23176782    0.025201990000000001
    37   1             18.26456816              15.2317707    0.025149979999999999
    38   1      22.323347900000002             15.23176782    0.025201990000000001
    39   1      26.382151459999999      15.231762639999999               0.0250786
    40   1      30.440963480000001      15.231678799999999    0.025062859999999999
    41   1      32.470327990000001      18.746748629999999    0.024951939999999999
    42   1      4.0588083299999997      18.746748629999999    0.024951939999999999
    43   1      8.1175770200000006      18.746803499999999    0.025222040000000001
    44   1             12.17637459      18.746799750000001    0.025428470000000002
    45   1      16.235159400000001      18.746805200000001    0.025487360000000001
    46   1      20.293976919999999      18.746805200000001    0.025487360000000001
    47   1      24.352761730000001      18.746799750000001    0.025428470000000002
    48   1             28.41155929      18.746803499999999    0.025222040000000001
    49   1      2.0293964600000001      22.261939099999999    0.025844880000000001
    50   1      6.0881419299999999      22.261841799999999    0.025489439999999999
    51   1             10.14692954             22.26176895              0.02551757
    52   1             14.20573559      22.261804690000002    0.025639160000000001
    53   1             18.26456816             22.26178625    0.025640119999999999
    54   1      22.323400729999999      22.261804690000002    0.025639160000000001
    55   1      26.382206780000001             22.26176895              0.02551757
    56   1             30.44099439      22.261841799999999    0.025489439999999999
    57   1  5.6450000000000003e-05      25.776936450000001              0.02613327
    58   1      4.0587364700000004      25.776936450000001              0.02613327
    59   1      8.1175325399999991              25.7767713    0.024734180000000001
    60   1      12.176376469999999      25.776831090000002              0.02545323
    61   1      16.235145939999999      25.776775220000001    0.025273360000000002
    62   1             20.29399038      25.776775220000001    0.025273360000000002
    63   1      24.352759840000001      25.776831090000002              0.02545323
    64   1      28.411603769999999              25.7767713    0.024734180000000001
    65   1  0.00024266000000000001              2.34304215     0.80166565000000001
    66   1      4.0585502699999996              2.34304215     0.80166565000000001
    67   1      8.1157394600000003              2.34454954     0.80169402000000001
    68   1             12.17601256      2.3433829099999999     0.80116898000000003
    69   1      16.235258170000002      2.3433209100000001     0.80090046999999998
    70   1      20.293878150000001      2.3433209100000001     0.80090046999999998
    71   1      24.353123750000002      2.3433829099999999     0.80116898000000003
    72   1      28.413396859999999              2.34454954     0.80169402000000001
    73   1      2.0293964600000001      5.8582218700000004     0.80119762000000005
    74   1      6.0870566899999998      5.8583336700000004              0.80194851
    75   1             10.14649655              5.85853131     0.80121584000000001
    76   1             14.20597894      5.8582938599999999     0.80086840999999998
    77   1             18.26456816      5.8583798500000004               0.8010794
    78   1      22.323157380000001      5.8582938599999999     0.80086840999999998
    79   1             26.38263976              5.85853131     0.80121584000000001
    80   1      30.442079629999999      5.8583336700000004              0.80194851
    81   1  0.00019438999999999999      9.3717771800000005     0.80082061000000004
    82   1      4.0585985400000002      9.3717771800000005     0.80082061000000004
    83   1      8.1175070500000004      9.3725002699999997     0.80149060999999999
    84   1      12.176590020000001      9.3733583399999993     0.80088261999999999
    85   1             16.23512199      9.3733789200000004              0.80106506
    86   1             20.29401433      9.3733789200000004              0.80106506
    87   1      24.352546289999999      9.3733583399999993     0.80088261999999999
    88   1      28.411629269999999      9.3725002699999997     0.80149060999999999
    89   1      2.0293964600000001             12.88692854     0.80220621000000003
    90   1      6.0883212999999996             12.88743848     0.80138414999999996
    91   1      10.147128609999999             12.88859852     0.80085256000000005
    92   1             14.20571782      12.888558189999999     0.80113791000000001
    93   1             18.26456816      12.888409899999999     0.80109381000000002
    94   1      22.323418490000002      12.888558189999999     0.80113791000000001
    95   1             26.38200771             12.88859852     0.80085256000000005
    96   1      30.440815019999999             12.88743848     0.80138414999999996
    97   1              0.00012365      16.403222639999999     0.80145666999999998
    98   1      4.0586692700000002      16.403222639999999     0.80145666999999998
    99   1      8.1174337899999998      16.403825260000001     0.80097196999999998
   100   1              12.1761021             16.40390721     0.80133072000000005
   101   1             16.23503496      16.403861750000001     0.80140014999999998
   102   1      20.294101359999999      16.403861750000001     0.80140014999999998
   103   1      24.353034220000001             16.40390721     0.80133072000000005
   104   1      28.411702529999999      16.403825260000001     0.80097196999999998
   105   1      2.0293964600000001      19.919205120000001     0.80066369999999998
   106   1              6.08752564             19.91894023     0.80122479000000002
   107   1      10.146078839999999             19.91919038     0.80159137999999996
   108   1      14.204993419999999              19.9192584     0.80178742000000003
   109   1             18.26456816      19.919377350000001     0.80194975999999996
   110   1      22.324142899999998              19.9192584     0.80178742000000003
   111   1      26.383057470000001             19.91919038     0.80159137999999996
   112   1      30.441610669999999             19.91894023     0.80122479000000002
   113   1              0.00142012      23.434536609999999     0.80178442000000005
   114   1      4.0573728100000004      23.434536609999999     0.80178442000000005
   115   1      8.1165862000000004      23.433936769999999     0.80182306000000003
   116   1             12.17555218      23.433996919999998     0.80156656000000004
   117   1             16.23465491      23.434040110000002     0.80170828999999999
   118   1      20.294481409999999      23.434040110000002     0.80170828999999999
   119   1      24.353584130000002      23.433996919999998     0.80156656000000004
   120   1      28.412550110000002      23.433936769999999     0.80182306000000003
   121   1      2.0293964600000001      26.949875330000001              0.80297246
   122   1      6.0858208300000003      26.950066320000001              0.80215291
   123   1             10.14598146      26.949241430000001     0.80165810000000004
   124   1             14.20520604      26.948673230000001     0.80131923999999999
   125   1             18.26456816             26.94858318     0.80108193999999999
   126   1      22.323930279999999      26.948673230000001     0.80131923999999999
   127   1      26.383154860000001      26.949241430000001     0.80165810000000004
   128   1             30.44331549      26.950066320000001              0.80215291
   129   1   -0.074850429999999996  -0.0037126699999999999              1.68464083
   130   1      3.9725491499999999   -0.060453029999999998              1.57977736
   131   1      8.2536602000000006             28.10385307              1.41994322
   132   1      12.286652070000001      28.071797360000001      1.3884316800000001
   133   1             16.19205775      28.114729499999999              1.24484324
   134   1      20.434268159999998             28.04999939      1.4581656700000001
   135   1      24.400619370000001    0.061166159999999997      1.3349544099999999
   136   1             28.47611672             28.06967307              1.51696889
   137   1              2.05189691      3.3728292099999999      1.3274042399999999
   138   1      6.0672584399999998      3.4673245100000001      1.5415730299999999
   139   1              10.0100169              3.58079064      1.4780698000000001
   140   1             14.20004241      3.4674777200000002      1.4055659599999999
   141   1             18.32547666      3.4804304300000002      1.4755423000000001
   142   1      22.527492550000002      3.5315105500000001      1.4471638499999999
   143   1      26.406689979999999              3.44347219              1.45394976
   144   1      30.470811430000001      3.3644781699999999      1.5110933499999999
   145   1   -0.095099080000000002      7.0764597299999998              1.27651311
   146   1      3.9782948999999999      6.9358779500000001              1.72145758
   147   1      8.1543709700000004      7.1772117800000004              1.54756071
   148   1      12.117662790000001      6.9765628599999996              1.54372541
   149   1      16.483181089999999      7.0397520099999999              1.62945337
   150   1      20.325642989999999      6.9313097399999997      1.4684221399999999
   151   1      24.337572009999999      7.0822673500000004              1.51802539
   152   1      28.510165430000001      6.8912490000000002              1.37422756
   153   1      2.0663731799999998             10.64232981              1.48423522
   154   1      6.0258837600000001      10.450498230000001      1.6036402300000001
   155   1      10.049790850000001             10.50958155      1.4470188500000001
   156   1             14.18223914             10.53272758      1.2969118100000001
   157   1      18.157079110000002             10.54293618              1.54320524
   158   1      22.224673469999999             10.56478353              1.39078762
   159   1             26.30977094      10.534503129999999      1.4117883899999999
   160   1             30.39345118             10.55405715      1.3682702600000001
   161   1              32.4614482      14.041575229999999              1.29923061
   162   1      4.2551984599999999             14.02717255      1.6631031300000001
   163   1              8.23795331             14.04354004      1.2729113400000001
   164   1      12.279660639999999             14.09635617              1.44261156
   165   1      16.300967539999998              14.1357654              1.35889214
   166   1      20.228801990000001             14.00420927               1.1996495
   167   1             24.32074661             13.98975506              1.27608682
   168   1      28.565629869999999      14.035061779999999      1.5568475500000001
   169   1      2.0869130199999999      17.401252679999999              1.33619069
   170   1      5.9561951899999999      17.408679670000001      1.5032962400000001
   171   1      9.9713510599999999             17.66945012              1.26512877
   172   1             14.18944035      17.570047939999998      1.3851585200000001
   173   1      18.271655639999999             17.69562792      1.6433197799999999
   174   1      22.297863230000001             17.30675012              1.41299525
   175   1      26.281268539999999             17.62179609              1.41762298
   176   1      30.400465650000001             17.49826504      1.5152620400000001
   177   1      32.416059070000003      21.001162749999999      1.8098610900000001
   178   1      4.1627860400000003      21.191798980000002              1.30954763
   179   1      8.0819770900000005             21.17455404      1.6295802399999999
   180   1      12.162208830000001      21.146025290000001      1.3636422699999999
   181   1      16.354332280000001      21.130502969999998               1.1867086
   182   1              20.3525958      21.094112410000001              1.48247525
   183   1      24.247390419999999      21.243624400000002      1.4527878400000001
   184   1      28.357648139999998      21.159951119999999      1.2241726500000001
   185   1      1.9987651200000001             24.35951377      1.4446644099999999
   186   1      6.1757627900000003      24.776610900000001              1.52761674
   187   1      10.044301170000001      24.556280099999999              1.71730939
   188   1      14.243126930000001      24.574890700000001              1.45294261
   189   1             18.32078769             24.65180801              1.42300059
   190   1               22.426171      24.472112129999999      1.5540069999999999
   191   1      26.331488929999999      24.675113329999999              1.60402303
   192   1      30.509773299999999             24.63456583              1.54155423
   193   1      1.9407504600000001              1.14366027              2.46368433
   194   1      5.9854953899999996      1.2593640800000001      2.5181012300000001
   195   1               10.222749      1.3223102499999999              2.40166689
   196   1             14.09332337      1.1815432400000001              2.52595759
   197   1      18.118023959999999      1.1996570499999999      2.3426903100000001
   198   1      22.197369330000001      1.2620172999999999              2.33404034
   199   1             26.52512982      1.3183404599999999      2.3930704199999999
   200   1      30.297310209999999              1.16504031              2.44196693
   201   1              0.10003457      4.5465707799999997      2.3374633899999999
   202   1      4.1027015100000002      4.6884250600000001      2.6532783900000001
   203   1      8.1168698900000003      4.8422930600000003      2.4486278600000002
   204   1             12.26761788      4.6176932800000001      2.4703338100000001
   205   1      16.454454930000001      4.7385717400000003      2.3871869000000001
   206   1      20.270759300000002      4.6769202999999999      2.4030251499999999
   207   1      24.489207700000001      4.8392959299999996      2.3541851399999998
   208   1      28.461665960000001      4.6243929599999998      2.4155024699999998
   209   1              1.80935599      8.2246681400000003      2.4747033100000002
   210   1      6.0258896699999998      8.0351888700000007      2.4035793399999998
   211   1      10.074381470000001      8.2053300500000006      2.4743394400000001
   212   1      14.113041600000001      8.1223214600000002      2.4571825500000002
   213   1      18.407969219999998      8.0849828699999993              2.53631085
   214   1      22.244329359999998      8.0352860600000007      2.5283260799999998
   215   1      26.382220879999998      8.2088642299999997      2.4005820099999999
   216   1      30.422382290000002      8.3002874900000005      2.4658171800000002
   217   1     0.13084398999999999      11.786552309999999               2.5755602
   218   1      4.0997945099999997             11.65788528              2.48772554
   219   1      8.0874240099999994      11.652230680000001      2.3840156100000001
   220   1             12.17214961             11.54958751              2.41043926
   221   1      16.130320179999998             11.67414013      2.5340845500000002
   222   1             20.29100979      11.637657989999999      2.3734519399999998
   223   1      24.373443179999999      11.668538059999999              2.39639917
   224   1      28.616624869999999             11.73019006      2.4428928399999998
   225   1      1.9755717500000001      14.927780390000001      2.3424165600000002
   226   1      6.1577094600000004             15.15571868      2.3244244200000002
   227   1             10.24814464      15.238158629999999      2.3546424500000001
   228   1             14.25758843             15.16408088      2.4889099799999999
   229   1      18.508786430000001             15.25921894      2.3626963499999998
   230   1             22.34051874             15.20488555      2.3990833500000002
   231   1      26.428278939999998             15.25411899      2.5039031600000001
   232   1      30.512462299999999      15.201365279999999              2.35861235
   233   1   -0.066691009999999995      18.506157210000001      2.3752187600000001
   234   1      4.0596797499999999      18.768702650000002      2.4931104300000002
   235   1      7.9620286399999998      18.675557609999998      2.3838357499999998
   236   1             12.05248686      18.745966559999999      2.2805151499999998
   237   1      16.173904449999998      18.659379600000001      2.3428377899999999
   238   1      20.448806210000001      18.736961189999999      2.3850938899999998
   239   1      24.318942069999999      18.727637009999999              2.49789013
   240   1      28.439247269999999      18.789455749999998      2.5310984699999999
   241   1              2.22384556             22.02382562      2.4478967200000001
   242   1      6.2003994799999997      22.426018460000002      2.3975526399999998
   243   1               10.082729      22.310343809999999      2.2493536199999999
   244   1      14.399376180000001      22.265818249999999      2.4708774899999999
   245   1      18.331248380000002      22.211780569999998      2.2391035399999999
   246   1             22.36971174      22.315348069999999              2.38890307
   247   1      26.258954429999999      22.220461960000002      2.5453705599999998
   248   1      30.261373930000001             22.15981257      2.4758009799999998
   249   1             -0.01491168             25.69142639      2.4080803899999998
   250   1      4.0984773299999997             25.84266049      2.3138545599999998
   251   1      8.0926030400000002      25.857206479999999      2.4524357700000001
   252   1              12.1336563      25.740079649999998      2.4372637199999998
   253   1      16.247505050000001             25.93697607              2.29245703
   254   1      20.454184850000001      25.858367600000001      2.2477857499999998
   255   1      24.549249410000002             26.00154685      2.4405544400000001
   256   1      28.434871380000001      25.662058429999998      2.5628993000000002
   257   1      32.407357410000003      2.3374203200000001      3.2537984099999999
   258   1      4.0056350299999997              2.24339413      3.1463124599999999
   259   1      8.1702420399999998      2.3857471299999999              3.24839652
   260   1      12.086768960000001              2.27117741      3.2119614699999999
   261   1             16.13564805      2.3447013600000002      3.7621775899999998
   262   1             20.23764151      2.1255208099999998      3.3531499600000001
   263   1      24.517083700000001      2.1107007699999998      3.4101415899999998
   264   1      28.463153439999999      2.2034587700000001      3.2391974800000001
   265   1              1.94550779              5.83527123      3.2756957899999999
   266   1      6.0236283400000001      5.7638458999999997      3.4613235900000001
   267   1              10.0405052      5.8571730500000001      3.1774874199999998
   268   1              14.0888063               5.9857939      3.2310833099999998
   269   1      18.402042829999999      5.7666375199999997              3.32149508
   270   1      22.395033529999999      5.7187783000000003      3.2773912799999998
   271   1              26.5471054      5.8742134699999999      3.2378538200000002
   272   1             30.59207799      5.9362389799999997      3.1564310799999999
   273   1      32.435895799999997      9.3830013500000007      3.2294786800000002
   274   1      4.0012015500000002              9.17461327              3.13955435
   275   1      7.9808524700000003      9.4395635700000007      3.2369986399999999
   276   1             12.13814251      9.3012058100000008      3.2567633300000001
   277   1      16.040924669999999      9.3025700199999992              3.49473463
   278   1      20.349660199999999      9.3046228699999993      3.3849328000000001
   279   1      24.163470199999999      9.2661945200000009      3.1829372600000001
   280   1      28.409297349999999      9.4728142799999997      3.2412706500000001
   281   1      2.1817713599999999      12.740161090000001      3.4287552099999998
   282   1      6.2167067500000002             12.90557272      3.2318773900000002
   283   1      10.230054669999999             12.78352231      3.2425600800000001
   284   1             14.24995446      12.713440589999999      3.2413454399999999
   285   1             18.09365223      13.062681980000001      3.0471846999999999
   286   1      22.405557550000001      12.800855090000001              3.22246042
   287   1             26.39839117      12.759973970000001      3.2001984499999998
   288   1             30.67459539      12.979511370000001      3.1502832999999999
   289   1     0.23680378999999999             16.35756035      3.1524039099999999
   290   1      4.0922589299999999      16.265642150000001      3.2944556700000001
   291   1      8.1087272800000001      16.437991060000002      3.1371468600000001
   292   1             12.26101023      16.386621389999998              3.34148296
   293   1      16.306439520000001      16.282351219999999      2.9913151099999999
   294   1      20.528728009999998      16.400348040000001              3.40138725
   295   1             24.34975618             16.59396774      3.2913351300000002
   296   1      28.455346949999999             16.49164901              3.29972574
   297   1              2.07361058      19.758187299999999      3.3785806900000002
   298   1      6.1939298200000001      20.062166319999999      3.2992966799999999
   299   1             10.23977577      19.873669870000001      3.1814178100000001
   300   1             14.23686756             19.71437208      3.3303936900000002
   301   1             18.24091087      19.845075999999999      3.2320026999999998
   302   1      22.344138310000002      19.993447799999998              3.26010826
   303   1             26.43016274      20.083548059999998      3.2425367199999999
   304   1              30.5727543      19.848047739999998      3.3368198200000001
   305   1   0.0099253999999999992             23.22050449      3.3438375100000002
   306   1      4.0654681200000002      23.559658880000001              3.24640182
   307   1      8.1776602999999994      23.401623829999998      3.3413179799999999
   308   1             12.20734085      23.411820420000002      3.1284307500000001
   309   1      16.523892650000001      23.558592350000001      3.0923653400000002
   310   1      20.261549819999999      23.565732409999999      3.1703539100000002
   311   1      24.214479170000001      23.565368830000001              3.30025111
   312   1             28.33619161      23.526390259999999      3.3663768599999999
   313   1      2.0472830800000001      26.777706510000002      3.4868076100000001
   314   1      6.0757880699999998      26.883544740000001      3.3701375900000001
   315   1             10.16688332      26.941764939999999      3.2827382200000002
   316   1             14.24185658      26.887184900000001      3.2226274300000002
   317   1      18.373860220000001      26.914298689999999      3.1497603399999998
   318   1      22.407768910000001      26.898427349999999              3.38636319
   319   1      26.459570930000002      26.956481440000001      3.3802221700000001
   320   1             30.34561055      26.816364589999999      3.3487649799999999
   321   1    0.049200580000000001      27.844394520000002      4.2532899799999999
   322   1              3.89917443      28.178285809999998      4.3846498199999999
   323   1      8.1088376400000008              -0.0017925      4.0134817700000003
   324   1      12.176663120000001              0.00166854      4.0026422799999999
   325   1             16.44026105             27.99398424              4.04966428
   326   1      20.402774690000001      27.933896170000001              4.08696488
   327   1      24.215554340000001      28.056438020000002      4.0640264400000001
   328   1      28.471345800000002             28.03773052      4.0815859200000002
   329   1      2.1465182399999998      3.4570901900000002      4.1177667400000004
   330   1      6.0856627899999998      3.5396014500000001              4.06533225
   331   1      10.199128460000001      3.6119789500000001      3.9020910099999999
   332   1             14.18310529      3.5735132200000002      4.0495149399999999
   333   1      18.286363059999999      3.5291142999999998      4.1634059900000002
   334   1             22.46955797      3.2944041300000002      4.0261799199999997
   335   1             26.41218795      3.4428805800000002      4.2363887299999998
   336   1             30.54886205      3.5975333300000001      3.9733659800000001
   337   1      32.491366829999997      6.9703423799999999      4.0996473900000003
   338   1      4.1196643699999997      6.9363098799999996      4.2076685500000002
   339   1      8.0642904499999997      7.0323747399999998      4.2210022900000004
   340   1      12.013879749999999      7.1827827600000003      3.9513442099999998
   341   1      16.281282269999998      6.7233541199999998      4.1690754800000001
   342   1      20.380715760000001      6.9961085699999996      4.1145777199999998
   343   1      24.419937139999998      7.0198667800000001      4.0545883399999996
   344   1      28.567887819999999      7.1647443099999997      4.0613761100000003
   345   1      1.8672348999999999             10.42273089      3.9956633400000001
   346   1      5.7976621699999997             10.70556365      4.1781561500000004
   347   1      9.9929193400000003              10.4121483      4.1773086399999997
   348   1             14.07446934             10.53691132      4.2730796299999998
   349   1      18.176730849999998             10.62879096      3.9350281800000002
   350   1      22.290926469999999              10.4262605              4.17246425
   351   1      26.361142950000001             10.48454519      3.9881396100000002
   352   1      30.399069130000001      10.650486770000001      3.9479392500000001
   353   1              0.23319202             14.04470223               4.1982146
   354   1      4.1364009299999998             13.97341132      4.1235121599999998
   355   1               8.2974397      14.096408009999999      3.7542517599999998
   356   1             12.29882892             14.16602398              3.99222974
   357   1              16.2397858      13.954247970000001      3.9773070100000001
   358   1             20.23131734      13.974190719999999      3.8601096099999999
   359   1      24.315483400000002             14.06313372      3.9118315699999999
   360   1             28.58214662      13.982561219999999      4.0887062299999997
   361   1      2.1208875100000002             17.38601285      4.2715728000000004
   362   1      6.0320544500000004      17.681728679999999              3.96353373
   363   1             10.20727246      17.632432179999999      4.0227328499999997
   364   1      14.377538360000001             17.14839804              3.99576216
   365   1      18.255000110000001             17.47100511      4.0327360399999996
   366   1      22.268426470000001             17.63506486      3.8723414300000001
   367   1      26.460399120000002      17.829503320000001      3.9401769600000001
   368   1             30.51213461      17.536785049999999      4.1131411599999996
   369   1               0.1087018      20.817462379999998      4.0814805099999996
   370   1      4.1801548799999999      20.959381990000001      4.3099848100000004
   371   1      8.2893000699999995      21.014124460000001      4.0994841600000003
   372   1      12.238313550000001             21.08333051      3.9662384099999999
   373   1      16.303740529999999      21.087234410000001      4.0783707500000004
   374   1      20.415953439999999             21.20753702      4.1846617200000003
   375   1      24.480723059999999      21.189130389999999      4.1390797099999999
   376   1      28.631835800000001             21.15368857      3.9725030399999999
   377   1      2.0248702500000002             24.41368452              4.11689946
   378   1              5.94129475      24.652463000000001      4.1160079400000003
   379   1             10.17340093      24.684573669999999      4.0499329599999996
   380   1             14.33335555      24.426531929999999               4.0162366
   381   1      18.424941839999999      24.593804169999999      3.9327325000000002
   382   1             22.29344841             24.67692709      4.1914986699999996
   383   1      26.366349790000001      24.775201970000001              4.23542109
   384   1      30.460935809999999      24.484439309999999      3.9976247699999998
   385   1      2.0312660400000002              1.01347185      5.0625064999999996
   386   1      6.0853534399999996      1.1808823799999999      4.8655079299999997
   387   1             10.08446822      1.1049992500000001      4.9103494699999999
   388   1      14.120017000000001               1.2898167      5.0014892800000004
   389   1              18.3928057      1.1808903900000001      4.8406391700000002
   390   1      22.308591249999999              1.01851095      5.0508293200000001
   391   1      26.382932449999998      1.0407268300000001      5.0095181100000001
   392   1             30.40957165               1.1572406      5.1107668400000001
   393   1    0.058229870000000003      4.7701346899999999      4.9885046500000003
   394   1      4.2301887499999999      4.6161648099999999      5.1309575699999996
   395   1      7.9465750999999996      4.5956273300000001      5.1740021900000004
   396   1      11.963455919999999      4.8323224400000004      4.6704967100000001
   397   1      16.285685269999998      4.6733246399999997      5.0446644100000002
   398   1      20.504673629999999      4.6498166899999998      4.8632299300000001
   399   1             24.34469605      4.4989171199999998      4.7672882799999998
   400   1      28.432393640000001      4.8383830400000001      4.8631848299999998
   401   1              1.89065778              8.21199732      4.9537036199999998
   402   1      6.1577275800000004      8.2010211399999999      5.0051386899999999
   403   1      9.9633459200000001      8.2618284099999997      4.9617090099999999
   404   1             14.04259517      8.1323832399999993      4.9920933600000001
   405   1      18.410540099999999      8.2097893499999994      5.1284337999999998
   406   1      22.483053680000001      7.9893308899999997      5.0499086200000001
   407   1             26.35896984              8.11826823      4.8699586500000001
   408   1      30.523572349999998      8.3904404899999996      5.0674106800000001
   409   1      32.233132240000003      11.377804769999999      5.0926414299999996
   410   1      3.8436798400000001      11.773904180000001              4.90928875
   411   1      8.1458411000000002      11.853983530000001      4.9638890099999999
   412   1             12.22078509             11.70802291      5.0569265400000001
   413   1      16.407944029999999      11.600112709999999      4.9644894900000001
   414   1             20.37857631             11.82166308      4.8466463700000002
   415   1      24.360825930000001      11.449467780000001      4.8547618899999998
   416   1             28.42584261             11.71949695      5.0807541000000001
   417   1      2.1459974000000002      15.149936220000001      4.9023493800000004
   418   1      6.0862042799999996      15.074855449999999              4.85854813
   419   1      10.175267010000001               15.049725      4.9526903200000003
   420   1      14.341247490000001      14.867037120000001      5.1098076399999997
   421   1      18.414554809999998      15.240522909999999      4.8017226400000004
   422   1              22.3157873      15.311210790000001      4.8039512899999997
   423   1      26.447546590000002             15.17791474      4.8526155800000002
   424   1      30.638929510000001             14.93778092      4.9050328399999996
   425   1   0.0088455500000000006      18.467928229999998      5.1237854199999999
   426   1      3.9684007399999999      18.602469259999999      5.1174350999999998
   427   1      8.1763046100000007      18.629624039999999      4.9202186699999997
   428   1             12.38280007             18.49828728      4.9200910499999999
   429   1      16.227340720000001      18.596058889999998      5.0032857599999998
   430   1             20.26297559      18.839292289999999      4.8115721100000002
   431   1             24.41707482      18.764403510000001      4.9413858099999999
   432   1      28.442817590000001      18.741237259999998      5.0519125300000001
   433   1      2.1558235300000002      22.098606870000001      4.9675169600000002
   434   1      6.0548115999999998             22.33057664              4.93352331
   435   1      10.467642639999999      22.377901959999999      4.9704140199999998
   436   1             14.15972809      22.231897969999999      4.9302938999999997
   437   1      18.348523929999999      22.196889840000001      4.8135806399999996
   438   1      22.451796210000001      22.354650249999999      5.1936252300000003
   439   1      26.358882479999998      22.317539499999999      5.2185096299999998
   440   1      30.492647519999998      22.122060059999999      4.9588778700000002
   441   1    0.097783720000000005      25.530997110000001      4.8683249999999996
   442   1      4.0342971099999998      25.760203180000001      5.0296516899999997
   443   1      8.0916071800000005      25.907469410000001      4.9035496099999998
   444   1             12.12229499      25.782101430000001      4.8269253900000004
   445   1      16.290804290000001      25.615036480000001      4.7872804699999998
   446   1      20.368308469999999             25.75847482               4.7827747
   447   1             24.32128311      25.888540769999999              5.06717847
   448   1      28.485200939999999      25.723473680000001      5.0203915200000004
   449   1      32.229813759999999              2.30478323      5.7680504800000003
   450   1      3.8356251399999999              2.33299996      5.7578632599999997
   451   1      7.9700509899999998      2.2529460600000002              5.67193623
   452   1             11.90133943      2.3965657199999999      5.7844556999999996
   453   1      16.528677269999999              2.18615614      6.0980366699999999
   454   1      20.517231779999999      2.2420146000000001      5.9124574699999997
   455   1      24.406262810000001      2.1290789399999999      5.8277292999999997
   456   1      28.354378090000001      2.3734225100000002      5.7222065400000002
   457   1              2.08563046      5.9343894700000002              5.81240501
   458   1      6.1051463799999999      5.8849322400000004      6.1332427599999999
   459   1             10.00721076              5.78666883      5.6861707600000004
   460   1              14.0462939      5.6972197099999997      5.8435332300000002
   461   1      18.387326290000001      5.7471228600000002      5.8618628299999997
   462   1             22.40943047      5.8297413599999999      5.8095562300000001
   463   1             26.44692298      5.8325388299999998      5.6670470999999996
   464   1      30.517496520000002      6.0411275099999999              5.71591659
   465   1      32.356961939999998      9.4024098800000004      6.0464018399999997
   466   1      3.9723011499999998      9.5293697900000005      5.5398364000000004
   467   1              8.13875393      9.4259499200000008      5.8855995700000001
   468   1             12.03859385      9.3578986400000002      5.8465929900000004
   469   1      16.330311760000001      9.2719323500000002              5.97907806
   470   1      20.416293880000001      9.2791426999999995      5.8002152000000002
   471   1      24.236520070000001      9.3769961500000001      5.7833003300000003
   472   1      28.411819909999998      9.3560979500000006              5.81111237
   473   1      1.9857688499999999      12.842443749999999      5.9888602200000003
   474   1      6.0540196899999996      12.817679930000001      5.9674243599999999
   475   1             10.17663531      12.841131020000001      5.7509032600000003
   476   1      14.270820820000001             12.67054431      5.7581142999999999
   477   1      18.379389379999999      12.881122149999999      5.7929119299999998
   478   1      22.456032230000002             12.99188959      5.7154965600000001
   479   1              26.2536095             12.79867651      5.7323637099999996
   480   1      30.618140589999999             12.78661108      5.7628991100000002
   481   1      32.498299459999998             16.20291843      6.0519892400000002
   482   1      4.2942605699999996      16.223947509999999      5.8908516500000001
   483   1      8.0023333799999996               16.450782      5.7155869700000004
   484   1      12.262108400000001      16.199045819999998      5.9995444999999998
   485   1      16.274049170000001      16.274635159999999      5.6530676800000004
   486   1             20.37102792      16.399412219999999              5.67239849
   487   1      24.380073970000002      16.358926749999998      5.7219683100000003
   488   1             28.52120532      16.270719549999999      5.7240966100000001
   489   1      1.9051914999999999      19.742206469999999              5.91707611
   490   1      6.0991758799999998      19.898045379999999      5.6775490299999998
   491   1             10.16721817      20.107608249999998      5.6360362100000003
   492   1             14.32888689      19.932426199999998      5.8048854499999996
   493   1             18.28132514      19.894022079999999      5.8034829700000001
   494   1             22.48470644      19.951654600000001      5.6803321499999999
   495   1      26.475400799999999             19.88316893      5.7387112800000004
   496   1             30.65972146             19.92144201      5.8724865199999998
   497   1             -0.06241091      23.263983509999999              5.87336817
   498   1      4.1382809099999998      23.287886610000001      5.7164753199999998
   499   1      8.0887701599999993      23.721448129999999      5.7632818099999996
   500   1      12.300958570000001      23.455004679999998      5.7590435500000003
   501   1      16.334332199999999      23.376844030000001      5.7002112199999999
   502   1             20.40235723      23.522696369999998      5.9873692299999997
   503   1             24.47633489      23.593006769999999               5.8976701
   504   1      28.458155779999998      23.237520490000001      5.9076611400000001
   505   1              2.14064305             26.80408443               5.8869574
   506   1      6.0368256599999999             26.83351734      5.8584392000000003
   507   1      10.110211469999999      26.917258539999999              5.73727286
   508   1             14.14566774             26.95634042      5.6192416400000003
   509   1             18.24692971      26.973128190000001      5.5636304499999998
   510   1      22.191845050000001              26.9343276      5.7966420200000002
   511   1             26.39498901      26.933333990000001      6.1653025799999996
   512   1      30.617156820000002      26.839627740000001      5.8920838199999999
   513   1     0.12909823000000001             28.13602513      6.8878893899999998
   514   1      3.9323172199999998      28.083561289999999      6.6039371899999999
   515   1      8.1883952299999994    -0.19627707999999999      6.6850405500000001
   516   1             12.08078192              28.2076618      6.3756975999999996
   517   1      16.024343330000001             28.00202964      6.5631157099999999
   518   1             20.20846354      27.912463979999998      6.5586009399999998
   519   1      24.247663289999998             27.85657045              6.60660106
   520   1      28.551190470000002      27.849557669999999      6.6016716600000001
   521   1      1.9224985299999999      3.4146931899999999              6.54746294
   522   1      5.9605710900000002      3.3303071200000001              6.65842826
   523   1      9.9275339700000007      3.5365859199999998      6.4292563100000004
   524   1      14.240574580000001      3.4201406799999998      6.5740823800000001
   525   1      18.623083950000002      3.4616546600000002      6.6468368099999999
   526   1      22.360948489999998              3.38777237      6.5315294000000002
   527   1      26.369327040000002      3.5806534499999998      6.4823162200000004
   528   1      30.373964369999999      3.7312516800000002      6.4657119600000001
   529   1      32.457360780000002      7.0307851100000001      6.6888003500000002
   530   1      4.0890763200000002              7.16986335      6.5871023700000002
   531   1      8.2515306400000004      7.1183955399999999      6.7739307100000001
   532   1      11.931435759999999      6.9039490199999998      6.6156342199999996
   533   1      16.177236600000001      6.8876521400000001      6.7244549100000004
   534   1      20.420865070000001      6.8145545500000004      6.7260837699999998
   535   1             24.46343091      6.8720186200000004      6.5987039100000002
   536   1      28.369223720000001      7.1055358699999998      6.6448102999999996
   537   1      1.8622867599999999             10.57354905      6.5935084499999999
   538   1      5.9284873300000003             10.47961922      6.5813068499999998
   539   1             10.00037238      10.625977389999999      6.7265677899999998
   540   1             14.23759798      10.417699219999999      7.0770369100000003
   541   1      18.459958060000002      10.465527359999999      6.5972909599999996
   542   1      22.428114990000001             10.64194391      6.5275584200000001
   543   1      26.392735689999999             10.50647876      6.4799251599999996
   544   1      30.117505699999999               10.553823      6.7549497599999997
   545   1             -0.04512248      13.913198660000001              6.82559644
   546   1      4.1588004200000004      13.985019599999999      6.5817744500000002
   547   1      8.0061728599999995             14.12610271      6.5712705800000002
   548   1             12.41388637      13.915950410000001      6.7631770199999997
   549   1             16.21135057             14.15728393      6.6324000300000003
   550   1      20.354205090000001      14.319728380000001      6.5401770099999998
   551   1      24.375831430000002      14.000915109999999      6.4354135000000001
   552   1      28.603525770000001              13.9350693      6.4870702600000003
   553   1      2.0696655700000002      17.148755420000001              6.77578221
   554   1      6.0961211100000003      17.613089779999999      6.7169190800000003
   555   1      10.007934970000001      17.473640360000001      6.4965716899999997
   556   1      14.139031620000001      17.387533619999999              6.76425958
   557   1      18.245025470000002      17.485044080000002      6.4884378500000004
   558   1      22.325434189999999             17.58802669      6.4688490300000003
   559   1      26.514188040000001             17.64966403               6.4559872
   560   1      30.570343560000001              17.6479623      6.7506708900000003
   561   1     0.24311184999999999      21.108557300000001              6.84434802
   562   1      4.1456030999999998      21.052170100000001      6.8525387599999998
   563   1      8.3224438299999992      21.357366880000001      6.5552604800000003
   564   1             12.28972308      21.023887469999998              6.58577703
   565   1      16.261740450000001      21.269467809999998      6.5743426700000001
   566   1      20.428337249999998      21.026911869999999      6.6022413499999999
   567   1             24.36598605      21.005049960000001      6.6798361599999998
   568   1             28.18721656             21.10400263      6.6500525699999997
   569   1      2.2001649300000001             24.53580118      6.6199985999999997
   570   1      5.9673011899999997      24.776826830000001              6.51003343
   571   1      10.052563749999999      24.731378939999999      6.6615257699999999
   572   1             14.33499439      24.403595240000001      6.6440719799999997
   573   1      18.258683130000001      24.375895669999998      6.4789904700000003
   574   1      22.365221380000001             24.76361692      6.7774199499999996
   575   1      26.434125080000001             24.72171243      6.8934248399999998
   576   1      30.529075500000001      24.564856349999999      6.7898710500000004
   577   1              1.96659688      1.2441928200000001      7.4991718599999997
   578   1      6.0052828800000002              1.18436334      7.8068156699999998
   579   1      10.293099290000001      1.1978836500000001      7.5322586999999999
   580   1             14.24629038      1.1100737199999999      7.5519337599999998
   581   1      18.542964430000001     0.88333143999999997      7.3796635799999999
   582   1      22.363241909999999      1.1399829100000001      7.5290498699999997
   583   1      26.342852059999998      1.1493443299999999      7.5268504700000003
   584   1      30.587562330000001      1.1787798700000001      7.6386225400000001
   585   1    0.032555149999999998      4.7898771499999997      7.5835410699999999
   586   1      4.0452712399999999              4.73576482      7.4313930700000004
   587   1      7.7207754199999998      4.6704431099999999      7.6249316599999997
   588   1      12.057085989999999      4.6362703700000001      7.4179023600000003
   589   1      16.467294899999999      4.7455360600000001      7.3370262200000003
   590   1             20.63331342      4.6410291900000002      7.4041636200000003
   591   1      24.370597719999999      4.5869037500000003      7.5733545900000001
   592   1             28.35296537      4.6651165700000004      7.4445610100000001
   593   1              1.92349616      8.1458033299999997      7.2975999299999996
   594   1      6.2710203099999999      8.0992947900000001      7.3976290100000002
   595   1             10.10461705              8.37724534      8.0597986899999992
   596   1             14.20926965              7.86818989      7.6707137100000002
   597   1      18.140792780000002      8.0341074599999995      7.4518496399999998
   598   1             22.46768569      8.2661348199999996      7.2456803900000004
   599   1      26.451837300000001      8.3798757500000001      7.6186573800000001
   600   1      30.402534800000002      8.2742959900000006      7.6583856700000004
   601   1      32.496067600000003             11.59088266      7.6982961200000002
   602   1              4.02559909      11.624810610000001      7.4448815599999998
   603   1      7.8075931699999996             11.58768341      7.4874472299999999
   604   1              12.2308583      11.626508469999999      7.5476889900000002
   605   1      20.177808970000001      9.3553093599999997      8.1681891100000001
   606   1      20.653122119999999      12.000216719999999      7.3239405800000004
   607   1             24.30218052      11.705803680000001      7.3724045399999998
   608   1             28.23029223      7.0415181999999996      8.9606607100000009
   609   1      2.0585408900000002             14.55903762      7.7181473399999998
   610   1      6.0745835799999996      15.143279509999999               7.3819184
   611   1             10.11177095             15.05655853      7.5277541100000001
   612   1              14.2933463      15.326160440000001      7.7457507699999999
   613   1             18.22551357      15.355739610000001      7.3975572300000003
   614   1      22.308708119999999             15.39520467      7.2264135200000004
   615   1      26.634147559999999             15.46269281              7.34711319
   616   1      30.714746359999999             15.24368164      7.9590833600000002
   617   1     0.29964395999999999             18.86682029      7.4682511399999996
   618   1      4.0503212499999997      18.763786669999998      7.5101621200000004
   619   1      8.1924444600000008      18.695571449999999      7.4160258499999996
   620   1             12.13695903      18.741421720000002      7.2993956999999998
   621   1             16.41550307             18.72408596      7.4327491200000004
   622   1      20.182085109999999      18.728568639999999      7.3968383199999996
   623   1              24.2866322      18.726442420000001      7.4178798500000003
   624   1      28.694853930000001             18.92217604      7.6416032700000001
   625   1      2.2404146900000002             22.25464449      7.7127299200000001
   626   1              6.35207093      22.569621510000001      7.5090157900000003
   627   1      8.3241047500000001             23.27502265      8.4086473399999999
   628   1             14.32057504      22.130079850000001              7.34991532
   629   1      18.357026980000001      22.172449889999999      7.4469516699999998
   630   1      22.254553749999999      22.149236460000001      7.7188056500000002
   631   1             26.31568322      22.492778470000001      7.5727725599999998
   632   1             30.24344322             22.25362475      7.6766050699999999
   633   1              -0.0140553      25.614496129999999      7.4816918699999997
   634   1              3.98919516      25.759792170000001              7.43357153
   635   1      7.9853658000000003      25.671580120000002      7.5822773400000001
   636   1      12.345087120000001      25.593594540000002      7.4237544299999998
   637   1      16.262485789999999      25.496304370000001      7.1975363400000001
   638   1             20.34765453      25.813570349999999      7.8155449499999996
   639   1      24.668302019999999      25.880166410000001      7.7659857199999998
   640   1      28.527364070000001      25.713899649999998      7.5466959400000002
   641   1      3.5282324200000001      6.9842612099999997      9.4071405600000002
   642   1              2.06524917      3.8775672700000001      9.1718616100000006
   643   1      10.022698889999999      3.5781867799999998              9.02174531
   644   1             12.16857987      28.014287530000001      8.6557950300000002
   645   1             10.30558987      22.450620189999999      7.4132631199999999
   646   1      20.577348069999999      2.3717845099999999      8.2150741899999993
   647   1      24.932938029999999      7.0217152799999996      9.0932238000000005
   648   1     0.22553234999999999      2.3515629599999999      8.3314209800000008
   649   1      32.278480829999999      6.9992767999999996      9.1189030899999999
   650   1              1.94351842      24.390235919999999      9.1297818500000005
   651   1      14.373554309999999      26.850843059999999      8.0517584600000003
   652   1      12.515980580000001      9.4223566200000004      8.6198740399999991
   653   1      22.488263190000001             10.79220009      8.8371272899999997
   654   1      3.9775917700000001               0.1534441      9.0510739400000002
   655   1      18.436087959999998              2.82237472      9.0760616200000008
   656   1      5.8179841200000002      8.2962722899999992      9.9519404900000001
   657   1      7.7793511899999999      9.4758956800000007      8.6364800099999997
   658   1      14.292162729999999      17.676566680000001      9.2328453699999997
   659   1      4.1938709000000003             13.76220052      9.3478573100000002
   660   1      9.9277421599999993              5.80655783      8.3344402500000001
   661   1      19.993180039999999      27.687508579999999      9.0667070200000008
   662   1      24.211787170000001      9.2921404299999999      8.3848531800000003
   663   1      18.546965719999999      5.8345060699999998      8.1745521399999994
   664   1      6.2998450100000003      15.380309110000001      9.8653740400000007
   665   1      10.304805419999999      10.563585570000001      9.0861449600000004
   666   1              10.3139529             17.79582924      8.8910786700000006
   667   1             14.03668673      19.849244129999999      8.1912308500000002
   668   1      16.389166970000002             11.77661619      7.5044850500000004
   669   1      26.156821390000001      13.127645169999999      8.3752455999999995
   670   1      26.401325960000001      5.7317587899999998      8.2222506499999994
   671   1     0.28760203000000001             16.51943421      8.4444846299999998
   672   1      1.9272052099999999             12.41347685      8.5305550599999993
   673   1      5.6661407199999996      10.616646279999999      9.0325859499999996
   674   1   -0.077595319999999995      14.209363379999999      9.2883749299999998
   675   1             16.18322199             16.64541462      7.9625074099999997
   676   1             10.30941515              20.1006678      8.1300519199999997
   677   1      18.745015030000001      13.149281609999999      8.2320066500000006
   678   1      22.403878750000001      17.372644529999999      8.8905866299999996
   679   1      26.035796300000001              10.6092026      8.9212404200000002
   680   1             28.22529222             11.79684048      7.7405005899999999
   681   1      1.9909233799999999      1.4970575699999999      9.8413571700000002
   682   1      8.2590221800000005      16.376306459999999      8.3835834800000004
   683   1      5.8842332800000001      27.065746480000001      8.4047826099999998
   684   1      9.8752502900000003             12.70642035      8.3309188699999996
   685   1             22.25214557      19.694954809999999      8.0704222399999992
   686   1      20.309199379999999      20.815015729999999      9.0876376499999996
   687   1      28.514973779999998      14.227827120000001      8.7329745299999999
   688   1      30.488630789999998             12.77292227      8.7134028000000008
   689   1      24.493860659999999      20.998038529999999      9.1256604200000009
   690   1      4.1828094800000004             23.51829923      8.1567599000000008
   691   1              3.96014234               4.5564358      10.200346140000001
   692   1      17.978741769999999      26.749406270000001      8.0284609200000006
   693   1      18.333954309999999      20.055871939999999      8.2235165000000006
   694   1      18.300128529999999      17.536753170000001      8.8643030399999994
   695   1      24.164341839999999      23.295347679999999      8.1384533599999997
   696   1      28.369589909999998              23.3514409      8.6721773899999999
   697   1      3.8289545700000001      2.3428399400000002      8.3992708900000004
   698   1             12.31509134      23.222181899999999      8.2929273499999994
   699   1      20.188505979999999             23.33696269      8.5594400999999998
   700   1             18.04776201      24.470923920000001      9.0241223000000002
   701   1             15.42862309              2.89862413      8.5386434399999995
   702   1             26.25025265      24.785751569999999      9.5273351399999999
   703   1             22.69506471      3.7886557399999998      9.0595341499999993
   704   1      32.279046190000003      25.645671830000001      9.8535746300000007
   705   1      2.1137748900000002      6.0105255900000003      8.2498951900000002
   706   1      5.9879801500000003               3.3754708      9.2289282799999999
   707   1      14.129150149999999              5.34410746      8.1859485700000008
   708   1      16.197944880000001             20.56118215      9.1079900899999995
   709   1      22.290124670000001      26.862940869999999      8.3619798099999993
   710   1             18.04894371             22.08066913      9.8007866299999993
   711   1      30.470711590000001      3.2349219699999998      8.9474329400000006
   712   1    0.082863389999999995      23.213411700000002      8.2339760900000005
   713   1             -0.15694753    0.053414370000000003      9.2774801799999995
   714   1      30.450856309999999      24.491040949999999      9.2502468699999998
   715   1      30.499210550000001             26.81046473      8.3602275699999993
   716   1      12.433821760000001      2.6285077800000001      8.5011758299999993
   717   1      24.478917769999999      28.110718479999999      9.2017844400000008
   718   1      26.210683670000002      3.4461156000000002      8.7071931500000002
   719   1      2.1161235899999999             10.14759005      9.0225668900000002
   720   1      30.443917840000001      5.6838646800000001      8.4425028399999995
   721   1      4.1161447100000004      9.1075826800000002      7.8953141599999999
   722   1      12.241402470000001      16.358818620000001              8.26598349
   723   1      5.7054741099999999      5.8519569499999999              8.97328014
   724   1      7.9438933799999996              6.90420956      9.3367335300000001
   725   1      12.339135369999999      6.8349584400000003              8.87892276
   726   1      16.338115009999999      7.0371324499999997      9.0406787400000006
   727   1      16.292311980000001      23.340738089999999      8.4437964099999991
   728   1      28.537164300000001      9.4696941799999994      8.2051506599999993
   729   1              8.09938848      14.135786700000001      8.9281734400000001
   730   1      8.1848123499999996      2.3000567200000002      8.3500840899999993
   731   1      14.244706389999999             12.87982132      8.3313707400000006
   732   1      16.072663500000001      9.3659798999999992      8.1882478499999998
   733   1      20.315511870000002      16.276254309999999      8.1282438700000004
   734   1      2.0742951500000002             26.92824066      8.4631366499999992
   735   1      24.394572790000002      2.1598942999999999      8.2804236699999993
   736   1              8.28510408      11.706996500000001      9.8938472799999992
   737   1      28.567743620000002      20.892217179999999      9.1424591100000008
   738   1      32.293573940000002      9.3076573600000003      8.5459432700000004
   739   1      12.018783819999999              13.8859256      8.9523038600000007
   740   1      16.697727879999999      13.925132209999999      8.9757312200000001
   741   1              22.4786462      13.318524719999999      8.3111184500000004
   742   1      28.474566759999998      2.1506159399999998      8.1747846099999997
   743   1      22.755118469999999      6.0940255700000003      8.3273920199999996
   744   1      30.833342399999999      17.831473819999999      9.1111705500000006
   745   1      2.1602193299999999             20.01217647      8.4204233500000001
   746   1      6.1965544000000001      12.864759299999999      8.5170838100000008
   747   1             10.28134105      15.283590439999999      9.8639658400000005
   748   1      6.0192466900000001      20.002414569999999      8.1032813099999998
   749   1      24.426177110000001             16.29977834      8.1100549999999991
   750   1      26.627196179999999      17.507954229999999      8.9994677299999992
   751   1      24.450080580000002             18.68694404      9.7700240899999997
   752   1      4.0185163599999996             16.13491226      8.3072487400000004
   753   1      5.9590531000000002             17.81109305      8.9891585999999997
   754   1      10.607370380000001             24.58671627      8.9882276700000006
   755   1      4.1847156500000002             25.80812705      9.7540347000000001
   756   1               10.273087             26.91227262      8.1170063100000007
   757   1      6.2406113799999998             24.68747819      9.0608261500000005
   758   1      26.697983709999999      27.169251500000001      8.4959091699999991
   759   1             26.47747137             20.03788106      8.1213020199999999
   760   1      28.581837149999998      25.689109720000001      9.8341795399999992
   761   1      8.0093175900000002             20.74819982      8.9587476800000001
   762   1      28.790210829999999      16.567444999999999      8.3128041600000007
   763   1      8.0571707900000007      4.3336287699999998      9.9785691799999992
   764   1      8.0215752400000007             28.08116111      9.1830808299999998
   765   1             16.68244421     0.62094956999999995      8.8520142100000001
   766   1      22.157329959999998      24.323719480000001      9.1948722800000002
   767   1      28.965675279999999             -0.08004812      9.4315486100000001
   768   1      30.779800940000001      20.135658759999998              8.19022352
   769   2      16.831470240000002      5.2327526500000001      9.1790037299999998
   770   2             16.89651563      3.5653973799999998      9.3214608200000004
