N2-dn2-coord-10bar/700K/snapshots/frame-147288/run-000/../data.lammps (written by ASE) 

770 	 atoms 
2  atom types
0.0      32.470343392086264  xlo xhi
0.0      28.120142247150884  ylo yhi
0.0      31.213473999158239  zlo zhi


Atoms 

     1   1      2.0293964600000001      1.1716090800000001    0.023552650000000001
     2   1      6.0880008999999999              1.17168918              0.02556874
     3   1      10.146952280000001              1.17170328    0.025416459999999998
     4   1      14.205754900000001      1.1716496700000001              0.02501565
     5   1             18.26456816              1.17166478              0.02504435
     6   1             22.32338141      1.1716496700000001              0.02501565
     7   1      26.382184030000001              1.17170328    0.025416459999999998
     8   1      30.441135410000001              1.17168918              0.02556874
     9   1  9.1780000000000006e-05      4.6866847900000002    0.025581599999999999
    10   1      4.0587011400000002      4.6866847900000002    0.025581599999999999
    11   1      8.1174961000000003      4.6866290399999997    0.025584639999999999
    12   1             12.17638011      4.6866852999999997              0.02491202
    13   1             16.23517979      4.6866942700000003    0.025006210000000001
    14   1      20.293956519999998      4.6866942700000003    0.025006210000000001
    15   1      24.352756209999999      4.6866852999999997              0.02491202
    16   1      28.411640219999999      4.6866290399999997    0.025584639999999999
    17   1      2.0293964600000001      8.2016395800000002    0.026613040000000001
    18   1      6.0881071599999999      8.2016314300000008              0.02543782
    19   1             10.14701835               8.2017045    0.025156850000000001
    20   1      14.205766049999999      8.2017080900000003    0.024990459999999999
    21   1             18.26456816      8.2017077599999997    0.025091249999999999
    22   1      22.323370260000001      8.2017080900000003    0.024990459999999999
    23   1      26.382117969999999               8.2017045    0.025156850000000001
    24   1      30.441029149999999      8.2016314300000008              0.02543782
    25   1  9.2789999999999998e-05             11.71671873    0.025573410000000001
    26   1              4.05870014             11.71671873    0.025573410000000001
    27   1      8.1176017700000003             11.71668698              0.02497914
    28   1             12.17637068             11.71673069    0.025001590000000001
    29   1      16.235177310000001      11.716730249999999    0.025074039999999999
    30   1      20.293959009999998      11.716730249999999    0.025074039999999999
    31   1      24.352765640000001             11.71673069    0.025001590000000001
    32   1      28.411534549999999             11.71668698              0.02497914
    33   1      2.0293964600000001             15.23167155              0.02525285
    34   1      6.0881728300000004      15.231678799999999    0.025062859999999999
    35   1             10.14698486      15.231762639999999               0.0250786
    36   1             14.20578841             15.23176782    0.025201990000000001
    37   1             18.26456816              15.2317707    0.025149979999999999
    38   1      22.323347900000002             15.23176782    0.025201990000000001
    39   1      26.382151459999999      15.231762639999999               0.0250786
    40   1      30.440963480000001      15.231678799999999    0.025062859999999999
    41   1      32.470327990000001      18.746748629999999    0.024951939999999999
    42   1      4.0588083299999997      18.746748629999999    0.024951939999999999
    43   1      8.1175770200000006      18.746803499999999    0.025222040000000001
    44   1             12.17637459      18.746799750000001    0.025428470000000002
    45   1      16.235159400000001      18.746805200000001    0.025487360000000001
    46   1      20.293976919999999      18.746805200000001    0.025487360000000001
    47   1      24.352761730000001      18.746799750000001    0.025428470000000002
    48   1             28.41155929      18.746803499999999    0.025222040000000001
    49   1      2.0293964600000001      22.261939099999999    0.025844880000000001
    50   1      6.0881419299999999      22.261841799999999    0.025489439999999999
    51   1             10.14692954             22.26176895              0.02551757
    52   1             14.20573559      22.261804690000002    0.025639160000000001
    53   1             18.26456816             22.26178625    0.025640119999999999
    54   1      22.323400729999999      22.261804690000002    0.025639160000000001
    55   1      26.382206780000001             22.26176895              0.02551757
    56   1             30.44099439      22.261841799999999    0.025489439999999999
    57   1  5.6450000000000003e-05      25.776936450000001              0.02613327
    58   1      4.0587364700000004      25.776936450000001              0.02613327
    59   1      8.1175325399999991              25.7767713    0.024734180000000001
    60   1      12.176376469999999      25.776831090000002              0.02545323
    61   1      16.235145939999999      25.776775220000001    0.025273360000000002
    62   1             20.29399038      25.776775220000001    0.025273360000000002
    63   1      24.352759840000001      25.776831090000002              0.02545323
    64   1      28.411603769999999              25.7767713    0.024734180000000001
    65   1  0.00024266000000000001              2.34304215     0.80166565000000001
    66   1      4.0585502699999996              2.34304215     0.80166565000000001
    67   1      8.1157394600000003              2.34454954     0.80169402000000001
    68   1             12.17601256      2.3433829099999999     0.80116898000000003
    69   1      16.235258170000002      2.3433209100000001     0.80090046999999998
    70   1      20.293878150000001      2.3433209100000001     0.80090046999999998
    71   1      24.353123750000002      2.3433829099999999     0.80116898000000003
    72   1      28.413396859999999              2.34454954     0.80169402000000001
    73   1      2.0293964600000001      5.8582218700000004     0.80119762000000005
    74   1      6.0870566899999998      5.8583336700000004              0.80194851
    75   1             10.14649655              5.85853131     0.80121584000000001
    76   1             14.20597894      5.8582938599999999     0.80086840999999998
    77   1             18.26456816      5.8583798500000004               0.8010794
    78   1      22.323157380000001      5.8582938599999999     0.80086840999999998
    79   1             26.38263976              5.85853131     0.80121584000000001
    80   1      30.442079629999999      5.8583336700000004              0.80194851
    81   1  0.00019438999999999999      9.3717771800000005     0.80082061000000004
    82   1      4.0585985400000002      9.3717771800000005     0.80082061000000004
    83   1      8.1175070500000004      9.3725002699999997     0.80149060999999999
    84   1      12.176590020000001      9.3733583399999993     0.80088261999999999
    85   1             16.23512199      9.3733789200000004              0.80106506
    86   1             20.29401433      9.3733789200000004              0.80106506
    87   1      24.352546289999999      9.3733583399999993     0.80088261999999999
    88   1      28.411629269999999      9.3725002699999997     0.80149060999999999
    89   1      2.0293964600000001             12.88692854     0.80220621000000003
    90   1      6.0883212999999996             12.88743848     0.80138414999999996
    91   1      10.147128609999999             12.88859852     0.80085256000000005
    92   1             14.20571782      12.888558189999999     0.80113791000000001
    93   1             18.26456816      12.888409899999999     0.80109381000000002
    94   1      22.323418490000002      12.888558189999999     0.80113791000000001
    95   1             26.38200771             12.88859852     0.80085256000000005
    96   1      30.440815019999999             12.88743848     0.80138414999999996
    97   1              0.00012365      16.403222639999999     0.80145666999999998
    98   1      4.0586692700000002      16.403222639999999     0.80145666999999998
    99   1      8.1174337899999998      16.403825260000001     0.80097196999999998
   100   1              12.1761021             16.40390721     0.80133072000000005
   101   1             16.23503496      16.403861750000001     0.80140014999999998
   102   1      20.294101359999999      16.403861750000001     0.80140014999999998
   103   1      24.353034220000001             16.40390721     0.80133072000000005
   104   1      28.411702529999999      16.403825260000001     0.80097196999999998
   105   1      2.0293964600000001      19.919205120000001     0.80066369999999998
   106   1              6.08752564             19.91894023     0.80122479000000002
   107   1      10.146078839999999             19.91919038     0.80159137999999996
   108   1      14.204993419999999              19.9192584     0.80178742000000003
   109   1             18.26456816      19.919377350000001     0.80194975999999996
   110   1      22.324142899999998              19.9192584     0.80178742000000003
   111   1      26.383057470000001             19.91919038     0.80159137999999996
   112   1      30.441610669999999             19.91894023     0.80122479000000002
   113   1              0.00142012      23.434536609999999     0.80178442000000005
   114   1      4.0573728100000004      23.434536609999999     0.80178442000000005
   115   1      8.1165862000000004      23.433936769999999     0.80182306000000003
   116   1             12.17555218      23.433996919999998     0.80156656000000004
   117   1             16.23465491      23.434040110000002     0.80170828999999999
   118   1      20.294481409999999      23.434040110000002     0.80170828999999999
   119   1      24.353584130000002      23.433996919999998     0.80156656000000004
   120   1      28.412550110000002      23.433936769999999     0.80182306000000003
   121   1      2.0293964600000001      26.949875330000001              0.80297246
   122   1      6.0858208300000003      26.950066320000001              0.80215291
   123   1             10.14598146      26.949241430000001     0.80165810000000004
   124   1             14.20520604      26.948673230000001     0.80131923999999999
   125   1             18.26456816             26.94858318     0.80108193999999999
   126   1      22.323930279999999      26.948673230000001     0.80131923999999999
   127   1      26.383154860000001      26.949241430000001     0.80165810000000004
   128   1             30.44331549      26.950066320000001              0.80215291
   129   1      32.397856470000001      27.951740279999999      1.3147436800000001
   130   1      4.2389371300000001   -0.082290500000000003              1.41178414
   131   1      7.9397509900000003      28.051975840000001      1.2203561700000001
   132   1      12.326870489999999             -0.02721585              1.63599436
   133   1      16.230208529999999      28.109647120000002              1.34680361
   134   1      20.316011880000001              -0.0381026      1.3151118900000001
   135   1      24.482502069999999      28.108316299999998      1.3339651299999999
   136   1      28.351152710000001    0.031978149999999997      1.5639321100000001
   137   1      2.0960975799999999      3.4974539299999998      1.3929539399999999
   138   1      5.9518425300000004      3.6033655000000002              1.73943319
   139   1      9.9766758499999995      3.4418248199999999      1.3510227100000001
   140   1              14.2668921              3.39145633      1.5011454900000001
   141   1             18.17233319      3.5418146699999999      1.4790816899999999
   142   1      22.338214050000001      3.6041197700000001               1.4222569
   143   1      26.466709680000001      3.5524047099999998      1.3750252599999999
   144   1      30.561718819999999      3.4764556099999999      1.6792314500000001
   145   1    0.095637929999999996      7.0842958300000003      1.4121494299999999
   146   1      4.0829748400000003      7.1325097700000004      1.5582735599999999
   147   1      8.0805176200000002              6.91619838              1.61835705
   148   1      12.124500599999999      7.1171096599999997      1.3671274499999999
   149   1             16.14119724      7.2732812200000003              1.42950036
   150   1      20.241086320000001      7.0566185399999997      1.3463005400000001
   151   1      24.347074920000001      6.9335958499999997      1.4085118700000001
   152   1      28.383222580000002      6.9815579400000001              1.44395597
   153   1      1.9812302500000001             10.62831005               1.2450815
   154   1      6.1321104399999999      10.518929979999999      1.2620981099999999
   155   1             10.11453921             10.45200028              1.57799461
   156   1      14.093051450000001              10.5215894      1.4374595299999999
   157   1      18.363815649999999      10.503321359999999      1.2651488799999999
   158   1      22.448749249999999             10.62509202      1.3179894299999999
   159   1             26.28500107             10.73456101              1.10778859
   160   1      30.699875299999999      10.569138089999999      1.6152272700000001
   161   1      32.446263770000002             14.27501545      1.3949415599999999
   162   1      4.0068707799999999      14.038216050000001              1.66242011
   163   1      8.0408537500000001             14.06973711      1.3419690399999999
   164   1             12.15282054      14.088749849999999              1.40707585
   165   1      16.175640420000001      14.166184619999999               1.3266376
   166   1      20.392139650000001      13.895332079999999      1.2163303299999999
   167   1             24.41155075      14.098603580000001      1.6025448099999999
   168   1      28.432502670000002             14.33343017      1.6493695100000001
   169   1      1.8706031700000001             17.55050087              1.35955754
   170   1      6.0331403300000002      17.490906039999999      1.2264749500000001
   171   1      10.053156660000001             17.62906873      1.6129938500000001
   172   1             14.31471451             17.52833803      1.4488187299999999
   173   1      18.415358779999998      17.592556550000001              1.53273569
   174   1             22.27274199      17.526517519999999      1.4092113799999999
   175   1             26.48343788      17.586904310000001              1.56807593
   176   1      30.541980160000001      17.720814099999998              1.33587974
   177   1      32.571242759999997             21.05868147              1.42689439
   178   1      4.1741670299999996      21.004259680000001              1.41614671
   179   1      8.0531842499999993      21.033928970000002      1.2210016800000001
   180   1             12.26797885      21.042471819999999      1.5169482000000001
   181   1      16.229172250000001      21.029714980000001      1.3143499599999999
   182   1      20.379820980000002      21.231899680000001               1.6560233
   183   1      24.371063100000001      21.034740459999998               1.3257048
   184   1             28.39777234              21.1512286      1.4893434999999999
   185   1      2.2134481199999998      24.706285359999999      1.6121851599999999
   186   1      6.0857471600000004      24.550944650000002      1.4469082600000001
   187   1             10.10477699      24.717859709999999      1.5188756999999999
   188   1      14.056563410000001      24.572413839999999              1.60080467
   189   1      18.204824819999999      24.566931780000001      1.3465895000000001
   190   1      22.345168879999999      24.568133069999998              1.39437959
   191   1      26.460993030000001      24.653964210000002      1.3381249399999999
   192   1      30.605317500000002      24.510549480000002      1.6100751099999999
   193   1      2.1852084999999999      1.0012581599999999              2.31588036
   194   1              6.11744618              1.29859258      2.4297142699999998
   195   1             10.22347111              1.33415986      2.4053290899999999
   196   1             14.26240915      1.1737031200000001               2.3482805
   197   1      18.425470870000002      1.1599621499999999      2.3523419400000001
   198   1      22.357869000000001      1.2165400900000001      2.3426525499999999
   199   1      26.299864530000001              1.27153056      2.4288837299999999
   200   1      30.518918809999999     0.97709900000000005              2.38204927
   201   1    0.096900089999999994      4.5606850000000003      2.5038281800000002
   202   1      4.0670625600000001      4.8207184400000003              2.52259791
   203   1               8.1663815      4.5086536600000002      2.4256162699999999
   204   1             12.29574674      4.8340872700000004      2.3140947600000001
   205   1      16.201670910000001              4.66987357      2.3256809399999998
   206   1      20.155560220000002      4.5658799400000003      2.5349493500000002
   207   1      24.489571089999998      4.5935088799999999              2.47508244
   208   1             28.63694899      4.7472285799999998      2.4458510000000002
   209   1      2.0593200600000001      8.1673176400000003      2.3550150200000002
   210   1      6.1530170899999996      8.1861888999999994      2.5395404699999999
   211   1             10.12678184      8.2514523700000009              2.39787909
   212   1      14.136255869999999      8.3856314699999999              2.44773935
   213   1      18.396763400000001              8.02156555      2.3077427500000001
   214   1      22.276018019999999      8.2184366600000001      2.3516107900000001
   215   1             26.42022742              8.19388936      2.3164110400000002
   216   1             30.36385069      8.1825746699999993      2.2826053599999998
   217   1    0.045948969999999999      11.814132219999999      2.3002178600000001
   218   1               3.9393064             11.59965643      2.5648973000000002
   219   1      8.0951831300000006              11.8866931      2.4137573400000001
   220   1      11.923345810000001      11.787541149999999      2.5205486800000001
   221   1      16.367351459999998             11.66812719      2.2210802799999998
   222   1             20.51470325      11.695713319999999              2.42692109
   223   1      24.286543429999998             11.96384149      2.4891258399999998
   224   1             28.43753993      11.805211740000001      2.2288521100000001
   225   1      2.1479165099999999             15.38841676              2.39655196
   226   1      6.0887424499999998             15.31687997      2.5103228500000001
   227   1             10.27150494             15.43896322      2.4031364599999998
   228   1             14.25849485             15.22567141              2.34273694
   229   1      18.166864589999999             15.46388825      2.4125438400000001
   230   1      22.340567799999999             15.15394296      2.4700191899999999
   231   1      26.472359529999999      15.354687609999999      2.4712740100000001
   232   1      30.429645059999999             15.43443785      2.4781477299999999
   233   1      32.458364199999998             18.82178429      2.4164974899999998
   234   1      3.9416093700000001             18.54879712      2.3705516200000001
   235   1              7.81635803      18.695891880000001      2.3260637900000001
   236   1      12.267457289999999      18.540606960000002      2.4109162099999999
   237   1      16.135331000000001             18.90207152              2.57311194
   238   1      20.353920890000001              18.7547262              2.33675955
   239   1      24.250192770000002      18.700332920000001      2.4935307999999998
   240   1             28.52541888      18.684455580000002      2.4655155999999998
   241   1      2.1571387799999999      22.402948810000002      2.3364652299999999
   242   1      6.0263021800000001      22.304399620000002      2.3508303700000002
   243   1              10.1404224      22.192355169999999      2.3420083900000002
   244   1             14.16192566      22.339961760000001      2.3972775799999999
   245   1      18.273998639999999      22.326056479999998      2.3698821200000002
   246   1      22.426805120000001      22.364186270000001      2.3545665100000002
   247   1             26.44879641             22.23361796      2.3866252999999999
   248   1             30.52592834             22.17968467      2.6539580900000002
   249   1   -0.043901080000000002      25.815615340000001              2.47065052
   250   1      4.1504743399999997      25.958896639999999      2.2980667100000001
   251   1      7.8978084700000002      25.802347059999999      2.4004523999999998
   252   1              12.0321526      25.859182279999999              2.53998401
   253   1      16.239184269999999      25.725821849999999      2.4192410400000002
   254   1      20.321519139999999      25.623200409999999      2.4174772299999998
   255   1             24.38895071      25.678912149999999      2.3324856600000001
   256   1      28.424072840000001      25.758785679999999      2.5070535199999999
   257   1             -0.03863192      2.1677672499999998      3.2662394099999998
   258   1      4.1719015400000004      2.4409082899999999      3.2654557299999998
   259   1      8.0757128500000004      2.3520158900000001               3.1744653
   260   1      12.295921910000001      2.4061073500000001      3.1811999200000001
   261   1      16.336009829999998      2.1978536499999999      3.3038292199999999
   262   1      20.235116810000001              2.20477832              3.13208756
   263   1             24.39069932      2.3147330300000002      3.1770188899999998
   264   1      28.246760340000002      2.1714792300000001              3.18384585
   265   1      1.9613242900000001      5.7274643300000001      3.2174780799999998
   266   1      6.1815699000000004      5.8533712600000003      3.3143626300000002
   267   1      10.050415539999999      5.9355689800000002      3.1386675999999998
   268   1             14.26689285               5.9944606      3.3351497299999999
   269   1      18.079634200000001      5.8401477799999997      3.3609492699999999
   270   1      22.367505000000001      5.7136207700000003      3.3246707400000002
   271   1             26.42724368      6.0337268000000002              3.19599324
   272   1      30.503044160000002      5.9635362299999999      3.2418794800000001
   273   1   -0.018940619999999998      9.5171305099999994      3.1223475199999999
   274   1      4.0708345499999998      9.1526160399999998      3.2232183000000001
   275   1      8.0465233600000001      9.5019151900000001      3.4751789500000001
   276   1              12.1364979      9.4218915699999997      3.2830389699999998
   277   1      16.181121650000001      9.3269567099999993      3.1700457000000002
   278   1      20.355491170000001      9.4284217399999992              3.31436004
   279   1      24.485691429999999      9.3521842799999995      3.2438464599999999
   280   1      28.399554120000001      9.1762191299999998      3.1378776199999998
   281   1              2.12860498             12.87781049              3.23320228
   282   1      6.0344648200000002             12.87203879              3.40321776
   283   1             10.16755457      13.098410400000001      3.2697485199999998
   284   1      14.436362689999999              12.8463885      3.2229955800000001
   285   1      18.437635799999999             13.08394509      3.1959685100000002
   286   1      22.223670250000001             12.92828823              3.35958823
   287   1      26.458355950000001      12.866748749999999      3.4866608800000001
   288   1      30.331032660000002              13.1788224      3.1637661499999998
   289   1    0.037522369999999999      16.461511940000001      3.3008015500000001
   290   1      4.1697554200000004      16.517014119999999      3.4489328700000002
   291   1      8.0891861499999997             16.39094115              3.23298855
   292   1      12.499462360000001      16.355411010000001      3.3401037499999999
   293   1      16.286198850000002      16.494290490000001      3.3247120200000002
   294   1      20.272481030000002      16.341100730000001      3.3304262100000002
   295   1      24.493204030000001      16.474168729999999              3.22633166
   296   1      28.382524960000001             16.47438155              3.48613726
   297   1      1.9550624000000001      19.930279779999999      3.1847929700000002
   298   1      6.0809629599999999      19.862055040000001      3.0745739599999999
   299   1             10.01782916             19.85541362               3.2349066
   300   1      14.221762010000001      19.880696059999998      3.2168833700000001
   301   1      18.410096450000001      20.238989549999999      3.2990672000000001
   302   1      22.220710400000002      19.893168530000001      3.4077284200000002
   303   1             26.55349842      19.786292880000001      3.3058274700000001
   304   1      30.372503550000001      19.955249949999999      3.4163996000000001
   305   1      32.609493540000003      23.454940369999999              3.36131402
   306   1      4.1556803899999997      23.357524959999999      3.3224280500000001
   307   1      8.2732045400000001      23.447282449999999      3.2365906899999999
   308   1      12.071085070000001      23.481877529999998      3.0182437200000001
   309   1      16.189394140000001      23.484559369999999              3.20550947
   310   1      20.289842239999999      23.332921899999999              3.33964303
   311   1      24.270152660000001             23.34092682      3.3626315600000001
   312   1      28.330910500000002      23.534461700000001              3.33009618
   313   1      2.0199189899999999      26.865771259999999      3.1548172700000001
   314   1      5.9533765299999999             26.93008867      3.2953034300000001
   315   1             10.00191686      27.047270869999998      3.2581277200000001
   316   1             14.21948216             27.01160801              3.25875176
   317   1      18.283816510000001      26.856585089999999      3.1861112999999999
   318   1      22.136528290000001      26.814925930000001      3.3551294700000001
   319   1              26.3123416      26.825073249999999      3.3834705899999999
   320   1      30.448110740000001             26.90807233      3.4076725099999998
   321   1   -0.037120710000000001             28.18772268              4.03652312
   322   1      4.0864714500000003             28.18331298      4.0922598099999998
   323   1      8.1869055799999995      28.105689040000001      4.0554598899999998
   324   1      12.122711710000001     0.17493877999999999      4.1893369199999997
   325   1             16.37430303             28.02596192      4.1354097699999999
   326   1      20.271169310000001      28.003973009999999      4.1003325200000003
   327   1      24.338800880000001   -0.091928220000000005               3.9252905
   328   1      28.364458030000002      28.060909550000002      4.1618971399999998
   329   1              2.05682952      3.6365734600000001      4.0480875699999999
   330   1      6.3268892699999997      3.5906150100000001      4.1556323600000002
   331   1      10.281980969999999      3.5602496100000001      4.0344659299999996
   332   1      14.284145179999999      3.5140953399999999      4.0533829199999998
   333   1      18.277584139999998              3.61009059      4.0358174199999999
   334   1      22.414410549999999      3.3215983800000002      4.2241318999999997
   335   1      26.351184020000002      3.5572187400000002      4.0805937500000002
   336   1      30.419229959999999      3.5380363300000002      3.9501491199999998
   337   1      32.580097360000003      6.8670177900000002      3.8841948999999998
   338   1      4.0702732900000003      6.9447272399999997      4.1132795499999997
   339   1      8.1862317400000002      7.2955043699999997              4.12399454
   340   1              12.0777687              6.86328022      4.1674290899999997
   341   1      16.109711000000001      7.0904505899999997      4.2273820000000004
   342   1      20.389848449999999      7.0638095300000003      3.8044567200000001
   343   1      24.357819110000001      6.9401829599999996              4.02641559
   344   1      28.393657189999999      6.9590377600000002      3.9835815000000001
   345   1              2.11997335             10.42029733      4.0697633199999999
   346   1      6.0935850599999997             10.61009192      3.9993703300000001
   347   1      10.159666939999999      10.877898439999999      4.1078602699999998
   348   1             14.33269744             10.47264796              3.99238654
   349   1      18.336312190000001             10.45494858      4.0627146400000003
   350   1      22.514995450000001             10.61280678      3.7776199300000002
   351   1             26.54415182      10.576279189999999      4.3032483499999996
   352   1      30.331421209999998              10.6237596      3.9887908799999998
   353   1      32.650213479999998             14.14417942      4.0160548599999997
   354   1      4.2067591000000002      14.047222590000001      4.0233017100000001
   355   1      8.1422886200000004             14.08541041      4.3355257299999996
   356   1             12.38158819      13.895051860000001              3.95424723
   357   1      16.358643910000001      14.170315820000001      4.1541925900000001
   358   1      20.395121079999999             14.17819181      4.1273719499999997
   359   1      24.236687459999999      14.021889610000001      4.0995097899999999
   360   1             28.54291898      14.064279129999999              4.23137585
   361   1      1.9224013200000001             17.62962812      4.1375043199999997
   362   1      6.1210077299999996             17.47990377      3.9474726800000002
   363   1      10.365754949999999      17.453220930000001      4.0625306400000003
   364   1             14.34358522      17.552464619999999      4.1871890499999997
   365   1      18.365589010000001      17.623825159999999      4.1386235899999999
   366   1             22.24943979      17.509137679999998               4.0878112
   367   1             26.48412278             17.62338089      4.0934733200000002
   368   1             30.54226251      17.372993699999999      4.2492120299999998
   369   1      32.480117630000002      21.038030389999999      4.2272299100000001
   370   1      3.9843824400000001             20.97601508              4.06703641
   371   1      8.0896446799999993             21.04707174      4.0708421000000001
   372   1             12.10574914      21.114614710000001      4.0634604699999999
   373   1      16.348669050000002      21.292652260000001      4.0884091900000001
   374   1      20.358488000000001      21.232913109999998      4.2752917899999998
   375   1      24.206601890000002      20.965974769999999      4.0784676800000002
   376   1              28.4737863      21.261079519999999      4.1298998300000003
   377   1      2.0691516000000001             24.52292198      4.0475934999999996
   378   1      6.0448526100000004             24.47749503      4.0707796399999996
   379   1      10.117881329999999      24.524115049999999      4.2804030800000001
   380   1      14.225450840000001      24.699312500000001      3.9908664900000002
   381   1      18.319855440000001      24.734962639999999      4.0134206199999998
   382   1      22.278834379999999      24.569199650000002      4.1802384300000002
   383   1             26.43275384              24.5515018              4.18079556
   384   1      30.488754839999999      24.688878920000001      4.1321791799999996
   385   1      2.0097517100000002      1.2556755900000001      4.9171272300000002
   386   1      6.2512073499999996      1.1947758399999999      4.9398213000000002
   387   1      10.145330550000001      1.1890403700000001      4.9830014599999997
   388   1      14.282702970000001              1.23002469      4.8709126899999999
   389   1             18.23060559              1.36858317      4.9124520599999997
   390   1      22.280445220000001              1.15329679      4.9975583600000002
   391   1      26.367194520000002      1.0453879399999999      4.8118214500000001
   392   1      30.369162759999998      1.1817746600000001               4.9806184
   393   1    0.079318540000000007      4.6138562800000003      4.9789348200000001
   394   1      4.2240192499999996      4.7343392800000004      4.9773138799999996
   395   1      8.1776601699999993      4.7964284199999998      4.7605550599999997
   396   1      12.324762249999999      4.6364300399999996      5.1752572099999998
   397   1      16.314995379999999      4.7729577699999997      4.9758312299999998
   398   1      20.212360100000001      4.7537711600000003      5.0592524799999996
   399   1      24.285259610000001      4.6352145399999998      4.9637572900000002
   400   1      28.464515120000002      4.7603288700000004      4.9798479200000001
   401   1      2.0536636599999998      8.1170810800000002      4.9463249100000004
   402   1      5.9795137199999999      8.1695897899999999      4.8660431400000004
   403   1      10.110866189999999      8.4477263699999998      4.9542624599999998
   404   1             14.22527111      8.1784233700000009      4.9800726800000001
   405   1              18.4598741      8.2545640599999999      4.7555584299999998
   406   1      22.480905419999999      8.2898149199999995      4.8031750300000002
   407   1      26.431234669999998      8.1356751799999998      4.9389035400000001
   408   1      30.575532599999999      7.9907839899999997      4.6848800500000003
   409   1    0.049731459999999998             11.74139611      4.7600989800000004
   410   1      4.0291797000000003             11.77793619      5.0022508999999999
   411   1      8.1549265500000008             11.78118561              4.91497575
   412   1      12.203758089999999      11.725470980000001      4.9254077699999996
   413   1      16.172921859999999             11.78558559      4.8041078700000002
   414   1             20.19674062      11.822125440000001      4.8131755500000004
   415   1             24.52311753             11.67676355      4.9264534099999997
   416   1      28.403741539999999      11.716495569999999      5.1265655499999996
   417   1      2.0205673100000001      15.223732330000001      4.9104297700000004
   418   1      6.1109671499999996      15.332085770000001              5.00325796
   419   1      10.313561869999999      15.040337989999999      4.8136208399999996
   420   1      14.342684330000001      15.148103219999999      4.9686691999999999
   421   1      18.317264130000002      15.375844649999999      4.8213628999999996
   422   1      22.289363359999999      15.213885830000001      4.9479653299999997
   423   1      26.330933519999999      15.208720599999999      5.0466575499999999
   424   1      30.455349120000001      15.231610610000001      5.0189180999999996
   425   1      32.263119639999999             18.74975439      5.1497799899999999
   426   1      4.0982929199999996      18.621567729999999      4.9971860399999999
   427   1      8.0741291700000009      18.725060840000001      4.8345362500000002
   428   1      12.406606289999999             18.64325766      4.9467908600000001
   429   1      16.305333470000001      18.965440359999999              4.93608666
   430   1      20.403347799999999      18.787096330000001              5.05108771
   431   1              24.3481901      18.691658960000002      5.0283043799999998
   432   1      28.634790580000001      18.544943190000001              4.96775638
   433   1      2.0716765499999998             22.16888441      4.7370845499999996
   434   1      5.9671409999999998      22.088511400000002      4.9776220100000002
   435   1             10.12897414      22.124430879999998      4.9553703699999998
   436   1      14.304703910000001      22.400190439999999      5.0535437400000003
   437   1      18.326476240000002             22.66322006              4.88176962
   438   1      22.368174799999998      22.240315079999998      5.1692684399999997
   439   1      26.319557570000001             22.27034841      4.8790826300000001
   440   1             30.57954458      22.429807660000002      4.9209199300000002
   441   1      32.330947469999998             25.90967899      4.8649186599999998
   442   1      4.0559417699999996      25.693133079999999      4.7502472500000001
   443   1      8.0137300899999993             25.80059932      4.8746554900000003
   444   1      12.081911399999999             25.95123761      5.1459938699999999
   445   1      16.315577309999998      25.775879889999999      4.9119171100000001
   446   1      20.270339979999999             25.68149743      4.9499610199999999
   447   1             24.31677792      25.746465400000002      4.7313171399999998
   448   1      28.327744190000001      25.810045899999999              4.97772653
   449   1   -0.038799409999999999      2.2764631299999998      5.7107213699999999
   450   1      4.2076622600000002      2.3552242099999998      5.7963258599999996
   451   1      8.3156702300000003      2.5963422700000001      5.6225632399999999
   452   1      12.335104250000001      2.2936664200000001      5.7723871899999999
   453   1             16.28188974      2.4515747499999998      5.7864436100000001
   454   1      20.248544800000001      2.4389985200000002      5.7434270100000004
   455   1      24.474772779999999      2.1419293100000001      5.8277769099999999
   456   1      28.242457739999999      2.3302398700000002      5.5674590100000003
   457   1      2.0926607499999998      5.9940712400000002      6.0062750600000001
   458   1      6.3210264799999996      5.8863785799999997      5.6634066900000004
   459   1      10.215078289999999      5.9252429800000002      5.6558928999999996
   460   1      14.283108990000001      5.8844029300000003      5.7784149899999999
   461   1      18.310277110000001      5.9866982399999999      5.7114688200000003
   462   1      22.416183950000001      5.9869464700000004      5.8192070200000003
   463   1             26.41808786      5.8877243100000003      5.7279255200000003
   464   1      30.580591250000001      5.7344129300000004      5.6776193199999998
   465   1             32.29774063      9.3146123599999999      5.4471441599999997
   466   1      4.0886426399999998      9.3356106299999997      5.8249015399999999
   467   1      8.0043634200000007               9.4487071              5.88080552
   468   1      11.972211639999999      9.3786462200000003      5.7360650099999999
   469   1             16.34840865      9.4589286099999992      5.6795714300000002
   470   1             20.50488898      9.4349922500000005      5.8174492400000002
   471   1             24.24431749      9.4382044399999998      5.7572777000000004
   472   1      28.384689680000001      9.2464955900000003      5.8014510899999996
   473   1      1.9603852500000001      12.947852839999999      5.8766106999999996
   474   1      6.1344597199999997      13.120668759999999      5.8081187099999996
   475   1             10.15870793             12.85746992              5.77066429
   476   1      14.235863800000001      13.017335839999999      5.6756913300000003
   477   1             18.32626613             12.97743112      5.8016971699999997
   478   1             22.36867823             12.87191756      5.8312745799999997
   479   1      26.476909240000001      12.802645869999999      5.8422045499999999
   480   1             30.41427461      12.866133789999999      5.7881999899999999
   481   1      32.464124650000002             16.47080875      5.9039924499999996
   482   1      3.8761283999999998      16.441788809999998      6.0125347500000004
   483   1              8.14578296              16.3677624      5.9126434999999997
   484   1      12.468912899999999      16.243838520000001      5.6056912199999998
   485   1      16.259178460000001      16.456327259999998      5.8469179599999999
   486   1      20.257491030000001      16.504033830000001      5.7154670300000001
   487   1      24.261842699999999      16.298288240000002      5.6780507900000003
   488   1             28.50023951      16.360538869999999      5.8313284300000001
   489   1      1.9490348200000001             19.91989628      5.7037300699999998
   490   1              6.09373013      19.874793889999999               5.7321209
   491   1      10.207459650000001      19.906092579999999      5.6483231399999996
   492   1             14.16476342      20.068525789999999      5.7628130799999999
   493   1             18.32211659      19.954146430000002      5.8294298199999997
   494   1      22.228386910000001             19.95651668      5.9351019699999998
   495   1             26.37261668      19.746771710000001      5.7792409500000002
   496   1      30.295541780000001      20.085197569999998      5.8384817800000004
   497   1    0.019935479999999998      23.488879390000001              5.71811179
   498   1              3.99430628      23.341186960000002      5.7281840900000001
   499   1      8.0320979300000008      23.207845219999999      5.8318352300000003
   500   1             12.03471193      23.480620640000001      5.6582411700000002
   501   1      16.247215189999999             23.66294877      5.6926838899999996
   502   1      20.376405399999999      23.434839119999999      5.9299165900000004
   503   1      24.496832990000001      23.534975790000001      5.7758797399999997
   504   1      28.497612969999999             23.52739811      5.7914930499999997
   505   1              1.97493684      27.056111680000001      5.7437374800000001
   506   1      6.0630761199999998      26.827592939999999      5.7427258099999996
   507   1             10.06579256             26.96599217      5.7949445300000004
   508   1             14.46440643      27.045688819999999      5.8363091300000001
   509   1      18.381978969999999      27.009562840000001      5.7696987100000001
   510   1      22.218444550000001      26.618774219999999      5.8865777799999996
   511   1             26.34131498             26.91892314              5.87584412
   512   1             30.45071072             27.18220178      5.7849928100000003
   513   1              32.5543944              0.18459422      6.5771076500000003
   514   1      4.0634757800000001             28.07250969      6.4762962799999997
   515   1      8.1891970000000001     0.24074193999999999      6.6501261899999999
   516   1      12.062297429999999      28.138303619999999      6.6453621500000004
   517   1      16.345325939999999      28.217941379999999      6.6261075299999996
   518   1             20.43746582   -0.018885720000000002      6.6732686499999998
   519   1      24.319274960000001      28.024465339999999      6.5253337399999998
   520   1             28.43736427      28.165874420000002      6.8053874299999997
   521   1      2.1351364799999999              3.66749254      6.6841192700000001
   522   1      6.0977583299999996      3.6398184800000002      6.7553170299999996
   523   1      10.333661380000001              3.46724503              6.51968456
   524   1             14.36406163              3.60878414              6.47545196
   525   1             18.48479919               3.6479754      6.6860222499999997
   526   1      22.295830129999999      3.3264160299999999      6.8350912599999996
   527   1      26.374084400000001      3.6967761499999998      6.4663922700000001
   528   1      30.355599560000002      3.4603557299999999      6.6966598800000003
   529   1    0.093675320000000006      7.1055121899999998      6.8258571000000003
   530   1      4.1060585100000004      7.0230577800000002      6.8128133100000001
   531   1      8.4077052400000003      7.0956674399999997              6.79491084
   532   1      12.125044490000001      6.8429600700000002      6.5672024999999996
   533   1      16.278227860000001      7.2336455800000001      6.5110733600000001
   534   1      20.411838270000001      7.0749344699999996               6.4909697
   535   1             24.45689041              7.08796772      6.6042080299999997
   536   1      28.456927870000001      6.9743319100000001      6.4931178699999998
   537   1      1.9701735199999999             10.62853284      6.5130512700000001
   538   1      6.0841316299999999      10.776026590000001      6.6487276099999999
   539   1             10.13318273             10.63543737      6.6194384900000003
   540   1             14.10552582      10.473053419999999      6.7506662400000002
   541   1      18.344169870000002      10.602865660000001      6.6333764999999998
   542   1      22.295015790000001      10.755808549999999      6.6764884499999999
   543   1      26.204990049999999             10.53619453      6.7851922499999997
   544   1      30.535036689999998             10.60374244      6.7089577199999999
   545   1    0.066443619999999995      14.154024209999999               6.6092214
   546   1      4.0427655199999997             14.02871773      6.5745448299999998
   547   1      8.1936571499999999             14.10816955      6.6944543899999998
   548   1      12.294495270000001             14.08716999      6.5493902500000001
   549   1             16.42358518      14.030019879999999      6.5855184400000004
   550   1             20.27312169             14.17569846      6.5179056400000004
   551   1      24.292768670000001             14.00888902      6.5908950600000002
   552   1      28.431368859999999             14.18954168      6.5930263299999998
   553   1              1.89568822      17.675516470000002      6.5847504399999996
   554   1      6.0528160299999998      17.508108020000002      6.3953569999999997
   555   1             10.12931487      17.568462149999998      6.7063252200000001
   556   1               14.266073      17.747377499999999      6.6363747399999999
   557   1      18.436388409999999      17.685245269999999      6.6293109599999998
   558   1      22.196367039999998             17.56101696      6.6745543500000002
   559   1      26.421562649999998      17.469401099999999      6.5698055799999997
   560   1      30.434915289999999      17.759762630000001      6.6468076199999997
   561   1   -0.027939459999999999      21.289579639999999      6.7295860899999997
   562   1      4.0601120999999996      21.038129439999999      6.7518802899999999
   563   1      8.0281702399999997      20.784135580000001      6.7286120199999999
   564   1             12.16776733             21.01409443      6.4060229399999997
   565   1      16.218468399999999      21.303697880000001      6.8030145400000004
   566   1             20.11974807      21.052730629999999      6.6520106400000003
   567   1             24.32977623      20.964800029999999      6.7377774199999996
   568   1             28.44636904      21.149196060000001      6.5452532799999998
   569   1      2.0275107299999999      24.750636029999999      6.6914008100000002
   570   1      6.0466064299999998      24.344281590000001      6.7057104499999998
   571   1      9.9382772999999993      24.320982300000001      6.7320155699999997
   572   1      14.090592620000001             24.59646738      6.6966313099999999
   573   1      18.258501590000002      24.698969819999999      6.7252898800000001
   574   1      22.282241939999999      24.459580720000002      6.8307113900000003
   575   1      26.391952119999999             24.64554412      6.6812922500000003
   576   1      30.534897560000001      24.696555830000001      6.6283650300000003
   577   1      2.0665587900000002      1.2466558000000001      7.3870371300000004
   578   1      5.9564329899999997              1.24149698      7.6340491400000001
   579   1             10.24811094              1.20069739      7.6440189600000004
   580   1             14.35733587              1.17703201      7.2721770899999996
   581   1      18.313188050000001              1.31398185              7.40569699
   582   1      22.340974119999998      1.0551291300000001      7.7869888100000004
   583   1      26.287541109999999              1.37980806      7.3035468000000003
   584   1      30.472568150000001              1.25018926      7.7203698799999998
   585   1   -0.081030409999999997      4.7642705599999999      7.3614596800000003
   586   1      4.3559822500000003      4.8170269899999996      7.8569205999999996
   587   1      8.3360885800000002      4.6272833599999998      7.4246488900000003
   588   1      18.439176639999999              1.24335331      9.6403923599999999
   589   1      16.270783290000001      4.7878573500000003      7.5327497599999997
   590   1      20.453007960000001      4.7907928399999999      7.4484440100000002
   591   1             24.24160595      4.6904487399999999      7.3182511200000002
   592   1             28.59012267      4.6280564000000002              7.51479403
   593   1      2.1898454300000001      8.3013970199999996      7.7373457300000004
   594   1      6.3994738800000004      8.2376014299999998      7.3263177600000002
   595   1      10.344787459999999      8.2168236399999994      7.6694253000000003
   596   1             14.04886138      8.0376258200000006      7.3787475499999999
   597   1      18.572852829999999      8.3335624199999998      7.2704763699999999
   598   1      22.288490329999998      8.1809688200000004      7.5247131500000002
   599   1      26.525325590000001      8.0870882700000006      7.4906867500000001
   600   1      30.382787409999999      8.1738266599999996      7.2714371900000003
   601   1             32.44013254             11.73639505      7.6006682699999999
   602   1      3.9484202900000001             11.73384828      7.8025354699999996
   603   1      8.1567371000000009      11.905108759999999              7.68787194
   604   1      12.309390730000001             11.94872947      7.2924637600000004
   605   1      22.133183949999999      7.6157598799999997      9.9186526500000003
   606   1             20.36329529             11.94683781      7.3753255099999997
   607   1             24.34747436             11.60037921      7.5341963200000004
   608   1      24.448943580000002      7.0189875600000002      9.1882997999999994
   609   1      1.8552603299999999      15.348252479999999      7.4630085800000003
   610   1              6.06123674      15.257372480000001      7.3613644300000001
   611   1             12.27667289      16.338630420000001      7.9681210399999998
   612   1             14.32449972      14.897349009999999      7.3380743199999996
   613   1      18.431668349999999      15.482576180000001      7.8011549999999996
   614   1      22.164983540000001             15.26798733      7.2765113499999998
   615   1      26.467732219999998             15.36929475              7.57807662
   616   1      30.472417490000002      15.062450719999999      7.7884544900000003
   617   1             32.46595507      18.790202650000001      7.5429040799999996
   618   1      3.9532588500000001      18.564985669999999      7.7864079400000001
   619   1      8.0071913499999994             18.47068183      7.2547673399999999
   620   1             12.08963209              18.9304603      7.8105689900000002
   621   1      16.223959539999999      18.793769950000002              7.44605768
   622   1      20.091848519999999             18.79479177      7.4792746699999997
   623   1      24.308118919999998             18.68233137      7.3779137300000004
   624   1             28.23894233      18.752863090000002      7.6452564799999996
   625   1              2.24741897              22.5458687              7.59067326
   626   1              5.98238936      22.091354729999999      7.4228746299999999
   627   1             12.22345071      21.143315550000001      8.9567066700000009
   628   1      14.010353009999999             22.20240652      7.5005689899999997
   629   1      18.195074420000001      22.453448789999999              7.52707119
   630   1      22.305618500000001      22.086785200000001      7.5926288599999996
   631   1      26.478454750000001      22.336924320000001      7.4796194600000003
   632   1      30.454071519999999      22.345879409999998              7.53617633
   633   1   -0.035729959999999998      26.068572079999999      7.4653641300000002
   634   1      4.0617188100000003      25.743295459999999      7.1631288700000004
   635   1      7.9428092299999999      25.696439420000001      7.3904730399999998
   636   1             11.91892208             25.61658508      7.7101323300000004
   637   1      16.155917800000001      25.825675310000001      7.6662393800000004
   638   1      20.199519989999999      25.743703549999999      7.5575893499999998
   639   1      24.238112529999999      25.744456499999998      7.3346455099999996
   640   1             28.38638267      25.745423200000001      7.4518459100000003
   641   1      4.3169977499999996      7.0101504099999996      9.2957309699999993
   642   1    0.075055070000000002     0.18542059999999999      8.7894470400000007
   643   1      6.1166265800000001      8.2548253299999992      9.7277427299999992
   644   1      13.944884699999999      24.486474359999999      8.9728211000000009
   645   1             10.05138356      22.091107690000001      7.3239273899999997
   646   1             26.70570897      24.937423760000001      9.0584067299999997
   647   1      22.226036220000001      5.7690845499999996              8.49384096
   648   1             10.31629628      3.4567551000000001      9.0577077500000005
   649   1      3.8709955900000002      16.238699029999999      8.8621146799999995
   650   1      4.1693439000000003      23.444151600000001      8.2111824799999997
   651   1      17.881409420000001      24.608105649999999      9.0079866899999992
   652   1      18.151228889999999      6.0961194799999996      8.0832178399999997
   653   1      22.389181350000001      13.111603540000001      8.2016485299999999
   654   1      4.1382443200000001      20.945268049999999      9.2065347099999997
   655   1      24.488157690000001      25.598628080000001      9.6111012599999999
   656   1      9.9391448400000009      27.031546689999999      8.2688291700000001
   657   1             10.17863315             12.84495905      8.2285381900000001
   658   1      16.256749639999999      16.378460499999999      8.2906301399999993
   659   1      26.556261599999999             10.59166935      9.2495553299999997
   660   1      14.424943989999999      6.1051656799999998      8.4407528999999997
   661   1      26.160733440000001              1.28569406      9.7874806799999998
   662   1             28.28127272      2.2808649499999998               8.4111677
   663   1      20.658916099999999             27.89283781      9.0816514999999995
   664   1      1.9272705999999999      13.045442850000001      8.3047090400000005
   665   1      12.465828180000001      13.905876080000001      8.9457825500000006
   666   1             14.15528037             18.00278166      9.1178697199999998
   667   1      6.0105488200000003      17.393573060000001      8.9666035500000003
   668   1      16.471080669999999      11.793056719999999      7.1720896400000003
   669   1      4.0604319599999998             13.83822314      9.1947247700000005
   670   1      28.408368629999998      7.0615671000000004      9.0532459999999997
   671   1      2.1229065999999999      10.603678820000001              8.85154423
   672   1      30.194709029999999             20.25681011      8.5555533599999993
   673   1              2.21167874      25.001437289999998      9.0821519500000001
   674   1      1.8819260200000001      17.984056850000002      9.2044058399999997
   675   1      20.537810650000001      21.154141989999999              9.08496478
   676   1      14.058220090000001             27.00510173      8.1077740600000006
   677   1      20.339263880000001               4.8686422      9.8415661100000005
   678   1             22.22337834      19.640614410000001      8.4740662199999992
   679   1             26.32327849      3.5060323599999998      9.0870629199999993
   680   1             28.33624824      11.862952460000001      7.7029225500000003
   681   1    0.031479350000000003              2.55203135      8.1689865800000003
   682   1      10.347456599999999      15.172817950000001      7.4359528499999996
   683   1      6.0610792299999998      26.631736119999999      8.2658978199999993
   684   1             12.15717096      9.5780776000000003      8.2394054099999998
   685   1      20.468530139999999      16.500967280000001      8.4538107100000008
   686   1             18.17968905              12.8723337      8.6172166000000008
   687   1      16.075815850000001      9.5492054199999998      7.8917356700000001
   688   1             20.22447404             14.14774557      8.8895104099999998
   689   1      24.277721020000001      21.169867790000001      9.0749031000000002
   690   1   -0.068359980000000001      16.297006329999999      8.3319471000000007
   691   1      30.571378580000001      5.9793873399999997      8.1733926500000003
   692   1      16.277706989999999      2.3027864500000002      8.2655114699999999
   693   1      16.170674779999999      13.901951820000001      8.8755703700000002
   694   1      20.360697529999999      9.6782094000000001      8.2483999200000007
   695   1      22.381217280000001      26.719200069999999      8.2153754600000006
   696   1              1.81492283             15.02334896      9.6564579100000003
   697   1      8.3688379800000003      4.5715853299999996      9.8280275199999991
   698   1      18.334536870000001              27.0212039      8.4070257399999999
   699   1      20.142427229999999      2.3394835500000002      8.4053026499999994
   700   1      16.200825559999998             28.06973777      9.3116247699999999
   701   1             14.19083796              3.42648083      9.0541997199999997
   702   1      24.546341269999999             23.51207754      8.2485811099999999
   703   1      22.322135679999999      3.4646637400000002      9.1397432300000006
   704   1      26.144596419999999      19.910088229999999      8.0859334300000008
   705   1               3.8681435      2.3837168200000001      8.3306696799999997
   706   1      6.2038586499999999      3.3179641100000001      9.2069697399999999
   707   1      11.896155719999999      23.435297630000001      8.4455106200000003
   708   1      18.195522010000001             17.74409927      8.8679372300000008
   709   1      24.228567300000002             28.05129883      8.8895085500000004
   710   1      20.117573780000001      23.708986039999999      8.6131676899999992
   711   1      2.2192436199999999      5.9524527799999998              8.39632179
   712   1             -0.03076537      23.779867589999999      8.2367477200000003
   713   1             28.37132708      28.112280810000001      9.1597534199999995
   714   1      2.0771486399999999      20.160570790000001      8.3759102799999994
   715   1      2.1325904900000001      27.056230159999998      8.2226894300000009
   716   1      9.6878131799999991             19.60207621      8.3595926600000006
   717   1      26.197108629999999             22.62856442      9.9184801900000004
   718   1      32.279540519999998      9.2665506999999998      8.0103861399999996
   719   1      28.600540580000001      9.3942703499999993      8.4053584400000005
   720   1             30.55397284      3.6419441699999999      8.9853691100000006
   721   1      4.2467514700000004      9.2893562900000006      8.1218077300000004
   722   1      8.2237756700000002     0.41158012999999999      9.1757947499999997
   723   1      8.1193793200000002      9.2359844300000002      8.4734456999999992
   724   1      6.0785494299999998      10.716690910000001      9.1147203099999992
   725   1      8.3597589499999998              6.87038379      9.2312878699999992
   726   1             16.23258324              7.45158217      8.9525635700000006
   727   1             14.16379294      19.973282680000001      8.1650807899999993
   728   1      26.224552979999999             13.17459405      8.3431248900000003
   729   1      8.1427598799999998      13.961186120000001      9.2642525300000003
   730   1      12.563772630000001      4.6865766799999999      7.5452764600000002
   731   1      12.155699479999999              6.96268274      8.9093058099999993
   732   1             18.09516816             10.44822622      9.0755197899999995
   733   1      18.168374140000001             20.15135188      8.2646529599999994
   734   1      30.523874960000001      24.774539699999998      8.8749504600000009
   735   1      24.364531060000001      2.3718306500000002      8.3398855300000001
   736   1      8.3171585799999992      16.332197950000001      8.2896448100000004
   737   1      30.510495500000001      17.808216160000001      8.9884418200000002
   738   1      24.562039769999998      9.2211464999999997      8.2322751000000007
   739   1              14.3854706      12.373820459999999      8.1283946900000004
   740   1      26.318633779999999              5.62773155              8.39754106
   741   1      24.218450170000001      16.381265719999998      7.9843722100000001
   742   1      24.392792239999999      4.8052141400000004      10.045298819999999
   743   1      20.229560530000001      7.1084942699999996      8.7512056099999995
   744   1      32.238827239999999             13.66020664      9.2186772799999996
   745   1      28.444162609999999             14.29795481      9.1779474200000006
   746   1      6.1161933199999998             12.96159379              8.31057779
   747   1              10.3721344      17.516053930000002      9.2441441399999995
   748   1      8.0714187000000006      23.276255299999999      8.3685658400000005
   749   1      20.261460719999999      11.988013690000001      9.8322810300000008
   750   1      26.363098900000001      17.670649149999999      9.0696594899999994
   751   1             27.85967681      20.855718670000002      9.2005400300000009
   752   1      6.1066073400000001      15.296458980000001      9.9173271599999993
   753   1      6.1999368400000003      19.614697039999999      8.1647063299999996
   754   1      8.1327432200000001              2.46049374      8.2221596899999998
   755   1      6.4213407699999996      5.9901224500000003      8.4176045199999994
   756   1      11.931337920000001     0.24657314999999999      9.0161530800000005
   757   1      4.0743903100000001             27.96394677      8.8736577800000003
   758   1      26.197077069999999             27.17062451      8.1304735400000006
   759   1             30.41724825             12.67977419      8.3713778699999999
   760   1      28.437946870000001      23.275074849999999      8.3722658699999997
   761   1      16.015624679999998      23.261100460000002      8.3640924400000003
   762   1      22.559555960000001             10.44331931      9.0675600799999998
   763   1      10.331318550000001      5.7354375600000003      8.1781443800000009
   764   1      12.434353140000001      2.3084993800000002      8.0881746999999997
   765   1      18.039091710000001              3.67918908      9.3517349500000009
   766   1      22.483057380000002              24.3308581      9.1745275799999995
   767   1             28.70549317      16.520693040000001      8.2915507599999998
   768   1      30.460834699999999      26.913392420000001      8.2391969899999999
   769   2      31.508617829999999      19.366914640000001      9.7668394799999998
   770   2     0.61564339000000001             19.34722532      9.2888441499999992
