N2-dn2-coord-10bar/700K/snapshots/frame-142860/run-000/../data.lammps (written by ASE) 

770 	 atoms 
2  atom types
0.0      32.470343392086264  xlo xhi
0.0      28.120142247150884  ylo yhi
0.0      31.213473999158239  zlo zhi


Atoms 

     1   1      2.0293964600000001      1.1716090800000001    0.023552650000000001
     2   1      6.0880008999999999              1.17168918              0.02556874
     3   1      10.146952280000001              1.17170328    0.025416459999999998
     4   1      14.205754900000001      1.1716496700000001              0.02501565
     5   1             18.26456816              1.17166478              0.02504435
     6   1             22.32338141      1.1716496700000001              0.02501565
     7   1      26.382184030000001              1.17170328    0.025416459999999998
     8   1      30.441135410000001              1.17168918              0.02556874
     9   1  9.1780000000000006e-05      4.6866847900000002    0.025581599999999999
    10   1      4.0587011400000002      4.6866847900000002    0.025581599999999999
    11   1      8.1174961000000003      4.6866290399999997    0.025584639999999999
    12   1             12.17638011      4.6866852999999997              0.02491202
    13   1             16.23517979      4.6866942700000003    0.025006210000000001
    14   1      20.293956519999998      4.6866942700000003    0.025006210000000001
    15   1      24.352756209999999      4.6866852999999997              0.02491202
    16   1      28.411640219999999      4.6866290399999997    0.025584639999999999
    17   1      2.0293964600000001      8.2016395800000002    0.026613040000000001
    18   1      6.0881071599999999      8.2016314300000008              0.02543782
    19   1             10.14701835               8.2017045    0.025156850000000001
    20   1      14.205766049999999      8.2017080900000003    0.024990459999999999
    21   1             18.26456816      8.2017077599999997    0.025091249999999999
    22   1      22.323370260000001      8.2017080900000003    0.024990459999999999
    23   1      26.382117969999999               8.2017045    0.025156850000000001
    24   1      30.441029149999999      8.2016314300000008              0.02543782
    25   1  9.2789999999999998e-05             11.71671873    0.025573410000000001
    26   1              4.05870014             11.71671873    0.025573410000000001
    27   1      8.1176017700000003             11.71668698              0.02497914
    28   1             12.17637068             11.71673069    0.025001590000000001
    29   1      16.235177310000001      11.716730249999999    0.025074039999999999
    30   1      20.293959009999998      11.716730249999999    0.025074039999999999
    31   1      24.352765640000001             11.71673069    0.025001590000000001
    32   1      28.411534549999999             11.71668698              0.02497914
    33   1      2.0293964600000001             15.23167155              0.02525285
    34   1      6.0881728300000004      15.231678799999999    0.025062859999999999
    35   1             10.14698486      15.231762639999999               0.0250786
    36   1             14.20578841             15.23176782    0.025201990000000001
    37   1             18.26456816              15.2317707    0.025149979999999999
    38   1      22.323347900000002             15.23176782    0.025201990000000001
    39   1      26.382151459999999      15.231762639999999               0.0250786
    40   1      30.440963480000001      15.231678799999999    0.025062859999999999
    41   1      32.470327990000001      18.746748629999999    0.024951939999999999
    42   1      4.0588083299999997      18.746748629999999    0.024951939999999999
    43   1      8.1175770200000006      18.746803499999999    0.025222040000000001
    44   1             12.17637459      18.746799750000001    0.025428470000000002
    45   1      16.235159400000001      18.746805200000001    0.025487360000000001
    46   1      20.293976919999999      18.746805200000001    0.025487360000000001
    47   1      24.352761730000001      18.746799750000001    0.025428470000000002
    48   1             28.41155929      18.746803499999999    0.025222040000000001
    49   1      2.0293964600000001      22.261939099999999    0.025844880000000001
    50   1      6.0881419299999999      22.261841799999999    0.025489439999999999
    51   1             10.14692954             22.26176895              0.02551757
    52   1             14.20573559      22.261804690000002    0.025639160000000001
    53   1             18.26456816             22.26178625    0.025640119999999999
    54   1      22.323400729999999      22.261804690000002    0.025639160000000001
    55   1      26.382206780000001             22.26176895              0.02551757
    56   1             30.44099439      22.261841799999999    0.025489439999999999
    57   1  5.6450000000000003e-05      25.776936450000001              0.02613327
    58   1      4.0587364700000004      25.776936450000001              0.02613327
    59   1      8.1175325399999991              25.7767713    0.024734180000000001
    60   1      12.176376469999999      25.776831090000002              0.02545323
    61   1      16.235145939999999      25.776775220000001    0.025273360000000002
    62   1             20.29399038      25.776775220000001    0.025273360000000002
    63   1      24.352759840000001      25.776831090000002              0.02545323
    64   1      28.411603769999999              25.7767713    0.024734180000000001
    65   1  0.00024266000000000001              2.34304215     0.80166565000000001
    66   1      4.0585502699999996              2.34304215     0.80166565000000001
    67   1      8.1157394600000003              2.34454954     0.80169402000000001
    68   1             12.17601256      2.3433829099999999     0.80116898000000003
    69   1      16.235258170000002      2.3433209100000001     0.80090046999999998
    70   1      20.293878150000001      2.3433209100000001     0.80090046999999998
    71   1      24.353123750000002      2.3433829099999999     0.80116898000000003
    72   1      28.413396859999999              2.34454954     0.80169402000000001
    73   1      2.0293964600000001      5.8582218700000004     0.80119762000000005
    74   1      6.0870566899999998      5.8583336700000004              0.80194851
    75   1             10.14649655              5.85853131     0.80121584000000001
    76   1             14.20597894      5.8582938599999999     0.80086840999999998
    77   1             18.26456816      5.8583798500000004               0.8010794
    78   1      22.323157380000001      5.8582938599999999     0.80086840999999998
    79   1             26.38263976              5.85853131     0.80121584000000001
    80   1      30.442079629999999      5.8583336700000004              0.80194851
    81   1  0.00019438999999999999      9.3717771800000005     0.80082061000000004
    82   1      4.0585985400000002      9.3717771800000005     0.80082061000000004
    83   1      8.1175070500000004      9.3725002699999997     0.80149060999999999
    84   1      12.176590020000001      9.3733583399999993     0.80088261999999999
    85   1             16.23512199      9.3733789200000004              0.80106506
    86   1             20.29401433      9.3733789200000004              0.80106506
    87   1      24.352546289999999      9.3733583399999993     0.80088261999999999
    88   1      28.411629269999999      9.3725002699999997     0.80149060999999999
    89   1      2.0293964600000001             12.88692854     0.80220621000000003
    90   1      6.0883212999999996             12.88743848     0.80138414999999996
    91   1      10.147128609999999             12.88859852     0.80085256000000005
    92   1             14.20571782      12.888558189999999     0.80113791000000001
    93   1             18.26456816      12.888409899999999     0.80109381000000002
    94   1      22.323418490000002      12.888558189999999     0.80113791000000001
    95   1             26.38200771             12.88859852     0.80085256000000005
    96   1      30.440815019999999             12.88743848     0.80138414999999996
    97   1              0.00012365      16.403222639999999     0.80145666999999998
    98   1      4.0586692700000002      16.403222639999999     0.80145666999999998
    99   1      8.1174337899999998      16.403825260000001     0.80097196999999998
   100   1              12.1761021             16.40390721     0.80133072000000005
   101   1             16.23503496      16.403861750000001     0.80140014999999998
   102   1      20.294101359999999      16.403861750000001     0.80140014999999998
   103   1      24.353034220000001             16.40390721     0.80133072000000005
   104   1      28.411702529999999      16.403825260000001     0.80097196999999998
   105   1      2.0293964600000001      19.919205120000001     0.80066369999999998
   106   1              6.08752564             19.91894023     0.80122479000000002
   107   1      10.146078839999999             19.91919038     0.80159137999999996
   108   1      14.204993419999999              19.9192584     0.80178742000000003
   109   1             18.26456816      19.919377350000001     0.80194975999999996
   110   1      22.324142899999998              19.9192584     0.80178742000000003
   111   1      26.383057470000001             19.91919038     0.80159137999999996
   112   1      30.441610669999999             19.91894023     0.80122479000000002
   113   1              0.00142012      23.434536609999999     0.80178442000000005
   114   1      4.0573728100000004      23.434536609999999     0.80178442000000005
   115   1      8.1165862000000004      23.433936769999999     0.80182306000000003
   116   1             12.17555218      23.433996919999998     0.80156656000000004
   117   1             16.23465491      23.434040110000002     0.80170828999999999
   118   1      20.294481409999999      23.434040110000002     0.80170828999999999
   119   1      24.353584130000002      23.433996919999998     0.80156656000000004
   120   1      28.412550110000002      23.433936769999999     0.80182306000000003
   121   1      2.0293964600000001      26.949875330000001              0.80297246
   122   1      6.0858208300000003      26.950066320000001              0.80215291
   123   1             10.14598146      26.949241430000001     0.80165810000000004
   124   1             14.20520604      26.948673230000001     0.80131923999999999
   125   1             18.26456816             26.94858318     0.80108193999999999
   126   1      22.323930279999999      26.948673230000001     0.80131923999999999
   127   1      26.383154860000001      26.949241430000001     0.80165810000000004
   128   1             30.44331549      26.950066320000001              0.80215291
   129   1   -0.021021950000000001    0.058481569999999997      1.4921671599999999
   130   1      4.0381632600000001   -0.017203130000000001      1.6178518399999999
   131   1      8.1599435899999992      28.106552180000001      1.5767830899999999
   132   1      12.214201900000001   -0.031005339999999999      1.3631013700000001
   133   1      16.268797899999999      28.037950779999999              1.56947521
   134   1      20.175246420000001      28.184505959999999      1.4903466999999999
   135   1      24.239199960000001      28.045808869999998      1.4783263099999999
   136   1      28.430137460000001      28.112949520000001               1.4419133
   137   1      1.9387224199999999      3.5347102399999999      1.6010613899999999
   138   1              6.00815126      3.3563824200000001               1.4883982
   139   1      10.089670079999999      3.5031261900000001      1.1071705599999999
   140   1             14.27107122      3.5456024799999999              1.79495513
   141   1             18.32656553      3.4546364700000001      1.4688448000000001
   142   1      22.425680910000001      3.5548818400000002              1.39415289
   143   1      26.384439709999999      3.7521479900000001      1.6598738399999999
   144   1      30.357401589999998      3.5888923099999999      1.5213387199999999
   145   1    0.071351629999999999      7.0088108599999996              1.30196402
   146   1      4.1752148099999999      7.0869939500000001      1.5384410799999999
   147   1      8.1222128399999995      7.0424261899999996      1.3500214100000001
   148   1             12.03305076      6.9762369199999998      1.7668933899999999
   149   1             16.14739342      6.9823416299999996              1.28815269
   150   1      20.315488040000002      7.1708407300000001      1.3428867900000001
   151   1      24.369703009999998      7.1335315899999996              1.20309307
   152   1             28.40551439      7.0354517999999997      1.4931831600000001
   153   1      2.1302360899999999      10.496827039999999              1.54969237
   154   1      6.1146076899999997      10.637064580000001      1.4977663999999999
   155   1             10.23754065             10.66011179      1.2400244899999999
   156   1      14.265094469999999      10.485331950000001      1.4581582099999999
   157   1      18.202777019999999      10.553979180000001              1.34746028
   158   1      22.288992149999999             10.41116691              1.46401041
   159   1      26.265978090000001      10.433246759999999      1.7073307200000001
   160   1      30.627016619999999      10.688699339999999              1.48017267
   161   1   -0.071229940000000005              13.9264724               1.6650387
   162   1      4.0318544100000002             14.01816681      1.4107169100000001
   163   1      8.0836210600000005             14.12261324      1.5197928300000001
   164   1      12.210629389999999             14.16927521                1.323493
   165   1      16.107306439999999             14.06205458      1.5521847799999999
   166   1      20.270587089999999             13.94115451      1.3177616000000001
   167   1             24.33067342      14.102871349999999      1.6156846499999999
   168   1      28.341083650000002             14.04225027      1.4605454899999999
   169   1              1.91074367      17.616114060000001               1.5064222
   170   1      6.0246494300000002             17.73450064              1.33708538
   171   1      10.252973900000001             17.64104841              1.42559185
   172   1             14.11771807             17.59607853              1.24913418
   173   1      18.271249090000001             17.44351159      1.4182717300000001
   174   1              22.3480107      17.586509459999998              1.54458038
   175   1      26.259826100000002      17.652939480000001              1.49249225
   176   1      30.458010460000001      17.668806409999998      1.4818797800000001
   177   1    0.041944809999999999      21.066453849999998              1.42760961
   178   1              4.33026088      21.130345380000001              1.53227224
   179   1      8.0619295399999995      21.088435019999999      1.6125377400000001
   180   1      12.160557949999999      21.109464890000002              1.36129378
   181   1      16.225133939999999      21.149663449999998      1.3916146199999999
   182   1      20.176069460000001      21.101793669999999              1.43168396
   183   1      24.508543240000002      20.998829239999999      1.6627245100000001
   184   1      28.319601819999999      21.213789340000002              1.45971954
   185   1      1.8883080000000001      24.631798660000001              1.43354318
   186   1      5.9050189299999998      24.625636920000002              1.58049978
   187   1             10.18896565             24.63208122              1.32239912
   188   1             14.05606416      24.558116590000001      1.4197891199999999
   189   1      18.169774270000001      24.607027540000001              1.66544315
   190   1             22.27749927             24.62238971      1.4740176300000001
   191   1             26.23363646      24.376767430000001      1.2988710999999999
   192   1      30.431155830000002      24.648396600000002      1.5690556099999999
   193   1              1.99798878              1.16533358      2.3396098599999999
   194   1      5.9848931800000003      1.0990050499999999      2.3647974500000002
   195   1             10.14977835      1.2070851600000001      2.3635671700000001
   196   1             14.39627907      1.1940669399999999      2.4508990900000001
   197   1      18.342788169999999              1.25252925      2.4201853799999999
   198   1      22.293209470000001      1.1587386500000001      2.3900038800000001
   199   1             26.41851776              1.22811772      2.3653080000000002
   200   1      30.382953990000001      1.2066745699999999      2.6206442399999998
   201   1             -0.02533347      4.4846359600000003      2.5749950799999999
   202   1      4.1487498499999997      4.8534194700000004              2.36787795
   203   1      8.0266464499999994      4.6450534499999998              2.34375825
   204   1             12.17781134      4.5422951100000004      2.4417020800000002
   205   1      16.201889470000001      4.7129913999999999               2.5531598
   206   1      20.272170389999999      4.7650330399999996              2.34779779
   207   1      24.343478050000002      4.8485538699999999      2.5320701200000002
   208   1      28.318740559999998      4.8091939500000001      2.5434381699999999
   209   1              2.04401652              8.23463894      2.3795385599999999
   210   1              6.05449824      8.3457200199999999      2.5706802099999999
   211   1      10.061055420000001      8.3714601799999997      2.2721856300000001
   212   1      14.256729849999999      8.2264563600000002               2.3211089
   213   1      18.173233140000001      8.3416248199999998      2.4034967100000002
   214   1             22.50113868      8.2474486000000002              2.28094047
   215   1             26.23059456      8.0903002100000005      2.5590186500000001
   216   1             30.47104276      8.0965303199999994      2.4014218199999999
   217   1      32.484856659999998             11.58785776      2.4619448300000002
   218   1      4.0731070599999999             11.66484206      2.4451136500000001
   219   1      8.2210894499999991      11.675852409999999              2.45124619
   220   1      12.226899270000001      11.754180939999999      2.3936341200000002
   221   1      16.212189639999998             11.62146675      2.4628693699999999
   222   1      20.246831440000001             11.59527701              2.38862738
   223   1      24.347177729999999      11.613435450000001      2.6255327400000001
   224   1      28.446704459999999      11.579118060000001      2.4905989700000002
   225   1              1.89368442             15.15670493      2.4248387299999998
   226   1      5.9548790599999997             15.28116187              2.39934358
   227   1             10.17918222             15.24197586      2.4131612100000002
   228   1             14.17634629             15.17694741      2.3751457299999998
   229   1             18.28290857      15.241143259999999      2.4534969900000001
   230   1             22.40210609             15.27976106      2.4395049599999998
   231   1      26.334729750000001      15.204047429999999      2.4440730500000001
   232   1      30.462061550000001      15.311110279999999      2.2440076599999998
   233   1    0.042827610000000002             18.73940554      2.4685100100000001
   234   1      3.8963014199999999      18.725084729999999              2.20819433
   235   1      8.0064974699999993             18.54430382      2.4213638300000002
   236   1      12.173130280000001      18.755510950000001      2.4779533699999998
   237   1             16.19680846      18.663779000000002              2.34041443
   238   1      20.210147249999999      18.824766029999999      2.4688777900000001
   239   1      24.245040580000001             18.81769435      2.4948366399999999
   240   1      28.460915050000001      18.919131180000001              2.31924865
   241   1      1.9326233500000001             22.28151003              2.48882855
   242   1      6.1143623399999996      22.214305759999998      2.5703061699999998
   243   1      9.9601869700000005             22.36784917      2.5451141900000001
   244   1             14.13488038      22.318603750000001      2.4838412299999999
   245   1      18.137078859999999      22.306593880000001              2.52729632
   246   1      22.242488560000002      22.269484640000002      2.2848204600000002
   247   1             26.47488143             22.38866106      2.3481427899999998
   248   1      30.315052439999999             22.22801329      2.4986516700000001
   249   1   -0.014478400000000001             25.78807754      2.5474888500000001
   250   1      3.9538629099999998             25.65718141      2.6173501699999999
   251   1      8.2081489199999993      25.869207500000002      2.4130968799999999
   252   1              12.2974116      25.770469200000001      2.6069099599999999
   253   1             16.36584654      25.675550529999999      2.5197272399999999
   254   1      20.306357739999999      25.809550139999999      2.3899427100000001
   255   1             24.07773512             25.76865806      2.4517210199999999
   256   1      28.377333199999999      25.748965370000001      2.2409843600000001
   257   1  -0.0018673400000000001      2.3797638700000001      3.3227483599999998
   258   1      3.9574615500000001      2.4091702499999998      3.1335471199999998
   259   1      8.1697024299999992              2.22213437              3.18701261
   260   1             12.17943159      2.1876028999999999      3.4542197699999999
   261   1      16.286707010000001      2.2804483699999998      3.3112198899999998
   262   1      20.479816710000001      2.3837077899999999      3.2187757700000001
   263   1             24.36253078      2.2021782999999999      3.1932074699999999
   264   1      28.398934740000001      2.5627507199999999      3.2852239499999998
   265   1      1.9585545600000001      5.7795677100000002      3.2329746400000001
   266   1      5.9936880199999996      5.7781647400000002      3.2608212399999998
   267   1             10.05947888      5.6592981099999999              3.45936098
   268   1             14.11503001      5.8109436700000003      3.2398843099999999
   269   1      18.209692390000001      5.9019935800000001      3.2073556999999999
   270   1      22.274716130000002      5.9167362800000003      3.2524147800000001
   271   1             26.40766309      5.8371843099999996      3.4471774499999999
   272   1      30.359171910000001      5.8328856099999999              3.24789072
   273   1      32.519550199999998      9.3509606000000005      3.2147839500000002
   274   1               4.0400459      9.3540708400000003      3.3807195399999999
   275   1      8.2001814700000004      9.4729449199999998              3.20525035
   276   1      12.352386770000001      9.4366155200000001      3.3157550800000002
   277   1      16.165105239999999      9.4071942199999992      3.4005356999999998
   278   1             20.33642631      9.3558805300000003      3.2397173000000001
   279   1             24.38607171      9.3818813300000006              3.37620633
   280   1             28.23506188      9.3936473100000004              3.31698337
   281   1               2.0287047               12.895448      3.3597452300000001
   282   1      6.0483810599999996             12.91028794      3.2983034099999999
   283   1             10.16159294             12.91027107      3.2813251700000001
   284   1             14.34840253             12.80872926      3.3309624900000001
   285   1      18.165348600000002      12.956418019999999      3.3098456999999999
   286   1      22.371559940000001              12.8643844      3.2569458600000001
   287   1      26.480336380000001             12.93173816      3.3939196699999998
   288   1             30.64625186      12.780072649999999      3.3366332600000002
   289   1             -0.05489658      16.384828509999998              3.27452611
   290   1              3.91672288      16.386957519999999              3.09924643
   291   1      8.0688378400000005             16.26552212      3.3179175000000001
   292   1      12.120879479999999      16.531268430000001      3.2455430399999998
   293   1      16.165227420000001      16.400171660000002      3.4172656300000002
   294   1      20.382862880000001             16.38413744              3.30730068
   295   1             24.35649308      16.376565289999998      3.1741183199999998
   296   1      28.348402199999999              16.4345356              3.33925538
   297   1              2.14692259      19.891954699999999              3.19198008
   298   1      6.2114263799999998             19.78055603      3.3341521699999999
   299   1              9.75731912             19.80758616      3.2910096900000001
   300   1             14.06509411      20.139778740000001      3.2198093000000001
   301   1      18.186933759999999      19.899742230000001      3.3622751399999999
   302   1      22.116224070000001             19.83612317      3.3772093399999998
   303   1             26.38482058             20.10001862      3.2980664399999999
   304   1      30.565036790000001      20.078756769999998      3.3678717100000002
   305   1   -0.032197049999999998             23.53750711      3.1487218700000001
   306   1      4.0640488799999996             23.40131706      3.2076985499999999
   307   1      8.2583681299999991      23.596784270000001      3.1521374799999999
   308   1             12.07792587      23.361897469999999      3.4412445100000002
   309   1      16.237604640000001             23.48907015      3.4043788699999999
   310   1             20.14968996      23.479772220000001      3.3070526099999999
   311   1             24.14750798              23.4964516      3.3020334299999998
   312   1             28.41586212             23.44999146              3.24842348
   313   1              1.78173004      27.052439570000001      3.1849463199999999
   314   1      5.9167061600000004             26.83482364      3.2491369899999998
   315   1      10.158641859999999      26.921990770000001      3.3523628400000001
   316   1      14.309902320000001      27.082851269999999      3.2396173400000001
   317   1      18.253941489999999      26.975383610000002              3.35275824
   318   1      22.176592329999998      26.868515559999999      3.3860157800000001
   319   1      26.354748529999998      26.894274719999999      3.1245024099999998
   320   1      30.374575589999999      26.925313979999999               3.1706862
   321   1    -0.13417295000000001    0.079338420000000007      3.9810581300000001
   322   1              4.00126939              28.0061635      4.1543177599999996
   323   1      8.0814511099999997             -0.12422509      4.0125667900000002
   324   1      12.231607520000001   -0.083604739999999997      4.1149472300000003
   325   1      16.217611099999999             28.01664104      4.1970114399999998
   326   1             20.24188612             -0.05217865      4.3085462400000001
   327   1      24.284189619999999     0.18791823999999999      4.4257845299999996
   328   1      28.521495300000002             28.11835885      4.2084921800000004
   329   1      2.0719867199999999      3.6547970599999999      4.0336655500000003
   330   1      6.0612583500000001              3.55488713      3.9687114299999999
   331   1      10.001946930000001      3.3747217599999999      4.0633088099999997
   332   1             14.16958878              3.46064806      4.0746328800000002
   333   1             18.57020172      3.4310244399999998      3.9944849599999999
   334   1             22.34443387      3.5690621500000002      4.0252913000000001
   335   1      26.307677229999999      3.4806206799999999      4.1885435400000004
   336   1      30.507871789999999      3.5175642900000001      4.1967671199999996
   337   1      32.383906359999997              6.86820041      4.1298693999999996
   338   1      4.1046311099999997              7.07646905      4.0830997800000004
   339   1      8.0991682100000002              7.10267611      3.9331556000000001
   340   1             12.14193231      6.9684382500000002      4.1167552799999996
   341   1      16.278158229999999      6.9625136000000003      4.1073710500000002
   342   1             20.27449021      6.9348321899999998      3.8636801799999998
   343   1             24.44094642              6.91375663      4.2703565599999997
   344   1      28.467651839999998      6.9643036299999999      4.1196968199999997
   345   1      2.1308174800000002             10.48814166      4.2116829600000001
   346   1      6.3018063199999999      10.697631250000001      4.1515263400000002
   347   1             10.23240088             10.55896471      3.8626276900000001
   348   1             14.22321249             10.39413545      4.3186693099999998
   349   1      18.316397460000001      10.692381989999999      4.0684216099999997
   350   1      22.298018819999999      10.659105439999999      4.1610420399999999
   351   1      26.613064399999999             10.51979908      4.3004855800000001
   352   1      30.347550500000001      10.312792030000001              3.99798426
   353   1    0.019739590000000001             14.09076505      4.1554574999999998
   354   1      4.1337405800000004             14.14145677      4.0585844299999998
   355   1      8.1155795299999998             14.07395283      4.0931745800000003
   356   1      12.078192380000001              14.0109829      3.9508925000000001
   357   1             16.19145112             14.12761774      4.1549968699999997
   358   1      20.313580229999999             14.04954669      4.1819357400000001
   359   1      24.289935929999999      14.040511609999999              4.18105584
   360   1      28.450623579999998      14.127306300000001      4.1460165199999999
   361   1      2.0294779300000001      17.708419849999999      4.1527006499999999
   362   1              6.05062268      17.583840330000001      4.2285450100000004
   363   1             10.18009545      17.628273579999998      4.1073164899999997
   364   1              14.1330467             17.76874157      3.8412774299999999
   365   1      18.231435980000001      17.601664960000001      4.0579213999999997
   366   1      22.288199880000001      17.613942680000001      4.2140833100000004
   367   1      26.209155320000001      17.676363940000002      4.2555182299999998
   368   1      30.491908169999999      17.695550999999998      4.3547302099999996
   369   1              0.02702239      21.134227020000001      4.0262175400000002
   370   1      4.1696000199999999      20.995323330000002      4.0257243999999996
   371   1      8.0030741299999999             21.25028897              4.10451663
   372   1             12.06775159      21.076894729999999      4.1010618900000004
   373   1             16.26113106      21.174428150000001               4.1724226
   374   1      20.095167480000001      21.105104189999999              4.05842233
   375   1      24.320081519999999             20.98394111      4.0580009500000003
   376   1             28.23040318      21.003852290000001      4.0865235899999997
   377   1              1.97713355      24.635315540000001      4.1610451499999996
   378   1      6.1159219499999997             24.52370689      4.0221828000000004
   379   1             10.17709116      24.642506730000001      4.1482382199999996
   380   1      14.109772789999999      24.645776250000001      4.1329212399999999
   381   1      18.206384109999998      24.569802630000002      4.1024434100000002
   382   1      22.110816750000001      24.684236500000001              4.18530187
   383   1             26.21096923      24.549493980000001      4.1996238699999999
   384   1      30.279460449999998      24.751588219999999      4.1027943599999999
   385   1              1.89728231               1.2377506      4.8601322600000003
   386   1      6.1855767699999999      1.1376737299999999      4.9475698599999998
   387   1      10.181308639999999      1.1804496499999999      4.9855157500000002
   388   1      14.104727309999999      1.2104387599999999      5.0662643999999997
   389   1      18.135820809999998              1.09530208      4.9000637899999999
   390   1      22.223018889999999              1.26510598      4.7925150700000003
   391   1      26.323779389999999              1.25770388      4.9293357899999997
   392   1             30.45046065      1.2637120799999999              4.90369717
   393   1      32.538886069999997      4.5943441800000002      4.9557763100000001
   394   1      4.1368299300000002      4.5862127900000003      4.9074576099999998
   395   1      8.0600378999999993      4.7301054599999999      5.0027143199999999
   396   1      12.006038589999999              4.70342343      4.9337024700000001
   397   1      16.351807860000001      4.7452740899999997      5.1050841299999998
   398   1      20.413333300000001      4.7429659199999996      4.8705948899999996
   399   1              24.3572107      4.7629044599999997      5.0140592699999997
   400   1             28.37112875      4.8379286500000003      5.0539781599999998
   401   1              2.04913854      8.2047618399999998      4.8563045100000002
   402   1      6.2185650600000004      8.2986863199999998      4.8593739600000001
   403   1             10.17130221      8.0987090800000008      4.9051689700000001
   404   1      14.327577310000001      8.1175898499999999      4.9500709199999999
   405   1      18.259277180000002      8.3101029799999999      4.8854832300000002
   406   1      22.502824749999998      8.3433203799999998      4.8563438400000001
   407   1      26.369366880000001      8.1099382500000008      5.2149679999999998
   408   1      30.418268869999999      8.0700022800000006      5.1135170199999997
   409   1     0.12644619000000001      11.670690130000001      5.0105910400000004
   410   1      4.2390473899999996             11.90234064      5.0016616599999999
   411   1      8.2385420499999995             11.87089493      4.9734683799999999
   412   1             12.15026378      11.831264450000001      4.9027137200000004
   413   1             16.40003506      11.663612280000001      4.9940253500000003
   414   1      20.377049880000001              11.7121002      4.8356418999999997
   415   1      24.549520309999998             11.63029981      5.0257152999999999
   416   1      28.478221470000001             11.75471928      4.9646552499999999
   417   1      2.0445319099999999             15.23559099              4.76590442
   418   1      5.9845698499999997      15.233482860000001      4.8845813900000001
   419   1      10.196439099999999      15.296903390000001      4.8926152399999996
   420   1             14.10382465             15.34779266              4.92451054
   421   1      18.197678280000002               15.447941      4.7924905899999999
   422   1      22.348722479999999             15.17206743      5.0534261699999998
   423   1             26.38907412             15.30317005      4.9143796399999999
   424   1             30.51474142      15.417368679999999      4.7819304599999999
   425   1      32.446088920000001      18.897022580000002      5.0282276599999998
   426   1              3.93732215             18.78703149      4.9523500900000004
   427   1      8.1857156399999997      18.641244960000002      5.0634485900000001
   428   1             12.06396984      18.943194330000001      4.9950757399999999
   429   1             15.93668864              18.8228328      4.9613229600000004
   430   1      20.144783489999998      18.856007699999999      5.0714383500000002
   431   1      24.241308020000002      18.753382049999999      5.1930394099999999
   432   1      28.272676929999999      18.548808510000001      4.9972180699999997
   433   1      1.9980041500000001      22.152132770000001      4.8647283699999999
   434   1      5.9438872700000003             22.41992085      4.9375606599999999
   435   1      10.004252340000001             22.37191417      4.9592719799999996
   436   1      14.113098259999999      22.356656860000001              4.95545598
   437   1      18.128569429999999             22.30054522      5.0095782700000004
   438   1             22.37546875             21.96389495      4.9445865800000002
   439   1             26.11998985      22.257821610000001      4.9991841399999997
   440   1      30.340862990000002      22.195755989999999              4.94933084
   441   1     0.15336374999999999             25.81854796      5.0379254099999997
   442   1      4.0262409100000003      25.650134040000001      5.1691374200000002
   443   1      8.1697675299999997      25.703082989999999      4.8081014199999998
   444   1      12.321942630000001             25.84445698      5.1940342800000003
   445   1      16.430217819999999             25.89805454      4.9107828900000001
   446   1      20.237449300000002      25.752481240000002      5.0388804199999999
   447   1      24.146290230000002      25.752210659999999      5.0270775399999996
   448   1      28.385663399999999      25.671986400000002      4.8096785999999998
   449   1    0.027380109999999999      2.4499366600000001      5.8370549799999996
   450   1      4.1039900899999999               2.4092547      5.6277905400000003
   451   1      8.1289227999999998      2.3294761300000002      5.8079230199999996
   452   1      12.119270139999999      2.3372963800000002      5.9866564599999998
   453   1             16.09192195      2.3291942699999999      5.8197301100000001
   454   1      20.301114399999999      2.4925912000000001      5.8915187199999997
   455   1      24.223377809999999      2.2089114099999998      5.7720679800000001
   456   1      28.370636910000002      2.2958308199999999      5.8407226899999998
   457   1      1.9801570500000001      5.8146628600000003      5.8669737499999997
   458   1      6.0323016200000001      5.8758874600000004      5.8182950800000004
   459   1      9.9317050600000005      5.9476671300000001      5.8741526400000001
   460   1      14.291695799999999      5.8626114200000004      5.9833661400000002
   461   1      18.396581300000001      6.0679160899999998      5.5996267499999997
   462   1      22.392439840000002      6.0447131399999998      5.5952353600000002
   463   1      26.387297719999999              5.70458686      5.9592583799999996
   464   1      30.454269400000001      5.7988130800000004      5.7929600499999996
   465   1      32.407803110000003      9.1622676399999996      5.6916526799999998
   466   1      4.0780908900000004      9.5500626200000003              5.75262195
   467   1      8.2487903500000002      9.4125680599999999      5.6770418600000001
   468   1      12.354161639999999      9.3895063200000006      5.7780124800000001
   469   1      16.185986270000001      9.6145234899999998      5.8321579400000001
   470   1      20.446483229999998      9.4731582499999991              5.77931127
   471   1             24.36688324      9.3804751999999993              5.97030774
   472   1      28.477459840000002      9.4911101999999996      5.9212837399999998
   473   1      2.0671836099999998      12.842095580000001      5.7587876600000003
   474   1      6.2449957600000001             12.77502078      5.7048696000000003
   475   1              10.1836184              12.9359363      5.8831853599999997
   476   1             14.21919512             12.93551596      5.8642593400000003
   477   1      18.399817380000002      12.954139830000001      5.6661801399999998
   478   1             22.45388814      12.943128850000001      5.8422402299999998
   479   1      26.452059349999999      12.897766839999999      5.9475370999999999
   480   1      30.418313869999999             13.05615575              5.76926863
   481   1    0.021016279999999998      16.420970929999999              5.73945229
   482   1              3.97122413      16.249527950000001      5.7312504899999999
   483   1      8.0672882900000005      16.456341720000001      5.7946578200000003
   484   1             12.24786982             16.65631346      5.9714247399999998
   485   1      16.195104260000001             16.58155022      5.7888972000000001
   486   1      20.363801580000001             16.36655914      6.0092499999999998
   487   1      24.374061999999999      16.412117309999999      5.8996545400000002
   488   1             28.42042228      16.279514519999999      5.8091294199999997
   489   1      2.0748136399999999      19.994952359999999      5.9576704100000004
   490   1      6.1847869500000003      20.031290240000001      5.7960256899999996
   491   1      9.9281646899999991      20.167065139999998      5.8918390799999996
   492   1             14.00414941      20.014605360000001              5.77699651
   493   1      18.149562939999999              19.9714767      5.8596159500000002
   494   1             22.27896488      19.784776560000001      5.9172086899999998
   495   1      26.314602300000001      19.835475540000001      5.8930037100000003
   496   1      30.519115459999998      19.937369879999999      5.8055280500000004
   497   1     0.15015065999999999      23.463746539999999      5.7859696899999999
   498   1      4.0282223400000001      23.236070000000002      5.9167180799999999
   499   1      8.1633045299999996             23.53443322      5.5793152099999999
   500   1             12.03307839      23.584260690000001      5.8507811099999998
   501   1      16.151323009999999      23.532649119999999      5.7952066899999997
   502   1             20.28604928      23.406984099999999      5.7752713900000003
   503   1      24.205956130000001      23.431173869999999      5.7012118599999999
   504   1      28.340281019999999      23.433942139999999      5.7196005300000001
   505   1      2.2253840999999999             26.88326678              5.72626627
   506   1      6.0136448199999997      26.840940920000001              5.78736067
   507   1      10.126559990000001             26.82079645              5.80836007
   508   1             14.23620058      27.030545369999999      5.9518606099999998
   509   1      18.295487640000001      26.847757529999999      5.9504106300000004
   510   1             22.21993689      27.067512409999999      5.8515237999999998
   511   1      26.186079889999998             26.96454864      5.6869664899999997
   512   1      30.347121649999998      27.103559990000001      5.6885211900000003
   513   1      32.331149889999999      28.125087270000002              6.42185805
   514   1      4.1072778799999998    0.068577520000000003      6.6053847499999998
   515   1      8.0294127700000004    -0.11887851000000001      6.4707479899999996
   516   1      12.238927029999999  -0.0039673099999999999      6.6669050900000002
   517   1      16.043287039999999    0.028054220000000001      6.6882716899999997
   518   1      20.073191260000002   -0.020577310000000001      6.6915571600000003
   519   1      24.205005480000001      28.171277870000001      6.8776855399999999
   520   1      28.523893650000002             28.00519911      6.6424817100000002
   521   1              2.08975533      3.4200159800000001      6.5100053200000003
   522   1      6.0742592499999999      3.4018456499999998      6.6872474000000004
   523   1      10.143909069999999      3.4568819999999998              6.78562127
   524   1              14.2571268              3.51971634      6.6551080899999997
   525   1      18.364992640000001      3.9448416599999998      6.5354498999999997
   526   1              22.3371785      3.7720747399999999      6.6238668199999999
   527   1      26.455517050000001      3.2918719300000001      6.6731668900000001
   528   1             30.28079344      3.6517804599999999              6.49125994
   529   1      32.522411009999999              6.85311673      6.7962167600000001
   530   1      3.8649513899999999      7.0638818099999998      6.5376612500000002
   531   1      7.9718934299999997      6.9117898200000001      6.4339607000000001
   532   1      12.038287779999999      6.9638692200000003      6.6289173699999999
   533   1      16.436240219999998      7.0548961400000003      6.6235971200000003
   534   1      20.399752970000002      7.2777565199999996      6.4531595499999996
   535   1      24.212515239999998      7.1413320200000001      6.7660473400000001
   536   1      28.495677270000002      7.1702307999999997      6.6731290400000001
   537   1              2.07937452      10.393011530000001      6.9125718999999997
   538   1              6.22578136      10.420095910000001      6.5245864500000001
   539   1             10.37083792      10.550291980000001      6.4444975099999997
   540   1             14.10926602             10.57284793      6.6468226799999997
   541   1      18.205698859999998      10.553835230000001      6.5432007299999997
   542   1      22.256965659999999      10.756385679999999      6.6652125699999996
   543   1      26.281641950000001             10.46246155      6.8738532399999999
   544   1      30.702816439999999             10.67125572      6.3446254700000004
   545   1      32.444384149999998             14.12646228      6.6806923999999999
   546   1      4.1784628699999997      14.006138719999999      6.4795825799999998
   547   1      8.1429711200000003             14.23079386      6.7858016299999999
   548   1      12.078951780000001             14.29739753      6.6483818299999999
   549   1      16.175335520000001      14.246106749999999              6.53654007
   550   1      20.394603790000001      14.126636769999999      6.6113256299999996
   551   1             24.35099456      14.114532759999999      6.8053640499999997
   552   1      28.513715210000001             14.04373762              6.70103107
   553   1              2.10965443      17.595658279999999      6.7433151799999997
   554   1      6.1654234199999998      17.710358859999999      6.7322849900000001
   555   1             10.38138695      17.893872729999998      6.6608967200000002
   556   1             14.30593447      17.584409780000001      6.5821858600000001
   557   1      18.114203939999999      17.738715970000001      6.4896584800000001
   558   1      22.309683140000001      17.555283429999999      6.7490102900000002
   559   1      26.328104360000001             17.48939442      6.8226601100000002
   560   1      30.287108839999998             17.60207303      6.8963527300000003
   561   1     0.14135033999999999      21.216078899999999      6.6349791099999997
   562   1      4.2164054999999996      20.890606009999999      6.4453496499999998
   563   1      8.1448798999999994      21.365498970000001      6.8092629599999999
   564   1             12.24689755              21.3660797      6.6783226899999999
   565   1      16.140871950000001      21.207066099999999      6.8537897599999997
   566   1      20.311861660000002      21.149534989999999      6.8995068399999999
   567   1             24.35075647      20.960189549999999      6.4836805799999997
   568   1      28.576028099999998      21.228374479999999      6.8977808400000002
   569   1      2.2197050800000002             24.61751435      6.7081437099999999
   570   1      6.2326227599999999             24.74819076      6.4151971799999998
   571   1             10.18672905      24.678531150000001      6.7183115600000001
   572   1      14.171923420000001      24.515080909999998      6.7250046699999997
   573   1      18.138875039999999             24.61998144      6.5915626300000003
   574   1             22.38148511             24.78148122              6.72224355
   575   1      26.235108489999998      24.432347620000002      6.5956411299999997
   576   1      30.460758129999999      24.670521449999999              6.50021249
   577   1      2.0450185300000001      1.2350323299999999      7.3951523999999997
   578   1      6.2813548499999996              1.02538142      7.4769611500000002
   579   1      10.158140550000001              1.07304278      7.4931701799999999
   580   1      14.196190619999999      1.1184180500000001      7.6397038400000001
   581   1      17.938379340000001              1.17711195      7.5258274399999996
   582   1      22.112221120000001              1.47399064      7.4899252599999997
   583   1      26.389504899999999              1.03191908      7.5840451099999999
   584   1             30.41093072      1.1889136499999999      7.5069597699999999
   585   1             32.55703407      4.7625542899999997      7.6789644800000003
   586   1      3.8147947499999999      4.7232598399999999      7.3694427999999998
   587   1      8.0683416099999992      4.6854170599999998      7.3736327499999996
   588   1      18.014763469999998              1.67363302              9.88363251
   589   1      16.204399030000001      4.7964478399999999      7.5825543499999997
   590   1      20.288974339999999      4.8825501100000004      7.4431353700000003
   591   1             24.32420085      4.5630986900000003      7.5181025999999997
   592   1      28.506310259999999      4.7235553000000001      7.7584537999999998
   593   1              1.96102416      8.2416741699999996      7.6135084400000004
   594   1      6.0340484400000003      8.1565602500000001      7.5439996699999998
   595   1             10.11731868      8.1377900400000005      7.3294763600000001
   596   1             14.20190127      8.1321747999999996      7.7795355199999996
   597   1      18.250461430000001      8.3504401399999999      7.1170452299999996
   598   1      22.370750640000001              8.45952913      7.3819980300000001
   599   1      26.458019449999998      8.1209985099999997      7.5902366900000002
   600   1             30.39618282      8.3515411099999994      7.4891341499999999
   601   1      32.561954790000001             11.77725315      7.4680721400000003
   602   1      4.1626511700000002      11.496133629999999      7.5901780199999997
   603   1      8.2509838700000007             11.78982104      7.4901870099999996
   604   1      12.156667390000001             11.63562722      7.5085742900000003
   605   1      20.485083020000001               7.1386775      8.6977461900000002
   606   1             20.18781912             11.82415157              7.18183565
   607   1      24.299088480000002      11.716717210000001      7.6124554900000003
   608   1      24.495638889999999      9.3005647800000002      8.6371600399999995
   609   1      2.1761619200000002             15.29223721      7.3880702600000001
   610   1      5.9834883000000003             15.30474004      7.4640100800000004
   611   1      12.041418549999999      16.432977619999999      8.5545846000000001
   612   1             14.14039775             15.26842162      7.4638026899999996
   613   1      18.240734209999999             15.45934411      7.4535857300000004
   614   1      22.446007980000001             15.18898916      7.5882047500000001
   615   1      26.441713409999998      15.154589380000001      7.7240988000000002
   616   1      30.353922270000002             15.17962371      7.5243443599999997
   617   1              32.4781531             18.62619845      7.4892099999999999
   618   1      4.1070716100000002      18.963823319999999      7.6151451300000002
   619   1              8.17795366               18.828761      7.7346066899999997
   620   1             12.49343234      19.005439840000001      7.7356860599999999
   621   1      16.361333009999999             18.69333512      7.3861755599999999
   622   1      20.050869729999999      18.668310439999999      7.5663639600000003
   623   1      24.184712959999999             18.60265515      7.7630196500000004
   624   1      28.401739670000001      18.812010659999999      7.7450859799999998
   625   1               2.3223422      22.078278600000001      7.3569181300000004
   626   1              5.91962104              22.2797558      7.4123022699999996
   627   1             12.17862395      21.185490120000001      9.1471443600000004
   628   1             14.34682361      22.295923599999998              7.58196329
   629   1      18.349026970000001      22.461199100000002               7.5530732
   630   1      22.292834379999999              22.3753487      7.3408682699999996
   631   1      26.229723700000001      21.950861079999999      7.3983687099999997
   632   1      30.591864869999998             22.59476317      7.4190124900000001
   633   1      32.467324300000001      25.950140399999999      7.2924145300000003
   634   1      4.2315541200000002      25.719565100000001      7.4557213999999998
   635   1      8.0896439400000002      25.800655290000002      7.6545645899999997
   636   1             12.39713562      25.890282620000001      7.8367474399999999
   637   1      16.368166859999999             25.74924914      7.5616241000000004
   638   1      20.268795019999999      25.872650369999999      7.6295866500000002
   639   1      24.320436319999999      25.932804560000001      7.5353823599999998
   640   1      28.539433769999999      25.736358249999999      7.3167317299999999
   641   1      3.8299274400000001               7.0246366      9.0534776000000008
   642   1      1.9105641099999999      3.2478253600000002      8.9492791999999994
   643   1      6.0410893400000001              8.01074193      9.7373248700000001
   644   1             14.64668288      24.404326149999999      9.1201801000000007
   645   1      10.190712209999999      22.530837200000001      7.6471029699999997
   646   1      28.232039279999999             25.49979699      9.7177675600000004
   647   1      22.375819199999999      5.9455633399999996      8.2067971899999996
   648   1      7.9951929699999997      2.5971547899999998      8.4277962500000001
   649   1      3.9987386200000001             16.57294868      8.2949383900000004
   650   1      6.1116515600000003             24.49414226      8.8002783699999991
   651   1      20.373976549999998      23.339114519999999      8.3041623599999994
   652   1      18.322509159999999              6.08972157      8.1239420599999992
   653   1      22.355660709999999              12.9910643      8.3653981099999992
   654   1      3.8831085500000002      23.677797730000002      8.2889202199999996
   655   1      24.982155370000001             25.49344078      9.9783402900000002
   656   1             10.54471828             24.69800154      9.1911191199999998
   657   1             10.01512374              10.4243924      8.8395701399999993
   658   1      15.941133710000001      16.585126249999998      8.1839532599999991
   659   1      30.301743439999999      10.383792740000001              8.86617268
   660   1             16.22770088      7.1712730499999999      9.0133655699999995
   661   1              24.5181416             27.92055487      9.2868992099999996
   662   1      28.636299439999998              2.14233612              8.51205736
   663   1      20.113563490000001      28.465086280000001      9.0030453000000001
   664   1              1.99844127             12.83126699      8.3852812700000001
   665   1             10.25594607      13.364317140000001      8.2961148300000005
   666   1              14.6199768             19.89991865      8.4558623700000002
   667   1      5.7465701500000002             17.66972174      9.2988281399999995
   668   1      16.055231809999999             11.77519315      7.5977882900000004
   669   1      3.9956108399999999              14.0798398      9.0852193000000003
   670   1             28.29371832      7.0693450100000002      9.1242559199999995
   671   1      2.1254086399999998      10.613026509999999      9.2604799399999997
   672   1      1.9566960099999999             20.10721088      8.4611092699999997
   673   1      1.8196999199999999      27.053377940000001      8.1656553600000006
   674   1      2.0376290799999999              17.8154228      8.9911761499999994
   675   1      22.029729320000001             19.96763305      8.2214741999999994
   676   1      14.426953940000001             26.90498522      8.3930980999999996
   677   1      20.448668399999999      4.7351379900000001      9.6018714799999998
   678   1      22.379392500000002      17.738668359999998      9.0578039700000001
   679   1      26.619004589999999      3.2636525700000001      9.1028056399999997
   680   1             28.54681527      11.741136129999999              7.74993832
   681   1              2.01493476      5.9575165099999996      8.3561077000000008
   682   1      9.9523679900000008      15.766706080000001      7.6331513600000003
   683   1      6.1138362300000004             26.88191067              8.32520813
   684   1             12.06427835              9.26883181      8.2319039699999994
   685   1      24.264448529999999             16.22874758      8.3871256299999999
   686   1      18.304464719999999             13.06578092              7.81834658
   687   1      14.098443619999999      10.614117930000001      8.9855815400000001
   688   1      22.269034829999999             15.13386942              9.90671985
   689   1             24.32611636      21.151468220000002      8.9083019100000005
   690   1  -0.0061943800000000002      16.384691220000001      8.3247282699999996
   691   1             30.50868294      6.3533790100000003      8.2983163199999996
   692   1      16.113308929999999      2.3172362199999998      8.2246648899999997
   693   1             15.94921154             14.02407871      8.8731570699999995
   694   1      20.197041909999999      9.4540806100000001      8.1593184399999998
   695   1             22.28064479             27.27133409      8.5161843099999999
   696   1      1.7982574499999999      15.316597570000001      9.7365065600000005
   697   1      8.0506678699999998      6.7627923000000001      8.7796233899999994
   698   1      18.335861909999998      26.930075710000001      8.4528426299999992
   699   1      20.039207210000001      2.5747915300000002      8.3873520399999997
   700   1      16.429517270000002    0.035974850000000003               9.1087425
   701   1             14.14296212      5.7145341500000004      8.6942104600000008
   702   1      24.169699309999999             23.57914062      8.2460144199999998
   703   1      22.473583479999999              3.47745777      8.9337013400000007
   704   1      26.385990360000001      19.754471460000001      8.4032261399999992
   705   1      4.0160198200000004      28.047330250000002      8.9010040099999994
   706   1      4.1389329200000002      2.3557085500000001      8.1510780999999994
   707   1             12.34588391      23.528370450000001      8.2775385700000008
   708   1      20.402985350000002             16.28977969              8.48848366
   709   1      22.388552239999999              1.10168416      9.9795071800000006
   710   1      18.049639419999998             20.30419345      8.3842417200000003
   711   1      32.664361540000002      7.2531285600000004      9.2145162099999993
   712   1      32.864566789999998              23.3559904      8.1359193699999999
   713   1             28.22875569      28.095475839999999      8.9013533299999992
   714   1      4.1261659999999996      21.139831040000001      8.8759210100000008
   715   1      32.483175729999999              2.29305424      8.1790047099999992
   716   1      10.145388499999999      20.167684770000001      8.2862762599999993
   717   1      26.434920689999998              23.8412291      9.1487943699999992
   718   1      32.397308860000003      9.3612572600000004      8.1985623699999994
   719   1      30.521462369999998      12.676005569999999      8.1679987599999997
   720   1             30.42278155      3.4871213600000002      8.7229905500000005
   721   1      4.1010113199999996      9.1774676599999996      8.3124843199999994
   722   1      10.286877759999999      26.910636589999999      8.2506563499999999
   723   1      7.9887293599999998      9.3935034399999999      8.4448271800000008
   724   1      5.9687412100000001             10.79338439      9.1898748099999992
   725   1      10.048694960000001      8.1939861700000005      9.8157118499999996
   726   1      16.372797519999999      9.4586927799999998      8.4341673900000007
   727   1      16.504998310000001      23.278037099999999      8.5152816999999992
   728   1      26.371436899999999      12.807640839999999      8.2301133400000008
   729   1      8.0972666699999998             14.27769704      9.2510142799999997
   730   1             12.30928439      4.7814851999999997      7.4916504699999997
   731   1      12.214142280000001      6.9510377200000004      9.1394939399999995
   732   1      18.432165959999999             10.96249158      9.0855709999999998
   733   1      18.268676599999999      17.288014740000001      9.0200986099999998
   734   1      30.505800130000001      24.521838559999999      9.0053201200000004
   735   1             24.40257166              2.24517919      8.4752678100000001
   736   1      7.9955382699999999      16.580917509999999      8.5548943299999998
   737   1      30.689410519999999              20.2523822      8.1390652899999996
   738   1      28.172183660000002      9.5170822099999999      8.5387064299999995
   739   1             13.86145537              12.9526954      8.3810432699999993
   740   1      26.512054150000001      5.5151122099999998      8.4941268700000006
   741   1      24.440301479999999             13.94925188      9.3312893900000002
   742   1             24.32038751      6.8048913400000002      9.1779394199999995
   743   1             18.27361045              8.24217333      9.5883597399999996
   744   1    -0.32845927000000003      13.959001450000001      9.1319083299999999
   745   1             28.46936986      16.534766699999999      8.6334364499999996
   746   1      6.1340497100000002      12.937005539999999      8.2194673199999997
   747   1      9.9823704299999996      17.832044119999999      9.0846045800000006
   748   1      8.0791424500000009      23.447061189999999      8.0947307599999991
   749   1      20.066776239999999             13.95486431      9.1166752199999994
   750   1             26.26917074      17.279817059999999      9.2054870399999995
   751   1      28.113623369999999      21.387770719999999      9.1290367900000007
   752   1      5.9063667799999999      15.262545340000001      9.7935993099999994
   753   1      6.0658541499999998             19.94370984      8.1658021200000004
   754   1      8.2521861800000007     0.20730243000000001      8.9439730900000001
   755   1      5.8066898299999998              5.74223353      8.2137407499999995
   756   1      12.146692549999999     0.22763667000000001      9.0544741999999996
   757   1             -0.21841447             28.02609206      8.8928035300000001
   758   1      26.580504900000001      26.591017319999999      8.2244124099999993
   759   1             28.83198938      14.091361060000001      9.1975519600000002
   760   1      28.488424609999999      23.535341429999999      8.2757949400000008
   761   1      18.531091830000001             24.55496248      9.0994850300000003
   762   1             22.23731952             10.57507425      9.0039387000000008
   763   1             10.21039875      5.6742831499999999      8.4316075900000005
   764   1             12.07292874              2.54846701      8.4416897800000008
   765   1      18.143387650000001               3.8365882      8.9866440500000007
   766   1             22.62270191      24.973695169999999      9.1135628700000009
   767   1      30.710148790000002      17.508008709999999      9.3339888799999997
   768   1      30.250016080000002      26.808463750000001      8.3865957899999994
   769   2      32.313694220000002      24.990800549999999      8.9176113299999997
   770   2     0.49236026999999999      26.496601040000002      9.3433767200000002
