N2-dn2-coord-10bar/300K/snapshots/frame-56324/run-000/../data.lammps (written by ASE) 

770 	 atoms 
2  atom types
0.0      32.470343392086264  xlo xhi
0.0      28.120142247150884  ylo yhi
0.0      31.213473999158239  zlo zhi


Atoms 

     1   1      2.0293964600000001      1.1716090800000001    0.023552650000000001
     2   1      6.0880008999999999              1.17168918              0.02556874
     3   1      10.146952280000001              1.17170328    0.025416459999999998
     4   1      14.205754900000001      1.1716496700000001              0.02501565
     5   1             18.26456816              1.17166478              0.02504435
     6   1             22.32338141      1.1716496700000001              0.02501565
     7   1      26.382184030000001              1.17170328    0.025416459999999998
     8   1      30.441135410000001              1.17168918              0.02556874
     9   1  9.1780000000000006e-05      4.6866847900000002    0.025581599999999999
    10   1      4.0587011400000002      4.6866847900000002    0.025581599999999999
    11   1      8.1174961000000003      4.6866290399999997    0.025584639999999999
    12   1             12.17638011      4.6866852999999997              0.02491202
    13   1             16.23517979      4.6866942700000003    0.025006210000000001
    14   1      20.293956519999998      4.6866942700000003    0.025006210000000001
    15   1      24.352756209999999      4.6866852999999997              0.02491202
    16   1      28.411640219999999      4.6866290399999997    0.025584639999999999
    17   1      2.0293964600000001      8.2016395800000002    0.026613040000000001
    18   1      6.0881071599999999      8.2016314300000008              0.02543782
    19   1             10.14701835               8.2017045    0.025156850000000001
    20   1      14.205766049999999      8.2017080900000003    0.024990459999999999
    21   1             18.26456816      8.2017077599999997    0.025091249999999999
    22   1      22.323370260000001      8.2017080900000003    0.024990459999999999
    23   1      26.382117969999999               8.2017045    0.025156850000000001
    24   1      30.441029149999999      8.2016314300000008              0.02543782
    25   1  9.2789999999999998e-05             11.71671873    0.025573410000000001
    26   1              4.05870014             11.71671873    0.025573410000000001
    27   1      8.1176017700000003             11.71668698              0.02497914
    28   1             12.17637068             11.71673069    0.025001590000000001
    29   1      16.235177310000001      11.716730249999999    0.025074039999999999
    30   1      20.293959009999998      11.716730249999999    0.025074039999999999
    31   1      24.352765640000001             11.71673069    0.025001590000000001
    32   1      28.411534549999999             11.71668698              0.02497914
    33   1      2.0293964600000001             15.23167155              0.02525285
    34   1      6.0881728300000004      15.231678799999999    0.025062859999999999
    35   1             10.14698486      15.231762639999999               0.0250786
    36   1             14.20578841             15.23176782    0.025201990000000001
    37   1             18.26456816              15.2317707    0.025149979999999999
    38   1      22.323347900000002             15.23176782    0.025201990000000001
    39   1      26.382151459999999      15.231762639999999               0.0250786
    40   1      30.440963480000001      15.231678799999999    0.025062859999999999
    41   1      32.470327990000001      18.746748629999999    0.024951939999999999
    42   1      4.0588083299999997      18.746748629999999    0.024951939999999999
    43   1      8.1175770200000006      18.746803499999999    0.025222040000000001
    44   1             12.17637459      18.746799750000001    0.025428470000000002
    45   1      16.235159400000001      18.746805200000001    0.025487360000000001
    46   1      20.293976919999999      18.746805200000001    0.025487360000000001
    47   1      24.352761730000001      18.746799750000001    0.025428470000000002
    48   1             28.41155929      18.746803499999999    0.025222040000000001
    49   1      2.0293964600000001      22.261939099999999    0.025844880000000001
    50   1      6.0881419299999999      22.261841799999999    0.025489439999999999
    51   1             10.14692954             22.26176895              0.02551757
    52   1             14.20573559      22.261804690000002    0.025639160000000001
    53   1             18.26456816             22.26178625    0.025640119999999999
    54   1      22.323400729999999      22.261804690000002    0.025639160000000001
    55   1      26.382206780000001             22.26176895              0.02551757
    56   1             30.44099439      22.261841799999999    0.025489439999999999
    57   1  5.6450000000000003e-05      25.776936450000001              0.02613327
    58   1      4.0587364700000004      25.776936450000001              0.02613327
    59   1      8.1175325399999991              25.7767713    0.024734180000000001
    60   1      12.176376469999999      25.776831090000002              0.02545323
    61   1      16.235145939999999      25.776775220000001    0.025273360000000002
    62   1             20.29399038      25.776775220000001    0.025273360000000002
    63   1      24.352759840000001      25.776831090000002              0.02545323
    64   1      28.411603769999999              25.7767713    0.024734180000000001
    65   1  0.00024266000000000001              2.34304215     0.80166565000000001
    66   1      4.0585502699999996              2.34304215     0.80166565000000001
    67   1      8.1157394600000003              2.34454954     0.80169402000000001
    68   1             12.17601256      2.3433829099999999     0.80116898000000003
    69   1      16.235258170000002      2.3433209100000001     0.80090046999999998
    70   1      20.293878150000001      2.3433209100000001     0.80090046999999998
    71   1      24.353123750000002      2.3433829099999999     0.80116898000000003
    72   1      28.413396859999999              2.34454954     0.80169402000000001
    73   1      2.0293964600000001      5.8582218700000004     0.80119762000000005
    74   1      6.0870566899999998      5.8583336700000004              0.80194851
    75   1             10.14649655              5.85853131     0.80121584000000001
    76   1             14.20597894      5.8582938599999999     0.80086840999999998
    77   1             18.26456816      5.8583798500000004               0.8010794
    78   1      22.323157380000001      5.8582938599999999     0.80086840999999998
    79   1             26.38263976              5.85853131     0.80121584000000001
    80   1      30.442079629999999      5.8583336700000004              0.80194851
    81   1  0.00019438999999999999      9.3717771800000005     0.80082061000000004
    82   1      4.0585985400000002      9.3717771800000005     0.80082061000000004
    83   1      8.1175070500000004      9.3725002699999997     0.80149060999999999
    84   1      12.176590020000001      9.3733583399999993     0.80088261999999999
    85   1             16.23512199      9.3733789200000004              0.80106506
    86   1             20.29401433      9.3733789200000004              0.80106506
    87   1      24.352546289999999      9.3733583399999993     0.80088261999999999
    88   1      28.411629269999999      9.3725002699999997     0.80149060999999999
    89   1      2.0293964600000001             12.88692854     0.80220621000000003
    90   1      6.0883212999999996             12.88743848     0.80138414999999996
    91   1      10.147128609999999             12.88859852     0.80085256000000005
    92   1             14.20571782      12.888558189999999     0.80113791000000001
    93   1             18.26456816      12.888409899999999     0.80109381000000002
    94   1      22.323418490000002      12.888558189999999     0.80113791000000001
    95   1             26.38200771             12.88859852     0.80085256000000005
    96   1      30.440815019999999             12.88743848     0.80138414999999996
    97   1              0.00012365      16.403222639999999     0.80145666999999998
    98   1      4.0586692700000002      16.403222639999999     0.80145666999999998
    99   1      8.1174337899999998      16.403825260000001     0.80097196999999998
   100   1              12.1761021             16.40390721     0.80133072000000005
   101   1             16.23503496      16.403861750000001     0.80140014999999998
   102   1      20.294101359999999      16.403861750000001     0.80140014999999998
   103   1      24.353034220000001             16.40390721     0.80133072000000005
   104   1      28.411702529999999      16.403825260000001     0.80097196999999998
   105   1      2.0293964600000001      19.919205120000001     0.80066369999999998
   106   1              6.08752564             19.91894023     0.80122479000000002
   107   1      10.146078839999999             19.91919038     0.80159137999999996
   108   1      14.204993419999999              19.9192584     0.80178742000000003
   109   1             18.26456816      19.919377350000001     0.80194975999999996
   110   1      22.324142899999998              19.9192584     0.80178742000000003
   111   1      26.383057470000001             19.91919038     0.80159137999999996
   112   1      30.441610669999999             19.91894023     0.80122479000000002
   113   1              0.00142012      23.434536609999999     0.80178442000000005
   114   1      4.0573728100000004      23.434536609999999     0.80178442000000005
   115   1      8.1165862000000004      23.433936769999999     0.80182306000000003
   116   1             12.17555218      23.433996919999998     0.80156656000000004
   117   1             16.23465491      23.434040110000002     0.80170828999999999
   118   1      20.294481409999999      23.434040110000002     0.80170828999999999
   119   1      24.353584130000002      23.433996919999998     0.80156656000000004
   120   1      28.412550110000002      23.433936769999999     0.80182306000000003
   121   1      2.0293964600000001      26.949875330000001              0.80297246
   122   1      6.0858208300000003      26.950066320000001              0.80215291
   123   1             10.14598146      26.949241430000001     0.80165810000000004
   124   1             14.20520604      26.948673230000001     0.80131923999999999
   125   1             18.26456816             26.94858318     0.80108193999999999
   126   1      22.323930279999999      26.948673230000001     0.80131923999999999
   127   1      26.383154860000001      26.949241430000001     0.80165810000000004
   128   1             30.44331549      26.950066320000001              0.80215291
   129   1      32.466764609999998      28.121564159999998              1.44908525
   130   1      3.9940408700000001   -0.086799669999999995              1.42593013
   131   1      8.0848795300000003    0.018332979999999999      1.3523282400000001
   132   1      12.190645229999999    0.052654769999999997      1.4831167599999999
   133   1      16.266168960000002    0.016885819999999999      1.2775059600000001
   134   1      20.236219899999998    0.079918660000000002               1.4609842
   135   1      24.269982460000001             28.20985868              1.54412656
   136   1      28.329029240000001    0.012801130000000001      1.3516956200000001
   137   1              2.05904168      3.5196066899999998      1.6086238799999999
   138   1      6.1031870399999999      3.4883447900000002      1.4778735000000001
   139   1      10.148805769999999      3.5467700500000001      1.4886541799999999
   140   1      14.231384930000001      3.5187639100000001      1.4878650499999999
   141   1             18.27982712      3.5896859499999998      1.5921577099999999
   142   1             22.33848764              3.54698797      1.5016070699999999
   143   1      26.348289950000002      3.5610043400000002      1.6762939400000001
   144   1             30.51623408      3.6024728499999998      1.4942104700000001
   145   1   -0.024820689999999999      7.0715315600000004              1.62583181
   146   1      4.0598965800000002      7.0069181599999997      1.4032327899999999
   147   1      8.1377882800000005      6.9808878999999999              1.52869733
   148   1             12.15086586              7.05319479      1.4494747800000001
   149   1      16.235677450000001      7.0677087900000002               1.5998866
   150   1      20.302927059999998      6.9587174100000002      1.5049515600000001
   151   1      24.377281320000002      6.9577656699999997              1.44599945
   152   1             28.45147167      7.0347913699999998              1.54119078
   153   1      1.9623936500000001             10.59922034      1.4756988200000001
   154   1      6.0966832399999999             10.46236261              1.53484965
   155   1             10.10257814             10.51936051      1.3793530199999999
   156   1      14.114353449999999      10.484267770000001              1.45250557
   157   1             18.32715615             10.51784279              1.43523669
   158   1             22.28572359             10.41318332      1.3335488499999999
   159   1      26.327837850000002             10.49899035              1.43595899
   160   1             30.52439648      10.529228809999999      1.6142196799999999
   161   1      32.486440190000003      14.027084889999999      1.4801246400000001
   162   1      4.0290304299999997             14.02698921              1.34526017
   163   1      8.2430276599999992      14.018512899999999      1.5047676699999999
   164   1      12.204721810000001             14.13919449      1.5472198800000001
   165   1      16.230545899999999      13.988463579999999              1.55404791
   166   1             20.34515923             14.13341185              1.46008655
   167   1      24.247762989999998      14.089555089999999      1.5214215499999999
   168   1             28.45793492      14.075925209999999               1.4760525
   169   1      2.0351090300000001             17.54189405      1.3434966399999999
   170   1      6.0157023499999998      17.489040719999998      1.4146095400000001
   171   1      10.104434230000001             17.59319897              1.50836858
   172   1      14.216174759999999             17.55158672      1.3795655499999999
   173   1      18.322314710000001      17.618448260000001      1.3231889299999999
   174   1             22.30663109      17.614198040000002              1.46467977
   175   1      26.342654240000002      17.437264939999999              1.51031947
   176   1      30.446097389999998      17.605026670000001      1.3584140300000001
   177   1      32.494729900000003      21.014277369999999      1.4124757699999999
   178   1      4.0072378799999999              21.0704487              1.53362964
   179   1      8.1322640899999996             21.02223764      1.5106317199999999
   180   1              12.1901046      21.120265929999999      1.4915679399999999
   181   1      16.250753209999999      21.029411939999999      1.6107720999999999
   182   1      20.287973229999999      21.042419089999999              1.41858386
   183   1      24.435920230000001      21.111986129999998      1.5165292500000001
   184   1             28.49850399      21.094234119999999      1.4655920200000001
   185   1      2.0921841900000002              24.5871408      1.3039403300000001
   186   1      6.1040514000000003             24.55456307      1.4719791099999999
   187   1      10.002171929999999      24.582468370000001      1.4440752800000001
   188   1      14.096404570000001      24.667790329999999      1.4536529499999999
   189   1      18.252776149999999             24.65584728              1.52440496
   190   1             22.22761964      24.599407280000001              1.37169853
   191   1      26.389501800000001      24.656149979999999      1.3208445799999999
   192   1      30.361277430000001      24.544222900000001      1.4908135600000001
   193   1              2.06037515              1.04548558      2.4743102399999999
   194   1      6.1921861399999996              1.11692283      2.3498176900000001
   195   1      10.123872799999999              1.21810569      2.3948393499999998
   196   1             14.24717135              1.08737306      2.4707049699999999
   197   1      18.333233119999999      1.2629859299999999              2.43444913
   198   1      22.328427399999999      1.3023930500000001      2.4415491600000001
   199   1      26.430652819999999              1.11668053      2.4978332700000001
   200   1      30.492303490000001              1.18362744      2.4580953399999999
   201   1    0.091313140000000001      4.6629382000000001      2.4028409100000001
   202   1      4.2162149900000001      4.7050170199999997      2.3947006599999998
   203   1      8.1277602099999999      4.6865232299999997      2.3687521999999999
   204   1             12.20414832      4.6691329699999997      2.3802804700000002
   205   1      16.229324569999999      4.6659997000000004      2.4794144600000001
   206   1      20.251324700000001      4.7371266399999996      2.4480275900000001
   207   1      24.332431570000001      4.7666001099999997      2.4859245099999998
   208   1             28.41802809      4.6998432399999999      2.3805403300000001
   209   1              2.07196107      8.2793042799999998      2.3870120099999999
   210   1      6.0009633500000001      8.2709326399999998      2.3979319499999998
   211   1      10.191583830000001      8.1448573399999997      2.4890573499999999
   212   1              14.1644062      8.2326900799999994      2.4727408400000002
   213   1              18.2878033      8.0978973700000001              2.41606057
   214   1      22.385779500000002      8.2131281600000001      2.4035237999999999
   215   1             26.34941542      8.1732399099999995      2.4537061200000001
   216   1      30.409832850000001      8.1088251600000003              2.39534147
   217   1      32.487766039999997      11.742645250000001      2.4295396500000002
   218   1              4.12140153      11.674456989999999      2.4080073500000001
   219   1      8.1347157899999996      11.736905930000001      2.3443242299999998
   220   1      12.068983859999999             11.54211411      2.3443101300000002
   221   1      16.209998460000001      11.660010829999999      2.4060603899999999
   222   1      20.383645869999999             11.77146649      2.3609949399999999
   223   1      24.400332710000001             11.77845597      2.5095865000000002
   224   1              28.3942777             11.73349228              2.41227233
   225   1      2.0184641399999999      15.269023539999999      2.3938183999999998
   226   1      6.1042923699999996             15.12621669      2.3157747299999998
   227   1      10.127743929999999             15.24981006      2.4915608900000001
   228   1      14.132959019999999      15.178594070000001      2.5405964000000001
   229   1      18.295685330000001      15.235727450000001              2.40084557
   230   1      22.318255740000001      15.232870520000001      2.4989191900000001
   231   1      26.457367779999998             15.21167355      2.3865249400000002
   232   1      30.447755839999999             15.29319446      2.4102277299999999
   233   1      32.564597159999998      18.685834530000001      2.4372297000000001
   234   1      4.0032160000000001      18.697066400000001      2.4743519799999998
   235   1      8.0899505099999995      18.693316200000002      2.3939458199999999
   236   1             12.16987565             18.79427828      2.4184660199999999
   237   1      16.260426599999999      18.673806460000002              2.47213576
   238   1             20.38646851      18.816470729999999              2.49762767
   239   1      24.441344390000001      18.686399080000001      2.4653253500000001
   240   1             28.52512479      18.672734999999999      2.3372353000000001
   241   1      2.0740786099999999      22.198203750000001      2.3276813199999999
   242   1      6.1485901700000003             22.26032142      2.4995456800000002
   243   1             10.09428097             22.28731166      2.4176539199999998
   244   1      14.143573010000001      22.418831480000001      2.4369185199999999
   245   1      18.259150689999998      22.253923709999999      2.3946006099999999
   246   1      22.348768539999998             22.25332238      2.4220032200000001
   247   1      26.356756919999999      22.185396239999999      2.4576465600000001
   248   1      30.596180969999999      22.179910119999999      2.4067220100000002
   249   1      32.434650179999998             25.71336763      2.3572472800000002
   250   1      4.0203651799999998      25.740691930000001              2.39014777
   251   1              8.09177708      25.763988900000001      2.4557257699999999
   252   1             12.13955754      25.820266490000002      2.4092599799999999
   253   1      16.105708450000002      25.898724569999999      2.2545534800000002
   254   1      20.295729690000002      25.840784859999999      2.4061078999999999
   255   1      24.372257139999999              25.7828518              2.37110669
   256   1             28.38711631      25.677964930000002      2.4302267299999998
   257   1      32.579952079999998      2.3001443899999998      3.2938342600000001
   258   1      4.1829163300000003              2.31597265               3.2009287
   259   1      8.1581342499999998      2.2894360300000001              3.24219648
   260   1      12.130642720000001              2.43229432      3.2079387700000002
   261   1      16.348907579999999      2.2931218900000001              3.17521092
   262   1      20.441741539999999      2.3652419400000002      3.2901920800000002
   263   1      24.430514540000001              2.31089704      3.2410439599999998
   264   1             28.43937347      2.4564442199999998      3.3687318300000002
   265   1              1.99953721      5.8121832700000002      3.2168243300000001
   266   1              6.21477506      5.8179395100000004              3.15844696
   267   1      10.225832710000001              5.77708932      3.2269310199999999
   268   1             14.28880633      5.8631473999999999      3.1962938400000001
   269   1      18.277816099999999               5.8688566      3.2970213300000002
   270   1      22.354924520000001      5.8959305400000002      3.2914457100000001
   271   1      26.308281489999999      5.7698109999999998      3.2823709999999999
   272   1      30.561307540000001      5.7424528500000003      3.2622873299999999
   273   1    0.045220000000000003      9.4090598199999995              3.26840069
   274   1      4.0792564699999998      9.3152110199999996      3.3261571399999998
   275   1      8.0091974700000002      9.3252769099999995      3.2854072599999999
   276   1      12.163356479999999      9.3281924099999998              3.26908105
   277   1             16.17327792              9.30580462      3.2466164900000001
   278   1      20.327512160000001      9.3641338100000002      3.2414078200000001
   279   1      24.318442149999999      9.4790807400000006      3.2714078600000001
   280   1      28.429250369999998      9.4245588300000005      3.4106743000000002
   281   1      2.1227153699999999               12.863776      3.2947068900000001
   282   1      6.1328278200000002      12.914535369999999      3.2836699899999999
   283   1             10.13880706             12.84426732      3.2379083799999999
   284   1             14.11911997      12.868591820000001      3.1633070399999998
   285   1      18.239640919999999             12.88386714              3.17222107
   286   1      22.347172260000001      12.917505670000001      3.2592592200000001
   287   1      26.262922369999998             13.01284214      3.2797921099999998
   288   1      30.470811550000001      12.914028910000001      3.2550395399999998
   289   1      32.520208009999998             16.42364092      3.3005244999999999
   290   1      4.0258058999999999             16.31300001      3.1840668999999999
   291   1      8.1390469299999992      16.354848100000002      3.2485364200000002
   292   1             12.14575608      16.512290650000001      3.3205812400000001
   293   1      16.138118209999998      16.386587550000002              3.11702141
   294   1      20.337401400000001      16.492459010000001      3.2296613999999999
   295   1             24.40929598      16.425468840000001      3.2866582000000002
   296   1             28.41078868             16.30005594              3.23516008
   297   1      2.0006007600000002      19.887820349999998      3.1236214000000002
   298   1      6.0578155300000001      19.847785170000002      3.2364493300000001
   299   1      10.143846140000001              19.9670071      3.3729022199999998
   300   1      14.179684979999999      20.131415789999998      3.2969237100000002
   301   1      18.230915979999999      19.956782520000001      3.2317807900000002
   302   1      22.426221829999999             19.99342983      3.2247617399999999
   303   1      26.537499050000001      19.884053550000001      3.2688042300000002
   304   1      30.501519129999998             19.83172587      3.2714533000000001
   305   1   -0.077137430000000007      23.419910680000001      3.1859202999999998
   306   1      4.0045847600000002      23.396476119999999      3.2747741499999998
   307   1      8.1691763300000009             23.44919303               3.3058269
   308   1             12.13445233      23.509566410000001      3.2752239699999999
   309   1      16.231244799999999      23.610076549999999      3.2052935599999999
   310   1             20.36393245      23.380036059999998      3.1716002900000002
   311   1             24.46436469             23.52864958      3.3296810699999999
   312   1      28.423165560000001      23.375707720000001      3.1877692099999999
   313   1              1.96901094             26.82751945      3.2421401300000001
   314   1      6.1301669700000003      26.881975829999998      3.1853282599999999
   315   1      10.182586369999999      27.057391150000001              3.23524192
   316   1      14.134082469999999      26.983344679999998      3.1585337099999999
   317   1      18.196879790000001             26.94576996      3.1181574200000002
   318   1      22.305644999999998             26.97260825      3.2368493300000001
   319   1      26.416542100000001             26.96600042      3.1457121400000001
   320   1      30.488902759999998      26.996302369999999      3.2635318799999999
   321   1   -0.038114189999999999             28.09981702      4.0172396800000003
   322   1      4.1246651700000001    -0.23137431999999999      4.0126872599999999
   323   1              8.13523204   -0.069681309999999996      4.0456301300000002
   324   1      12.196138489999999              0.17432111              4.01836986
   325   1      16.145966340000001      28.132001349999999              4.03801889
   326   1      20.328716480000001              28.1881156      4.1166428899999996
   327   1             24.44455052      28.110274109999999      4.1323600100000002
   328   1      28.453032870000001      28.086389199999999      3.9678123200000002
   329   1      2.1104035799999998      3.4494102400000002      4.0797674300000004
   330   1      6.1671317300000004      3.4215869099999998      4.1568257900000001
   331   1             10.13909344      3.6271413199999998      4.0565198499999999
   332   1             14.26539775      3.4730591400000002      4.0995386299999996
   333   1      18.387497379999999      3.4994375999999998      4.1181781900000001
   334   1      22.413395560000001      3.5231350899999998      4.0373082800000004
   335   1      26.462856439999999      3.5957351700000002      4.0745967900000002
   336   1      30.456277660000001      3.4507408000000002      4.0974558099999996
   337   1   0.0055835499999999996      7.0339841999999999      4.1383405499999997
   338   1      3.9690811199999998      6.9299811499999997              4.01980396
   339   1      8.2094149499999993      6.9187333100000004      4.0982885800000002
   340   1      12.154022060000001      6.9116365699999998      4.0957009600000003
   341   1      16.171998899999998      6.9850916099999996      3.9697353099999999
   342   1      20.354515190000001      7.0335089599999998              4.19970336
   343   1             24.45915772      7.0833835299999999      4.1581499400000004
   344   1             28.45159932      6.9621216300000004      4.0103853300000001
   345   1      2.0567322899999998      10.552126400000001      4.1027281100000002
   346   1      6.1746298900000003      10.575060390000001              4.10056741
   347   1      10.036079969999999      10.565445840000001      4.0116917900000004
   348   1      14.229564979999999      10.547013850000001      4.1380319600000002
   349   1      18.252758709999998      10.600087569999999      4.0244127699999996
   350   1      22.349998249999999             10.58158991      4.0761638600000003
   351   1             26.43788511             10.53420528      4.0654092300000002
   352   1      30.482953940000002             10.52668847      4.1843665300000001
   353   1      32.499277040000003      14.051042300000001              4.05640103
   354   1      4.0457149399999999      14.028750649999999      4.1120071899999999
   355   1      8.0633231599999995      14.015454480000001      4.0442070599999997
   356   1      12.178732650000001             13.99678572      4.0307836699999999
   357   1      16.202139540000001      14.133793150000001      4.0695851599999999
   358   1      20.213657049999998             14.10398552      4.1119236199999998
   359   1      24.319618519999999      14.006841980000001      4.1349937800000003
   360   1             28.41206115             14.07545717              4.13955641
   361   1              2.13205373               17.450937      4.1122789199999996
   362   1      6.0329142899999999      17.524356279999999      4.0111998599999996
   363   1             10.07344041      17.652170259999998      4.1343589500000002
   364   1             14.11875772             17.61253653      4.0878930699999998
   365   1      18.161515529999999      17.643072400000001              4.06170922
   366   1      22.350835719999999      17.599679460000001              4.11540514
   367   1      26.492329720000001      17.561093280000001      4.0484157600000001
   368   1      30.518800339999999             17.54438876      4.1222646000000003
   369   1    0.083144140000000005             20.97187027      4.0287731000000004
   370   1      4.0653300000000003             21.00429802      3.9966566700000001
   371   1      8.0787334899999994      21.105148329999999      4.0886992500000003
   372   1      12.130008159999999      21.112811690000001      4.2185400499999997
   373   1      16.217890480000001             21.21949287              4.05375715
   374   1      20.364627389999999      21.002752659999999      4.1065955799999996
   375   1      24.368504640000001      21.016264880000001      4.1766257099999997
   376   1      28.371618000000002      21.070725580000001      4.0279363899999998
   377   1              1.90561527      24.426342590000001              4.03801291
   378   1              6.09799544      24.595874129999999      4.3237352600000003
   379   1              10.0547947      24.737935629999999      4.0835071100000002
   380   1              14.0774065      24.665794349999999      4.0974781299999998
   381   1             18.37754764             24.64522083      4.0507491199999999
   382   1      22.344001779999999             24.69792979      4.0609713699999999
   383   1             26.45556229             24.56430172      4.0483117799999997
   384   1             30.38141456      24.442778610000001      4.0057756199999996
   385   1      2.1060160300000001      1.0298872699999999      4.8715086400000001
   386   1      6.0346595399999998      1.1279763700000001      4.9407114099999996
   387   1             10.22711483      1.1714745499999999              4.77577783
   388   1             14.21152116              1.22511283      4.9160851000000001
   389   1      18.301272319999999      1.1251343599999999      4.8893610199999999
   390   1      22.411256529999999               1.2138297      5.0045326699999997
   391   1              26.4723419               1.2495813      4.9825863000000004
   392   1      30.505299109999999      1.0755131499999999      4.9128299000000002
   393   1              0.15390808      4.5416160999999997      4.8452663400000002
   394   1              4.16561585      4.6237350099999999      4.8450844999999996
   395   1      8.2164645699999994      4.5949835300000004      4.9887906299999996
   396   1             12.23420003      4.7134235699999998      4.8406527300000004
   397   1      16.287964670000001      4.6694733299999998      4.9297906100000004
   398   1      20.360189080000001      4.6187765900000004      4.9482639900000001
   399   1      24.490311609999999              4.67759357      4.9683079899999996
   400   1      28.519304429999998      4.6984656100000004      4.9709352899999999
   401   1      2.0641040400000001      8.2541915299999999      4.8028320000000004
   402   1      6.0669193300000002      8.1343601799999998      5.0438256800000003
   403   1      10.039802630000001      8.2494888999999993      5.0516338599999999
   404   1      14.257444830000001      8.1809889699999996      5.0170275100000001
   405   1      18.176003189999999      8.2057343300000003      4.9581169200000001
   406   1             22.33508557      8.1626897300000003      4.9106485199999996
   407   1             26.45469975      8.2657166899999996      4.8555052200000004
   408   1             30.44899251      8.2238523000000008      4.9590589300000003
   409   1     0.19726324000000001      11.618915039999999      4.9850164899999996
   410   1      3.9416464100000002             11.70590642      4.9562973799999996
   411   1      8.1537117000000006             11.75327246      5.0560983100000003
   412   1             12.09353314             11.72129675      4.7863588100000003
   413   1      16.226209820000001             11.66142816      4.9720751099999996
   414   1             20.27946953             11.68192007      4.8087281600000003
   415   1             24.41991131      11.655850129999999      4.8624175200000002
   416   1             28.47526882      11.693093879999999              4.89946079
   417   1      2.0136298199999998             15.23979325      4.9981633700000003
   418   1      6.1262572899999999             15.23347792      4.8869738500000004
   419   1             10.11236789             15.32711619      4.8332275300000003
   420   1      14.202520610000001      15.239768570000001      4.9168545000000003
   421   1      18.282023710000001              15.2162594      4.9335553000000001
   422   1      22.258244650000002             15.22257396      5.0466224300000002
   423   1             26.42555218             15.23530261      4.9012248600000001
   424   1      30.374503929999999              15.3006289      4.8853274799999999
   425   1      32.488045849999999             18.66249612      4.9680593999999996
   426   1      4.0903483300000003      18.617579249999999              4.91138516
   427   1      8.0575046700000001      18.637948519999998      4.8884209700000003
   428   1             12.11021208      18.774692859999998               4.9705002
   429   1             16.19532744      18.755924140000001      4.9859981700000002
   430   1             20.36961998             18.71508768      4.9853071900000003
   431   1      24.293540409999999      18.691830960000001      4.9555599099999998
   432   1             28.48125551      18.799929240000001              4.78970728
   433   1      1.9668430699999999      22.035122269999999      4.9758137299999996
   434   1      6.0923522400000003      22.269447979999999              5.04038217
   435   1      10.170575319999999             22.39560775      4.9656670299999996
   436   1      14.300507339999999      22.364695690000001      5.0027313500000004
   437   1             18.36657439      22.283854430000002      4.8256610699999998
   438   1      22.299112099999999      22.210649950000001      4.9264464099999996
   439   1      26.315913609999999              22.2295549      4.9390880299999997
   440   1      30.520354909999998      22.079457049999998      4.8227324400000002
   441   1      32.366560990000004      25.679721669999999      4.9128366200000002
   442   1              3.98845882      25.746527919999998      4.8859078299999998
   443   1      8.0769201000000006             25.89467578      5.0316095900000004
   444   1      12.210629340000001      25.995417660000001      4.8988794499999999
   445   1      16.196724249999999      25.785758850000001      4.8662876700000002
   446   1      20.219057159999998      25.886719280000001      4.8343277000000002
   447   1      24.459082120000001      25.836586189999998      4.8639625100000003
   448   1      28.476326390000001      25.795143580000001      4.9162005100000004
   449   1      32.560719419999998              2.15370609      5.7194910400000003
   450   1      4.0518940199999998               2.4340036      5.7773442599999996
   451   1      8.1493646799999997              2.29303868              5.63471674
   452   1              12.2297814      2.4713443399999999      5.6571336900000002
   453   1             16.24413431      2.3042940000000001      5.7503847800000001
   454   1             20.41436603      2.3698781200000001      5.8051637899999999
   455   1             24.35319453      2.4036563499999999      5.7525373799999997
   456   1      28.513809479999999      2.4278444600000002      5.7712892399999998
   457   1      2.1140492900000001      5.8530812399999999      5.6885295300000003
   458   1      6.2183030199999996      5.7527201899999998      5.8352429199999998
   459   1             10.17916084      5.9225615400000002      5.7841427599999999
   460   1      14.123802919999999      5.8033250599999997      5.6665607199999997
   461   1             18.22180822      5.9105541800000001      5.7103458099999997
   462   1      22.331557360000001      5.9460730000000002      5.8951622500000003
   463   1      26.458082739999998      5.9622206799999997      5.8000705000000004
   464   1      30.529911819999999              5.85555643              5.75871099
   465   1      32.602299299999999      9.3021581100000006      5.8328267800000004
   466   1      4.0308724900000001      9.2743803099999997      5.7537211599999996
   467   1      8.0173975100000003      9.4882793599999999              5.79936118
   468   1             12.08241851      9.3063492300000004      5.7662354899999997
   469   1      16.180386710000001      9.3181320200000002      5.7297759099999999
   470   1      20.413823099999998      9.3040869700000002      5.6753394000000004
   471   1             24.41916247              9.29213573      5.8110707699999997
   472   1              28.4648748      9.3761281600000004      5.8074718599999997
   473   1              2.03957978             12.91009996              5.85283335
   474   1      6.0374537699999999             12.87467728      5.8912963200000004
   475   1             10.08260175      12.861484580000001      5.7062082500000004
   476   1      14.198549229999999      12.903264760000001      5.7186160299999997
   477   1      18.279432629999999             12.81661091      5.6307778700000002
   478   1      22.289084979999998      12.914533629999999      5.7081675799999996
   479   1             26.43817219             12.86871069      5.7886943000000004
   480   1      30.458961410000001      12.913954710000001      5.7938963399999999
   481   1    0.040380630000000001      16.477605149999999               5.7762864
   482   1              3.95275233             16.36616575              5.80648594
   483   1      8.1093559499999994             16.33049922              5.78985181
   484   1             12.15566248             16.44252002      5.7838216200000003
   485   1      16.172540860000002             16.33900568              5.66150427
   486   1             20.17185697             16.35803855      5.7898452000000002
   487   1      24.377538229999999             16.27526044      5.6618340199999997
   488   1             28.45471191      16.411948559999999      5.7641247299999998
   489   1      2.1652382700000001      19.823060219999999      5.8149922700000003
   490   1      6.0428583700000003              19.8008457      5.7000924900000003
   491   1             10.08043786              19.8757114      5.7755571999999997
   492   1             14.21814872      19.949997849999999      5.8312707599999998
   493   1      18.337483890000001             19.87237979      5.7817533699999997
   494   1             22.35017392      19.850419649999999      5.7737143299999998
   495   1               26.288439      19.835607069999998      5.6919536300000004
   496   1      30.376823959999999             19.86222927      5.7729308499999998
   497   1      32.391264739999997      23.348090429999999      5.7094708699999996
   498   1      3.9620963800000002             23.39381023      5.7904800700000001
   499   1      8.0923846000000008      23.568818650000001      5.7478387399999997
   500   1              12.1900677      23.573658210000001      5.6485850199999996
   501   1      16.346562609999999      23.516879039999999      5.6428739800000001
   502   1      20.402303849999999      23.433929129999999      5.6753762700000001
   503   1      24.405968829999999      23.479551300000001      5.7886428099999998
   504   1      28.359465190000002             23.35650502              5.65849066
   505   1      2.1254796499999999             26.82547653      5.6432473200000004
   506   1      6.0445496700000003      26.883198109999999      5.7233399900000004
   507   1      10.139950349999999      27.085952689999999      5.6232368700000004
   508   1             14.28525409             27.02826924              5.66111729
   509   1             18.29032892      26.927983560000001      5.6261369099999996
   510   1      22.281539500000001             26.98124078      5.5857135400000004
   511   1      26.421858629999999      26.876472960000001      5.7479424999999997
   512   1      30.506476670000001      26.818062279999999      5.8578031800000003
   513   1      32.654021540000002             -0.10125384              6.69165703
   514   1      4.0197744799999997   -0.077026269999999994      6.5167348799999996
   515   1      8.0862366899999998  -0.0097318300000000003      6.5235162999999998
   516   1      12.261908139999999      28.201469670000002      6.4319496000000003
   517   1             16.30199936   -0.086693400000000004      6.5386448100000001
   518   1      20.278797740000002     0.13741013999999999              6.56517616
   519   1      24.288239619999999     0.15980668000000001              6.67645891
   520   1      28.514196930000001              28.0623504              6.58505305
   521   1              2.05892674              3.52228991              6.61427604
   522   1      6.0740621499999996      3.4689322699999998      6.5252175699999997
   523   1             10.23901994      3.4533117400000002      6.4964483299999998
   524   1             14.33104148      3.4786565199999999      6.5844151699999998
   525   1      18.281948060000001      3.5787226799999998      6.5169341999999997
   526   1      22.358834309999999      3.4929779600000002      6.6583086399999996
   527   1      26.425626300000001      3.5958096400000001      6.4463519199999997
   528   1             30.58101203      3.6189247500000001      6.5904887700000003
   529   1    0.085983439999999994      7.0419177299999998      6.5882346600000004
   530   1      4.1901688999999998      6.9875830299999997      6.5712822900000001
   531   1      8.1507381500000005      6.9186775899999997      6.5834552300000002
   532   1      12.236848330000001      7.0569260900000002      6.6240447199999997
   533   1             16.09075936      7.1366998400000003              6.55183289
   534   1      20.323041799999999      6.9786977300000004      6.6173074300000003
   535   1      24.401366679999999               6.9984769              6.78533191
   536   1      28.540012780000001      7.0589098799999999      6.5938991299999996
   537   1      2.1412299099999998      10.497762699999999      6.6008136799999999
   538   1      5.9374727099999998      10.548891060000001      6.6056301900000003
   539   1      10.112441499999999             10.49099829      6.5574296700000003
   540   1             14.11292637                10.50872      6.5739486200000004
   541   1      18.196702460000001             10.50406956      6.4999825099999997
   542   1             22.34420849      10.575455059999999      6.7304312399999997
   543   1      26.435182959999999      10.487081590000001      6.5519641899999996
   544   1             30.60370198             10.59989169      6.5467454900000002
   545   1    0.092819550000000001      14.109129619999999              6.61043235
   546   1      4.0495668299999998      14.197155710000001      6.6974965400000004
   547   1      8.1779614699999996      13.992080939999999      6.5790393800000002
   548   1              12.1008925      14.085081349999999      6.5453262700000003
   549   1      16.314129309999998      14.031411650000001              6.54905312
   550   1      20.228518430000001             14.05752167              6.62764927
   551   1      24.390349629999999             14.06767024      6.6226149699999999
   552   1      28.441598849999998      14.064577379999999      6.6283667700000004
   553   1      2.1561216999999999      17.503847520000001      6.7030035699999999
   554   1      6.0334671599999998      17.467907759999999      6.6666793899999996
   555   1      10.085740899999999             17.54332793      6.7034307000000002
   556   1             14.18906494      17.499421089999998      6.5972184699999996
   557   1      18.194628080000001      17.557297380000001      6.5695441199999998
   558   1             22.37108267      17.478292769999999      6.5364045300000004
   559   1             26.40457765      17.593228920000001      6.6837233200000004
   560   1      30.421588289999999      17.543930889999999      6.5657013099999997
   561   1      32.428469210000003      21.040989509999999      6.5855896200000004
   562   1      4.1864653199999999      21.014350350000001      6.6351036099999998
   563   1      8.1039451899999992      21.046179370000001      6.5577766100000003
   564   1      12.121797279999999             21.04517749               6.5984805
   565   1             16.26259722             21.09321971              6.55111372
   566   1      20.411945759999998             21.02160494      6.5721753700000001
   567   1      24.382896980000002             21.06632054      6.5999709800000002
   568   1      28.393624039999999             21.01375045      6.4937791599999999
   569   1      2.0019156100000002      24.466736310000002      6.6556070900000002
   570   1      6.1494629300000003             24.50287071      6.5872227900000002
   571   1             10.17791686      24.687462759999999      6.5062889999999998
   572   1      14.373492280000001      24.581681029999999      6.6363180899999996
   573   1      18.367849840000002             24.60573364      6.5165125799999997
   574   1      22.412817440000001             24.71795534      6.5031728900000001
   575   1      26.456549630000001      24.616634749999999      6.5567667199999997
   576   1             30.41209134      24.427578140000001              6.52675261
   577   1      2.0668898800000002      1.2081316799999999      7.5153541199999996
   578   1      6.1096540600000004      1.0594857499999999      7.5643067100000003
   579   1             10.18820283              1.15122602      7.6471322400000004
   580   1             14.30001539      1.1705045300000001      7.6495413000000001
   581   1      18.331566609999999              1.18864126      7.5163110900000003
   582   1      22.349683729999999      1.2866349800000001      7.6906257800000004
   583   1      26.461015020000001      1.2003734399999999      7.4368555799999996
   584   1      30.436355880000001      1.2271169799999999      7.4999084900000001
   585   1    0.063919870000000004      4.7348711100000003      7.3459293099999998
   586   1              4.04240859      4.5429134400000004      7.4215883399999996
   587   1      8.0923282099999998      4.5056847199999996      7.4935216100000002
   588   1      12.257536610000001      4.6452694599999997      7.5250039900000001
   589   1      16.238630610000001      4.7030496800000003      7.4425167400000003
   590   1             20.23551376      4.6595951900000001      7.5016320600000004
   591   1      24.334954360000001      4.7375478700000002      7.7082909199999996
   592   1      28.487096300000001      4.7238248599999997      7.5759767199999999
   593   1      2.0638370300000002      8.1903135599999999      7.4757935499999997
   594   1              6.03108384      8.0670124199999993      7.4141661699999997
   595   1             10.00929021      8.2671372000000005      7.7042141500000003
   596   1              14.0915242      8.2718080900000004      7.5923106000000002
   597   1             18.17059983      8.1863673200000004              7.50200288
   598   1      22.235943320000001      8.1906504200000008      7.5937050399999997
   599   1      26.494676640000002      8.2110111999999997              7.49842633
   600   1      30.522119960000001      8.2182577400000003      7.6181567799999996
   601   1      32.560992120000002      11.685488940000001      7.5692122599999996
   602   1      4.0680691700000002      11.792747739999999      7.6837961400000001
   603   1      7.9986120300000003             11.67592207      7.5896237500000003
   604   1              12.1065158      11.803011509999999      7.3070591399999998
   605   1      16.206097790000001      11.544602019999999      7.5269564899999999
   606   1      20.296028069999998      11.739765800000001      7.4963984999999997
   607   1             24.52652986             11.69002027      7.5562515100000001
   608   1      28.441284270000001             11.79833874      7.7030038100000002
   609   1      2.0357398899999999      15.142928510000001      7.6574094600000002
   610   1      6.0839427400000003             15.24306273      7.5166131800000002
   611   1             10.26908091             15.04593921      7.4717445700000003
   612   1             14.15620011             15.11609206      7.4635717100000001
   613   1             18.28026925              15.1908955      7.3896218899999999
   614   1      22.246770399999999             15.19520204      7.4646809699999999
   615   1      26.380345290000001      15.251667490000001      7.5129891600000001
   616   1             30.71862337      15.356905640000001              7.43190639
   617   1      32.413714759999998      18.663538729999999      7.6463668199999999
   618   1      4.0708149799999997      18.815025680000002              7.60530521
   619   1      8.0488475000000008             18.56671133      7.4846624200000003
   620   1      12.046518669999999             18.70980625      7.6344360099999999
   621   1               16.206377      18.760898990000001      7.5304774400000003
   622   1      20.336680810000001      18.685768029999998              7.58087453
   623   1      24.430486720000001      18.751995699999998      7.4928424099999997
   624   1      28.447448919999999      18.800042619999999      7.5046903800000004
   625   1              1.96791779      22.038286169999999      7.5201703799999997
   626   1      6.1244996399999998      22.300284229999999      7.5990773899999997
   627   1      10.249417940000001      22.161583480000001      7.5574267700000002
   628   1      14.195094190000001      22.166323779999999      7.4956344000000001
   629   1      18.455523150000001      22.132319769999999      7.4267783600000001
   630   1      22.386717220000001      22.283227539999999      7.6360507399999999
   631   1      26.384828859999999      22.402285819999999      7.6741611599999997
   632   1      30.362603880000002      22.098849449999999      7.5558901799999996
   633   1      32.416115019999999             25.59492955      7.5149079399999996
   634   1      3.9775576199999998             25.56690635      7.4519683900000002
   635   1      8.1252333100000005      25.870477940000001      7.5043893199999996
   636   1      12.268261239999999      25.792168820000001              7.37366397
   637   1             16.42174039             25.75795183      7.3740146700000002
   638   1      20.346891100000001      25.869326699999998      7.4358321299999997
   639   1             24.35206325             25.81565393      7.5670732999999997
   640   1      28.453062599999999      25.884475200000001      7.4987919700000001
   641   1      32.613084970000003      2.3656201600000002      8.2229193299999999
   642   1      4.2232698900000001              2.37323555      8.1974878499999999
   643   1      8.0683188999999995      2.2601967200000002      8.1943054899999996
   644   1      12.257576630000001      2.3490176300000001      8.0782922799999994
   645   1             16.28738233      2.3323492300000002      8.1595103200000008
   646   1      20.299132799999999              2.37484881      8.1933038899999993
   647   1             24.47979522      2.2355131400000001      8.2376786699999993
   648   1             28.38656405      2.4778194400000002      8.1819199600000001
   649   1              2.10824773      5.8449817199999998      8.1175323600000002
   650   1      6.0135959300000001      5.8064542100000001      8.2007122100000007
   651   1      10.194453299999999      5.9333722699999996      8.3002077700000001
   652   1             14.24038822      5.7216559699999996      8.1428663799999992
   653   1      18.230912400000001      5.9286323200000002      8.1876226499999998
   654   1      22.220797999999998      5.8055765700000004      8.2027481499999997
   655   1      26.420890579999998      5.9471682599999998      8.4373879600000006
   656   1             30.46288685      5.8856399699999997              8.15363638
   657   1    0.098408739999999995      9.3671038000000006      8.2831825200000004
   658   1      4.2190689800000003      9.4463168599999996      8.2667543999999999
   659   1      7.9742215300000003      9.2444069199999994      8.2384237200000001
   660   1      12.061620530000001      9.4562758299999992      8.2048576700000009
   661   1      16.144902850000001      9.4018930300000001      8.1912886500000006
   662   1             20.31133165      9.4934997499999998              8.20083685
   663   1      24.458447020000001      9.2097562499999999      8.2080743599999995
   664   1      28.523758319999999      9.4054439300000006      8.3060533799999998
   665   1      2.1245226800000001      12.919505539999999      8.3624351099999998
   666   1      6.0152850200000003      13.023376580000001      8.3629784899999997
   667   1             10.20921192      12.777006650000001      8.1547304399999998
   668   1             14.12934286      12.840442899999999      8.0719866499999995
   669   1      18.165554459999999      12.926648699999999      8.0666931900000005
   670   1             22.31032244             12.79617504      8.1277107700000002
   671   1             26.45030324             12.97371302      8.4122055299999996
   672   1             30.46397705      12.904155530000001      8.2136294400000001
   673   1              0.14254934             16.39682797      8.2360549499999998
   674   1      4.1092060100000003      16.529556639999999      8.3979348999999992
   675   1      8.2986368000000006      16.325438550000001      8.1597621799999995
   676   1             12.27336697      16.362369019999999      8.2381975999999995
   677   1      16.227914030000001             16.26590247      7.9888165600000001
   678   1      20.316837620000001             16.38352124      8.2353623099999993
   679   1      24.283534370000002      16.440040880000002      8.1042770399999995
   680   1      28.421288659999998             16.40151934      8.0737576600000001
   681   1      2.1103152199999999      19.802767110000001      8.3146586599999992
   682   1      6.1474904600000002             19.81868794      8.2847156999999996
   683   1      10.075372290000001             19.86881004      8.1799215800000002
   684   1             14.19463449      19.826592689999998      8.2060046199999999
   685   1      18.271246560000002      19.956233409999999      8.2384339400000002
   686   1      22.254354360000001             19.78967746      8.3007772400000004
   687   1      26.352099039999999             19.99424651      8.2600282000000007
   688   1      30.275359120000001      19.848241560000002      8.2965415999999994
   689   1      32.405233860000003             23.21573527      8.1694387000000006
   690   1      4.0756631299999997      23.325583569999999      8.2713413300000003
   691   1      8.1717913800000002      23.455542959999999      8.1909398099999997
   692   1      12.271945580000001             23.35559877      8.2213766100000001
   693   1             16.48892171             23.23605573      8.0096694399999997
   694   1      20.184780669999999             23.48269118      8.1245056000000009
   695   1      24.388719510000001      23.473292740000002      8.2317270400000009
   696   1      28.385393860000001             23.49716621      8.1634540100000006
   697   1              2.11835789      26.925070389999998      8.2319469999999999
   698   1      5.9768537400000001      26.857547390000001      8.0766353199999994
   699   1      10.196322479999999      26.955329590000002      8.0134605899999993
   700   1             14.26861832      26.868282520000001      8.0849862399999992
   701   1      18.345716800000002             26.95258613      8.0175491300000008
   702   1      22.262476790000001             27.02302998      8.1856340000000003
   703   1      26.310336339999999      27.047774539999999      8.2495123800000005
   704   1      30.506327460000001      27.138856910000001      8.2332093200000003
   705   1      32.795046579999998      28.153664989999999      9.0389564399999998
   706   1      4.0089586800000001              0.15541784      9.0127758199999999
   707   1      8.1587956500000001      27.996535980000001      8.9071391099999992
   708   1      12.246915509999999             28.07414859      8.8501462199999992
   709   1      16.328195139999998             -0.10245319      8.9561183500000006
   710   1             20.47682034      28.054910899999999      8.9702913300000002
   711   1      24.172706340000001              -0.1286658      9.0760710699999994
   712   1      28.270414479999999    0.092277960000000006      9.0197559799999993
   713   1              1.83639888              3.55625758              9.10017839
   714   1              6.14066782              3.51131349      8.9216160200000001
   715   1             10.17886811      3.1988363799999999      8.9022431999999991
   716   1      14.246808120000001      3.4533579699999999      8.9573978800000003
   717   1      18.216537240000001      3.6716542400000001              8.92108773
   718   1      22.529107280000002      3.5074307199999999              9.17433269
   719   1      26.353770470000001              3.49728978              8.96047802
   720   1      30.350946629999999      3.4336700800000002      9.0168408499999995
   721   1      32.596698250000003      6.8223928599999999      9.0254945899999992
   722   1      4.1256963100000004      7.1799618499999998      8.9488198600000004
   723   1      7.9627749000000003      6.9251660499999996      8.9768658899999991
   724   1      12.294242150000001              7.11902641              9.12882119
   725   1      15.862914030000001      7.1107769200000002      8.9865054600000001
   726   1      20.064989239999999              7.13023878      8.9947753200000005
   727   1      24.133190389999999      6.9721994399999998      9.1848322899999992
   728   1      28.461513960000001              6.99980797      9.0892576399999996
   729   1      2.2315783300000001             10.44002336              8.97101726
   730   1      6.0493654399999999      10.762876629999999      9.0532727099999999
   731   1      9.9501495599999998             10.46695109      8.9800061200000005
   732   1             14.17909916             10.49074856      9.0697679299999994
   733   1      18.202336070000001      10.545592989999999      8.8556006400000005
   734   1      22.268687530000001             10.55941655      9.0046249300000003
   735   1      26.439552330000001             10.61609574      8.9529851199999992
   736   1             30.38194184             10.75290843      8.9990504599999994
   737   1      32.553581860000001      14.088297130000001      8.9969379600000003
   738   1      4.0036436399999999             14.12112368      9.0963598099999992
   739   1      8.1472672900000003             14.01053402      8.9964055700000003
   740   1             12.09914665      14.023004999999999      8.9324004899999991
   741   1      16.162753980000002      13.839755869999999      8.8795437400000008
   742   1      20.244366070000002              13.9168184      8.9606016700000009
   743   1      24.237614579999999      13.940049670000001      9.0763223100000001
   744   1             28.50514385      14.205571259999999      9.1898143000000001
   745   1      2.0911189600000002      17.612464169999999      9.1315865800000005
   746   1              6.28904248      17.361748469999998      9.1192776200000001
   747   1             10.01768483             17.66166398      9.1546073999999997
   748   1             14.33048595      17.422477709999999              9.03875925
   749   1      18.159319679999999      17.614930650000002      8.9763496800000002
   750   1      22.210126070000001      17.555676689999999      9.0044819900000004
   751   1             26.29942286             17.36201333      9.0922466400000008
   752   1             30.46322821      17.564293540000001      8.9621695199999998
   753   1   -0.088202610000000001      20.853660040000001      9.0303358300000003
   754   1              4.22594884      20.981752660000001      9.0652714700000008
   755   1      7.9947794400000003      21.068162699999998      9.0755364499999995
   756   1             12.19773376      20.982770670000001      9.0276049500000006
   757   1             16.10421221      21.086321850000001      8.9062128200000004
   758   1      20.433209250000001      21.221303949999999      9.0482757700000001
   759   1             24.39089877      21.198665340000002      8.9330378699999997
   760   1             28.29972072      21.215101260000001      8.9671997399999999
   761   1      1.8704480800000001      24.480308170000001      9.0364075499999998
   762   1      6.0970595100000002      24.493596060000002      8.8983958800000007
   763   1      10.151047119999999             24.78520194      8.8519440700000001
   764   1      14.514970079999999      24.221499770000001      8.9095117599999991
   765   1      18.257801799999999             24.67630054      8.8245414600000007
   766   1             22.31271748      24.639429889999999      8.9287956699999995
   767   1      26.454038529999998      24.728776679999999      8.9217000500000001
   768   1      30.389291289999999      24.675289679999999      8.9676558899999996
   769   2      29.846139099999998             15.75499963               9.0584764
   770   2      30.690528579999999             14.25105902      9.2107672199999993
