N2-dn2-coord-10bar/700K/snapshots/frame-98681/run-000/../data.lammps (written by ASE) 

770 	 atoms 
2  atom types
0.0      32.470343392086264  xlo xhi
0.0      28.120142247150884  ylo yhi
0.0      31.213473999158239  zlo zhi


Atoms 

     1   1      2.0293964600000001      1.1716090800000001    0.023552650000000001
     2   1      6.0880008999999999              1.17168918              0.02556874
     3   1      10.146952280000001              1.17170328    0.025416459999999998
     4   1      14.205754900000001      1.1716496700000001              0.02501565
     5   1             18.26456816              1.17166478              0.02504435
     6   1             22.32338141      1.1716496700000001              0.02501565
     7   1      26.382184030000001              1.17170328    0.025416459999999998
     8   1      30.441135410000001              1.17168918              0.02556874
     9   1  9.1780000000000006e-05      4.6866847900000002    0.025581599999999999
    10   1      4.0587011400000002      4.6866847900000002    0.025581599999999999
    11   1      8.1174961000000003      4.6866290399999997    0.025584639999999999
    12   1             12.17638011      4.6866852999999997              0.02491202
    13   1             16.23517979      4.6866942700000003    0.025006210000000001
    14   1      20.293956519999998      4.6866942700000003    0.025006210000000001
    15   1      24.352756209999999      4.6866852999999997              0.02491202
    16   1      28.411640219999999      4.6866290399999997    0.025584639999999999
    17   1      2.0293964600000001      8.2016395800000002    0.026613040000000001
    18   1      6.0881071599999999      8.2016314300000008              0.02543782
    19   1             10.14701835               8.2017045    0.025156850000000001
    20   1      14.205766049999999      8.2017080900000003    0.024990459999999999
    21   1             18.26456816      8.2017077599999997    0.025091249999999999
    22   1      22.323370260000001      8.2017080900000003    0.024990459999999999
    23   1      26.382117969999999               8.2017045    0.025156850000000001
    24   1      30.441029149999999      8.2016314300000008              0.02543782
    25   1  9.2789999999999998e-05             11.71671873    0.025573410000000001
    26   1              4.05870014             11.71671873    0.025573410000000001
    27   1      8.1176017700000003             11.71668698              0.02497914
    28   1             12.17637068             11.71673069    0.025001590000000001
    29   1      16.235177310000001      11.716730249999999    0.025074039999999999
    30   1      20.293959009999998      11.716730249999999    0.025074039999999999
    31   1      24.352765640000001             11.71673069    0.025001590000000001
    32   1      28.411534549999999             11.71668698              0.02497914
    33   1      2.0293964600000001             15.23167155              0.02525285
    34   1      6.0881728300000004      15.231678799999999    0.025062859999999999
    35   1             10.14698486      15.231762639999999               0.0250786
    36   1             14.20578841             15.23176782    0.025201990000000001
    37   1             18.26456816              15.2317707    0.025149979999999999
    38   1      22.323347900000002             15.23176782    0.025201990000000001
    39   1      26.382151459999999      15.231762639999999               0.0250786
    40   1      30.440963480000001      15.231678799999999    0.025062859999999999
    41   1      32.470327990000001      18.746748629999999    0.024951939999999999
    42   1      4.0588083299999997      18.746748629999999    0.024951939999999999
    43   1      8.1175770200000006      18.746803499999999    0.025222040000000001
    44   1             12.17637459      18.746799750000001    0.025428470000000002
    45   1      16.235159400000001      18.746805200000001    0.025487360000000001
    46   1      20.293976919999999      18.746805200000001    0.025487360000000001
    47   1      24.352761730000001      18.746799750000001    0.025428470000000002
    48   1             28.41155929      18.746803499999999    0.025222040000000001
    49   1      2.0293964600000001      22.261939099999999    0.025844880000000001
    50   1      6.0881419299999999      22.261841799999999    0.025489439999999999
    51   1             10.14692954             22.26176895              0.02551757
    52   1             14.20573559      22.261804690000002    0.025639160000000001
    53   1             18.26456816             22.26178625    0.025640119999999999
    54   1      22.323400729999999      22.261804690000002    0.025639160000000001
    55   1      26.382206780000001             22.26176895              0.02551757
    56   1             30.44099439      22.261841799999999    0.025489439999999999
    57   1  5.6450000000000003e-05      25.776936450000001              0.02613327
    58   1      4.0587364700000004      25.776936450000001              0.02613327
    59   1      8.1175325399999991              25.7767713    0.024734180000000001
    60   1      12.176376469999999      25.776831090000002              0.02545323
    61   1      16.235145939999999      25.776775220000001    0.025273360000000002
    62   1             20.29399038      25.776775220000001    0.025273360000000002
    63   1      24.352759840000001      25.776831090000002              0.02545323
    64   1      28.411603769999999              25.7767713    0.024734180000000001
    65   1  0.00024266000000000001              2.34304215     0.80166565000000001
    66   1      4.0585502699999996              2.34304215     0.80166565000000001
    67   1      8.1157394600000003              2.34454954     0.80169402000000001
    68   1             12.17601256      2.3433829099999999     0.80116898000000003
    69   1      16.235258170000002      2.3433209100000001     0.80090046999999998
    70   1      20.293878150000001      2.3433209100000001     0.80090046999999998
    71   1      24.353123750000002      2.3433829099999999     0.80116898000000003
    72   1      28.413396859999999              2.34454954     0.80169402000000001
    73   1      2.0293964600000001      5.8582218700000004     0.80119762000000005
    74   1      6.0870566899999998      5.8583336700000004              0.80194851
    75   1             10.14649655              5.85853131     0.80121584000000001
    76   1             14.20597894      5.8582938599999999     0.80086840999999998
    77   1             18.26456816      5.8583798500000004               0.8010794
    78   1      22.323157380000001      5.8582938599999999     0.80086840999999998
    79   1             26.38263976              5.85853131     0.80121584000000001
    80   1      30.442079629999999      5.8583336700000004              0.80194851
    81   1  0.00019438999999999999      9.3717771800000005     0.80082061000000004
    82   1      4.0585985400000002      9.3717771800000005     0.80082061000000004
    83   1      8.1175070500000004      9.3725002699999997     0.80149060999999999
    84   1      12.176590020000001      9.3733583399999993     0.80088261999999999
    85   1             16.23512199      9.3733789200000004              0.80106506
    86   1             20.29401433      9.3733789200000004              0.80106506
    87   1      24.352546289999999      9.3733583399999993     0.80088261999999999
    88   1      28.411629269999999      9.3725002699999997     0.80149060999999999
    89   1      2.0293964600000001             12.88692854     0.80220621000000003
    90   1      6.0883212999999996             12.88743848     0.80138414999999996
    91   1      10.147128609999999             12.88859852     0.80085256000000005
    92   1             14.20571782      12.888558189999999     0.80113791000000001
    93   1             18.26456816      12.888409899999999     0.80109381000000002
    94   1      22.323418490000002      12.888558189999999     0.80113791000000001
    95   1             26.38200771             12.88859852     0.80085256000000005
    96   1      30.440815019999999             12.88743848     0.80138414999999996
    97   1              0.00012365      16.403222639999999     0.80145666999999998
    98   1      4.0586692700000002      16.403222639999999     0.80145666999999998
    99   1      8.1174337899999998      16.403825260000001     0.80097196999999998
   100   1              12.1761021             16.40390721     0.80133072000000005
   101   1             16.23503496      16.403861750000001     0.80140014999999998
   102   1      20.294101359999999      16.403861750000001     0.80140014999999998
   103   1      24.353034220000001             16.40390721     0.80133072000000005
   104   1      28.411702529999999      16.403825260000001     0.80097196999999998
   105   1      2.0293964600000001      19.919205120000001     0.80066369999999998
   106   1              6.08752564             19.91894023     0.80122479000000002
   107   1      10.146078839999999             19.91919038     0.80159137999999996
   108   1      14.204993419999999              19.9192584     0.80178742000000003
   109   1             18.26456816      19.919377350000001     0.80194975999999996
   110   1      22.324142899999998              19.9192584     0.80178742000000003
   111   1      26.383057470000001             19.91919038     0.80159137999999996
   112   1      30.441610669999999             19.91894023     0.80122479000000002
   113   1              0.00142012      23.434536609999999     0.80178442000000005
   114   1      4.0573728100000004      23.434536609999999     0.80178442000000005
   115   1      8.1165862000000004      23.433936769999999     0.80182306000000003
   116   1             12.17555218      23.433996919999998     0.80156656000000004
   117   1             16.23465491      23.434040110000002     0.80170828999999999
   118   1      20.294481409999999      23.434040110000002     0.80170828999999999
   119   1      24.353584130000002      23.433996919999998     0.80156656000000004
   120   1      28.412550110000002      23.433936769999999     0.80182306000000003
   121   1      2.0293964600000001      26.949875330000001              0.80297246
   122   1      6.0858208300000003      26.950066320000001              0.80215291
   123   1             10.14598146      26.949241430000001     0.80165810000000004
   124   1             14.20520604      26.948673230000001     0.80131923999999999
   125   1             18.26456816             26.94858318     0.80108193999999999
   126   1      22.323930279999999      26.948673230000001     0.80131923999999999
   127   1      26.383154860000001      26.949241430000001     0.80165810000000004
   128   1             30.44331549      26.950066320000001              0.80215291
   129   1      32.533801519999997      28.182474110000001      1.4317209099999999
   130   1      4.2131712099999996              0.14961152      1.3996135700000001
   131   1      8.1413361599999998      28.091116379999999              1.50199898
   132   1             12.22089368      28.201126680000002      1.3488508100000001
   133   1      16.463112299999999      28.148582619999999              1.22741652
   134   1      20.293400519999999    0.033282399999999997      1.3791317400000001
   135   1      24.320279119999999             -0.01783558      1.5069834200000001
   136   1             28.46081113             28.03744142      1.3571940899999999
   137   1              1.93964358      3.3390819299999999      1.4545299300000001
   138   1              6.10273603      3.6049528999999998              1.44237109
   139   1      10.206080180000001              3.65454459      1.5213935999999999
   140   1             14.23075577      3.5897042199999998              1.34378741
   141   1             18.24567411      3.3741285699999999              1.35492864
   142   1      22.191823840000001      3.4665488400000002               1.4582682
   143   1      26.333475119999999      3.4624958299999999              1.56946612
   144   1      30.265546310000001      3.5425464500000001              1.40541527
   145   1   -0.026692319999999999      6.9635276900000003      1.5717786499999999
   146   1      4.0976073299999998      7.1563798500000004              1.44559894
   147   1      8.1995795400000002      7.1491109899999996              1.53847003
   148   1             12.19077175      7.1407532099999997              1.70150281
   149   1      16.187323119999999      7.1001501200000003      1.5495412500000001
   150   1      20.200891590000001      6.8984669399999996      1.6341773799999999
   151   1      24.296443669999999      6.9844212600000004              1.23166844
   152   1      28.386706790000002      6.9904553399999996              1.55081235
   153   1      1.9472494199999999              10.3313694      1.4948879399999999
   154   1              6.09872177             10.58070399              1.49997337
   155   1             10.24899514             10.59573438      1.5984509499999999
   156   1             14.19280803      10.614659079999999      1.3681999499999999
   157   1      18.329250940000001             10.65258182      1.5400476299999999
   158   1      22.473195830000002      10.668607679999999              1.42023268
   159   1      26.381245679999999             10.68874718      1.3931157700000001
   160   1      30.514614460000001      10.589576660000001              1.57502367
   161   1              0.02908264             13.96011674              1.44124695
   162   1      4.0579868399999999             14.02598656              1.46667919
   163   1      8.0943278500000009             14.06817552      1.3191831599999999
   164   1              12.2293149             13.98548899      1.5375156699999999
   165   1      16.172718639999999      14.060648520000001      1.5974301200000001
   166   1             20.31694899             14.19313567      1.5598422700000001
   167   1      24.143580669999999             14.17200328      1.2742294599999999
   168   1      28.418454430000001      13.939151109999999              1.10599815
   169   1      1.8666037799999999              17.4303259      1.6233462400000001
   170   1      6.0322856700000003             17.67265201      1.3768097699999999
   171   1             10.15336797      17.654859850000001              1.28371627
   172   1             14.19845806      17.400989160000002      1.3843097499999999
   173   1             18.33307697      17.615641889999999               1.4608911
   174   1      22.148172219999999             17.52050972              1.25689432
   175   1      26.348893279999999      17.600135730000002      1.5802684199999999
   176   1             30.52293753      17.414725659999998      1.2154413500000001
   177   1      32.453891400000003      21.175121399999998      1.5455134100000001
   178   1      3.9362675999999999      21.128868659999998      1.5069034800000001
   179   1      8.1689297199999995             20.98097422              1.38903653
   180   1             12.17683454      21.110612880000001      1.4067328100000001
   181   1      16.183947799999999      21.154956689999999      1.3035715299999999
   182   1      20.204232959999999             21.21081079      1.7047764299999999
   183   1      24.258205230000002      21.017838260000001      1.2825262500000001
   184   1      28.455993029999998             21.06197105              1.58793981
   185   1      2.0240233299999999      24.535215350000001              1.35598032
   186   1      6.2145258500000002      24.693484430000002      1.4342570800000001
   187   1      10.023868800000001      24.743985339999998              1.54839734
   188   1      14.203968570000001      24.558022149999999              1.52403003
   189   1      18.212318700000001      24.717145179999999      1.5608149600000001
   190   1      22.305241550000002      24.638771439999999      1.7323945300000001
   191   1      26.390259230000002             24.60485868      1.4203768699999999
   192   1      30.445182670000001      24.690033719999999              1.39721988
   193   1      2.0231004000000001              1.15371275              2.53972642
   194   1      6.1352140300000002      1.3782175400000001                2.389691
   195   1      10.420644859999999              1.35416369      2.4240825500000001
   196   1             14.24413539      1.0898840700000001      2.3437920800000001
   197   1             18.25144332              1.10846424      2.3080562200000001
   198   1             22.35339244              1.27493071              2.52391626
   199   1      26.514627709999999      1.0598391700000001      2.3649574000000002
   200   1      30.373027839999999              1.28812368      2.4337383199999998
   201   1    0.038859119999999997      4.6156377199999996              2.48070002
   202   1              3.96531681      4.7228381099999996      2.4900023400000002
   203   1      8.0784048599999991      4.7692932099999998              2.31045503
   204   1             12.09105563      4.8970410600000003      2.4294576000000001
   205   1      16.189101919999999      4.6951339499999998              2.46026429
   206   1             20.45205296      4.6399675800000004      2.4577411499999999
   207   1      24.472012670000002      4.5890807300000001              2.44111178
   208   1      28.466886120000002      4.7002175099999999      2.6435605600000001
   209   1      2.0769112700000001      8.1573631899999999      2.5711900399999998
   210   1      6.1820532400000001      8.3899611899999993      2.4740230400000001
   211   1             10.12139953      8.2709564800000006      2.4005802200000002
   212   1             14.14309547      8.2365617100000001      2.4239225200000001
   213   1      18.190642910000001      8.1738219700000005      2.6105726100000002
   214   1      22.270306040000001              8.29894921      2.3251711199999998
   215   1      26.377878890000002      8.3010627400000008              2.38701747
   216   1      30.332143240000001      8.1132076000000009      2.3696439599999999
   217   1      32.620863079999999             11.62014952              2.43098752
   218   1      4.0127674200000003      11.610449900000001              2.41734106
   219   1      8.2356606299999999             11.80962669      2.3480970800000001
   220   1             12.16915345      11.640936480000001      2.7184623700000001
   221   1      16.082977960000001      11.549849679999999      2.4419771699999999
   222   1      20.267961119999999             11.76369953      2.5282532199999999
   223   1             24.32994862      11.898666759999999      2.4303087400000001
   224   1             28.46392925             11.75286994      2.5564476900000002
   225   1      1.9706558599999999             15.06431491      2.3092101899999999
   226   1      6.0020258100000001             15.25424422      2.5250310100000002
   227   1              10.3063027             15.34447999      2.3022926500000001
   228   1      14.090236190000001      15.157681180000001      2.4946891400000002
   229   1      18.244600869999999             15.19223955              2.42507516
   230   1      22.328359320000001             15.26006018      2.3825682399999999
   231   1      26.436801089999999      15.268227939999999      2.4672485100000001
   232   1             30.54535843      15.123351619999999      2.4066753200000002
   233   1      32.343536389999997      18.869807869999999      2.2972487400000001
   234   1      3.9958654600000001      18.761161680000001      2.3373091399999999
   235   1      8.0148100200000005      18.840987609999999      2.4304798700000001
   236   1             11.99159729      18.842216990000001      2.4368868799999999
   237   1      16.243427610000001      18.681629640000001      2.3743026999999999
   238   1      20.370257720000001      18.692893460000001      2.4458950700000002
   239   1      24.157050300000002      18.648031889999999      2.3751921999999999
   240   1      28.310122419999999      18.871712609999999              2.46697649
   241   1              1.96358933      22.170844779999999      2.3154827999999998
   242   1      6.1630089300000002      22.253375330000001      2.3761226500000001
   243   1             10.10665863      22.314563660000001      2.3461039800000001
   244   1             14.20797009      22.110675180000001               2.5256813
   245   1             18.00430587              22.3549449      2.5057120099999999
   246   1      22.215284239999999      22.067159329999999      2.5079296700000002
   247   1             26.22545745      22.201474109999999      2.2562863399999999
   248   1             30.38405762      22.256512109999999              2.53783162
   249   1             -0.05961164             25.87655737      2.3896947100000001
   250   1      3.8674912099999998      25.882996500000001      2.3256237899999999
   251   1      8.1329359599999993      25.784916379999999      2.6306858000000002
   252   1             12.16958425      25.726380330000001              2.35100058
   253   1              16.1743092      25.985267650000001              2.42312196
   254   1      20.430542549999998      25.863170239999999      2.4102221500000001
   255   1      24.452881659999999      25.964392069999999      2.3772936800000002
   256   1      28.293607000000002      25.746811149999999              2.38399033
   257   1             32.32468102      2.1546244200000002      3.1027227399999999
   258   1      3.9641423900000001      2.4873247200000002      3.3362910800000001
   259   1      8.1066754700000008      2.4980532700000002      3.1611063000000001
   260   1      12.244905579999999              2.45262366      3.3104208900000001
   261   1      16.232741010000002      2.3730701700000001      3.1788551900000002
   262   1      20.182927249999999              2.25506333      3.3621652800000001
   263   1             24.53912562              2.30201521      3.4333141600000001
   264   1             28.33248953      2.2463544600000001      3.1893121799999999
   265   1      2.1072626099999998      5.8515662500000003      3.4113895699999999
   266   1      6.1981664099999998      6.1049002799999998      3.3675735800000002
   267   1      10.011446469999999                5.977697      3.2917798700000001
   268   1             14.26655414      5.9003589300000003      3.3031466599999999
   269   1      18.403026560000001      5.8488881499999996      3.1547718499999999
   270   1             22.22725749      5.9049938500000003              3.19787102
   271   1             26.40025537      5.9765826200000003      3.2318561400000001
   272   1             30.53370468      5.7730537999999996              3.13956502
   273   1      32.469982420000001      9.4147749899999997      3.2234599199999998
   274   1      3.9328805999999998      9.3710650199999996      3.2724832899999998
   275   1      8.1203671199999992      9.4576642599999996      3.3287984499999999
   276   1      12.102623680000001      9.2608054600000003      3.4122579200000001
   277   1             16.14621022      9.2951441599999995      3.2226837700000002
   278   1      20.273643369999998      9.2778612599999999      3.2273664399999999
   279   1      24.363592570000002      9.4482689799999999              3.17422388
   280   1      28.309050689999999      9.4778626199999998      3.2741479899999999
   281   1      1.9983457600000001             13.07263127      3.1173941200000002
   282   1      6.0864374999999997             12.87135973      3.3194118499999998
   283   1             10.23949752              12.8074432      3.2896005700000002
   284   1      14.126906849999999             12.81536122      3.2714824500000002
   285   1      18.249030189999999             12.89276761      3.2507777999999998
   286   1      22.217488580000001      12.936084709999999      3.3461584499999999
   287   1             26.47063893               12.912632      3.3089817799999999
   288   1             30.51680322      12.729463730000001      3.2716556099999998
   289   1      32.423077759999998             16.47930861              3.33062653
   290   1      4.0497719300000004      16.420284479999999      3.2540651399999998
   291   1      8.1036677299999997      16.415193989999999      3.2075539200000001
   292   1      12.154976019999999      16.567701620000001      3.2979721799999999
   293   1      16.313137300000001      16.513364320000001      3.2491924499999998
   294   1      20.208847550000002      16.426147799999999      3.1242029499999999
   295   1      24.244356010000001      16.293754939999999      3.3445519899999998
   296   1      28.275033310000001      16.524535920000002              3.36554609
   297   1      2.0687025800000001      19.944230709999999              3.36798902
   298   1              5.93329795      19.995090919999999      3.3867048300000002
   299   1      10.168753880000001             20.14560174      3.1723859299999999
   300   1             14.32704637      19.806816139999999      3.2091322400000002
   301   1      18.330165610000002      19.747026340000001      3.4700620099999999
   302   1      22.279308650000001      19.715502699999998      3.3277983400000002
   303   1             26.35539537      19.994623069999999      3.1565121700000001
   304   1      30.437054610000001      19.786013690000001              3.47189982
   305   1      32.445857320000002      23.480183270000001      3.3775368800000001
   306   1      4.0933556299999996      23.546597680000001      3.2901912900000001
   307   1      8.0698177599999994             23.38444999      3.3733919399999999
   308   1             12.06648822      23.317029460000001                3.133921
   309   1             16.26800321              23.5842393      3.3919847600000002
   310   1      20.312609170000002             23.40864736      3.4792538300000002
   311   1      24.475598269999999      23.407478019999999      3.1585485000000002
   312   1      28.489984450000001      23.308147980000001      3.1668064500000002
   313   1      1.9450572500000001      27.007376499999999      3.1556988399999999
   314   1      6.2221280200000004      27.123804679999999      3.5809546000000001
   315   1      10.376520490000001             26.99204881              3.43784417
   316   1              14.1505755      26.900505079999999      3.3302375500000001
   317   1      18.298268660000002      26.981411739999999      3.3113193600000002
   318   1      22.385836319999999      27.092226490000002              3.38722287
   319   1             26.39957553      26.921284140000001      3.2598670200000002
   320   1      30.503225709999999      26.919586389999999      3.1199807499999999
   321   1               0.0113001      28.185783260000001      4.1282758399999997
   322   1      4.0603946100000003              0.21690634      3.9728115599999998
   323   1      8.1712477900000007     0.21395052000000001      4.1603710400000002
   324   1      12.146414010000001     0.14553949999999999      4.0981579000000004
   325   1      16.145907619999999             -0.06482222      3.9550904299999998
   326   1      20.355650130000001    0.037841029999999998      4.1145982999999999
   327   1             24.43741507      28.137637340000001      4.1864349499999998
   328   1      28.462685619999998             27.99065542              4.18984837
   329   1              1.92019173      3.5004806799999999              3.99387523
   330   1      6.1247415199999997      3.6773753899999999      4.2229834400000001
   331   1              10.1661482      3.6839059299999999      3.9309550099999999
   332   1      14.122544359999999               3.3885676      4.0347303300000004
   333   1      18.155302450000001      3.4337435300000001      4.1854726800000002
   334   1      22.460002230000001              3.37003772      4.0481521000000003
   335   1      26.492822199999999      3.4811043800000001      4.1591945099999998
   336   1      30.438896969999998      3.4363099899999998                3.996785
   337   1      32.403577480000003      7.0493972999999999      4.0075784099999998
   338   1              3.99809481      7.2567879499999997      4.1659183200000003
   339   1      8.1305153800000003      7.0794516400000003      4.1924881100000002
   340   1             12.02342178              7.13317917      4.1889780999999999
   341   1             16.24630329      7.0646140300000004      4.0134104900000001
   342   1      20.191292700000002      6.9868794899999997      4.1193755300000001
   343   1      24.359308370000001      6.9994734899999997      3.8459903299999998
   344   1             28.45565066      6.9378981199999998      4.1032291699999996
   345   1              2.07655016      10.714527990000001      4.0550276800000002
   346   1      6.0629736300000001      10.618722050000001      4.1445531100000004
   347   1             10.20247412             10.56084697              4.30866814
   348   1              14.1407934             10.62033463              4.24282702
   349   1             18.18322732      10.481161309999999              4.24109128
   350   1             22.08737738             10.49134901      3.9433105099999999
   351   1             26.30441948             10.53533393      3.9612753299999999
   352   1      30.480655850000002              10.4693843      4.1666696999999999
   353   1    0.031774049999999998      13.937774559999999      4.0174008700000003
   354   1      4.1560109799999996             14.03261884      4.0557934600000003
   355   1      8.3235995200000001      14.040720049999999      3.9714765600000002
   356   1      12.265880559999999      14.073183520000001      4.2643104300000001
   357   1      16.058348039999998             14.08523295      4.0606666200000001
   358   1      20.262125080000001             14.11675739      4.2264506600000002
   359   1             24.27430142             13.81669469      4.0645741900000001
   360   1      28.674800609999998              14.0882884              3.96588371
   361   1      2.0174158700000002             17.57456457      3.9615769200000002
   362   1      6.1022667500000001             17.54940216      3.9657558599999998
   363   1      10.050212419999999             17.62689469      4.1295818899999999
   364   1             14.40535558      17.548411460000001      4.0815067000000003
   365   1      18.366403389999999      17.529023720000001              4.22366785
   366   1      22.453370870000001             17.57719591      4.1723579099999997
   367   1      26.278431869999999             17.63862314      4.0318176399999999
   368   1      30.320577660000001      17.494000580000002      4.0870484600000001
   369   1      32.485275569999999      21.191119780000001              4.15962224
   370   1      3.9692061199999999             21.20960204      3.9212958699999998
   371   1      8.0961043400000001      20.996147499999999      4.0253309399999999
   372   1      12.345499179999999      21.089371830000001      4.0108199899999999
   373   1      16.150478970000002             21.25314796      4.1926632000000001
   374   1      20.198172320000001             21.03765675      4.3753217299999996
   375   1      24.334332010000001      21.140076560000001      3.9354658699999998
   376   1      28.445217589999999      21.245736350000001      4.1956237099999996
   377   1              2.03351858             24.73350602      4.0967714500000003
   378   1              6.03648922      24.720157530000002      4.1115170799999996
   379   1      10.129879900000001      24.725228560000001      4.1070650899999999
   380   1             14.03315141             24.55479923      4.2458646699999996
   381   1      18.422620819999999               24.747892      4.1291120599999998
   382   1             22.40441294      24.486857090000001      4.2108904599999999
   383   1             26.31675392             24.47338061      3.9968433000000001
   384   1      30.512251379999999      24.547168240000001      3.9881473299999999
   385   1      1.8675438900000001              1.15628139              5.06907263
   386   1      5.9369473099999999      1.4039976700000001      5.0299214499999998
   387   1             10.08549054              1.39214517      4.6790592000000002
   388   1             14.30791024      1.1457601500000001      4.9291729799999997
   389   1      18.174812419999999              1.18505079      4.8731821100000001
   390   1             22.34012954              1.18926975      4.9688377199999998
   391   1      26.285327179999999              1.01826957      4.9959770900000002
   392   1      30.411493719999999      1.0922969600000001      4.9965374200000001
   393   1      32.471374900000001      4.5420608099999997      5.0710566799999999
   394   1      4.1355232099999997      4.9089268700000002      5.0728335600000003
   395   1      8.2606924700000004      4.7570176899999996      4.8306533500000004
   396   1             12.17885122      4.7716122800000003      4.8446942799999997
   397   1      16.109601810000001      4.7198182199999996      4.8389542700000003
   398   1             20.33756468      4.5416507800000003      5.0177961399999997
   399   1      24.472406150000001      4.5917660500000004      4.9780335600000001
   400   1      28.555356060000001      4.6354195599999999      5.1287675899999998
   401   1      1.8900628100000001      8.1786400399999994      4.9292950900000001
   402   1      6.1231165900000004      8.3950352800000001      4.9323125000000001
   403   1             10.22846099      8.3297989900000005      4.9868303599999999
   404   1             14.10019597      8.2169797800000008      4.9734670000000003
   405   1      18.194721879999999      8.1409819799999994      4.9754779100000004
   406   1      22.361290629999999      8.1438867800000008      4.8312389600000003
   407   1             26.26696797      8.2466409499999997      4.8498754100000001
   408   1      30.225123310000001      8.2340336199999999      4.9717460899999999
   409   1             32.58951871      11.542652110000001      4.9149580300000002
   410   1      4.0800994199999998             11.70122843      5.0499948899999998
   411   1      8.0000950100000008      11.724613700000001      4.9408937999999996
   412   1              12.1840355             11.68981786      5.2222284500000002
   413   1      16.062049600000002      11.850120629999999      5.0806065599999997
   414   1      20.238730220000001             11.77471261      4.9860213800000004
   415   1      24.291774480000001      11.836864179999999      4.9603811599999998
   416   1      28.394108490000001             11.63285701      4.9588599000000002
   417   1      2.1138713600000001             15.14303651      4.8537068699999999
   418   1              6.20678354      15.216371880000001      4.7539729099999999
   419   1             10.16817788      15.212427330000001      5.0060524300000004
   420   1             14.06864672             15.22911865      5.1615650500000001
   421   1      18.183846710000001      15.227782789999999               5.0561517
   422   1      22.322079370000001      15.396436619999999      4.8615679800000002
   423   1             26.46663221             15.13911734      5.0317041700000003
   424   1      30.571499119999999      15.219613880000001      4.9381944899999999
   425   1      32.575773949999999      18.770209990000001      4.9372478500000003
   426   1      4.0685923099999997      18.600786639999999      4.8980786299999997
   427   1              8.13720584      18.762358500000001      4.8981043399999997
   428   1             12.17190343      18.618769520000001              4.78635067
   429   1      16.204938179999999             18.72057843      5.0721355499999996
   430   1      20.409167230000001      18.610843119999998      4.9883191399999998
   431   1             24.29150181             18.89420003      4.8704745699999998
   432   1              28.4159328      18.679773109999999      4.9627065699999999
   433   1      2.0618959700000001             22.29313106      4.8661199899999996
   434   1      6.1084051800000001      22.290377589999999      4.8754822999999998
   435   1      9.9920804800000003      22.233613600000002      4.8638049499999996
   436   1      14.233280600000001      22.324292570000001              5.01936889
   437   1             18.18272168             22.24049608      5.0097657599999996
   438   1      22.310640329999998      22.228102239999998      5.1658734900000001
   439   1      26.383359810000002      22.186621970000001      5.0259782700000004
   440   1      30.459022390000001      22.242508359999999      4.9632762799999997
   441   1             32.56459564      25.786666539999999      4.8482690699999997
   442   1      4.1759560699999998             25.96884691      4.8877372000000001
   443   1      8.1492861699999999      25.884940239999999              4.97112731
   444   1      12.084176619999999      26.010835910000001      5.0280154699999997
   445   1      16.324666260000001              25.7499982              4.83214846
   446   1             20.25008978              25.7576079      5.0493991400000002
   447   1      24.299808599999999      25.657341859999999      4.9974490600000001
   448   1      28.436734659999999      25.613991510000002      4.8719790500000002
   449   1      32.397321300000002              2.30888844      5.7669918100000004
   450   1      4.0105014499999996      2.3899748299999999      5.8026770299999999
   451   1      8.1347676199999999      2.5385666100000002      5.6938274699999996
   452   1      12.404309680000001      2.3040563500000002      5.8227542000000003
   453   1      16.212664910000001      2.3142096300000001      5.6902750299999996
   454   1      20.278594389999999      2.1533948000000001      5.8048665799999997
   455   1             24.18375902              2.23387811              5.90333621
   456   1      28.267889109999999              2.30716732      5.7823234799999996
   457   1              1.94382692              5.82106894      5.8330024700000003
   458   1      6.1897190899999996      6.0039510600000003      5.6859367900000004
   459   1             10.18425238      5.9163929399999997      5.8518827900000003
   460   1              14.1426371      5.8699030900000002      5.9644553900000004
   461   1             18.33541756      5.6637321399999996              5.78051783
   462   1      22.163784010000001      5.7751887100000001      5.6087610100000003
   463   1      26.627247300000001      5.7496755100000003      5.7480786500000001
   464   1      30.415018709999998      5.8058776200000004      5.4875825899999997
   465   1      32.576863340000003      9.1731637799999994      5.7564748200000002
   466   1      4.0788957000000003              9.39107542      5.5563780999999999
   467   1      8.1079879399999992      9.3731803199999995      5.9668400999999998
   468   1      12.156152560000001      9.3992685599999994      5.9407606700000004
   469   1      16.175029630000001      9.5265503099999993      5.8282518000000003
   470   1      20.250361550000001      9.2291089900000003      5.9180634200000002
   471   1             24.32204003      9.3586936099999996      5.6539217400000004
   472   1             28.31123637      9.3884785900000001      5.7251521500000004
   473   1      2.0619956799999999             13.06457576      5.8135730800000003
   474   1              6.02826985             12.74525006              5.70761991
   475   1      10.008501499999999             12.92245939      5.8137544700000001
   476   1      14.091828599999999             13.07499569      5.9497036300000001
   477   1             18.25559758             13.06960922      5.5849739600000001
   478   1             22.19787981      12.973356409999999      6.0119075200000003
   479   1      26.553258370000002      12.690525490000001      5.8557794000000003
   480   1      30.537874540000001      12.816667130000001      5.7144327099999996
   481   1      32.650345369999997             16.32079637               5.7856964
   482   1      4.1858820000000003      16.356406490000001      5.6033617299999996
   483   1      8.1237714600000004              16.2946627      5.6829604900000001
   484   1             12.03434103      16.521167590000001      5.8003790500000001
   485   1              16.0351617             16.44483211      5.6055441899999998
   486   1             20.32520096      16.493370639999998      5.9521206900000001
   487   1             24.53410555             16.27637786      5.9082481800000002
   488   1      28.544690540000001      16.481913559999999      5.9238582900000001
   489   1              1.98429688             20.05930828      5.8285174900000003
   490   1              5.99819966             19.73615835      5.6457086500000004
   491   1      10.155794009999999      19.754572880000001      5.7187115999999998
   492   1             14.19526351             20.04489491      5.8083862699999997
   493   1      18.414307539999999      19.897444700000001      6.0174125800000002
   494   1      22.284297779999999              19.8360691      5.8841377699999997
   495   1      26.354247730000001      19.949107160000001      5.7640448900000001
   496   1      30.288665210000001             19.89558237      5.7768849199999996
   497   1     0.10533053000000001             23.54769065              5.83611565
   498   1      4.0980436899999999      23.470960900000001      5.6529347699999999
   499   1      8.2590467800000003             23.47481222      5.6534009200000002
   500   1             12.08352584      23.670775689999999      5.6546816199999999
   501   1      16.198844959999999             23.40306811      5.8247521100000004
   502   1             20.35994831      23.453053860000001      5.9006454899999996
   503   1      24.537713579999998      23.361109819999999      5.8665308100000004
   504   1      28.408849880000002      23.401592879999999      5.6804648200000001
   505   1      2.0292166599999999      26.730697299999999      5.5983864099999998
   506   1      6.0375605400000003      27.043545349999999      5.9296205100000003
   507   1      10.016613830000001      27.252719280000001      5.7529039300000004
   508   1             14.37277654             26.91605182      5.8656967399999997
   509   1      18.281134869999999      26.941756399999999              5.81594882
   510   1      22.427417909999999      26.955462109999999      5.8842565899999997
   511   1      26.404958799999999      26.871386470000001               5.5277512
   512   1      30.492077999999999      26.770805459999998      5.6571618099999998
   513   1    -0.12241552999999999  -0.0099931399999999993      6.5770426100000003
   514   1      3.9140425799999998    0.050308859999999997      6.4749681399999997
   515   1      8.0667891899999997     0.22740352999999999      6.6499858500000002
   516   1      12.253301929999999             -0.13246147      6.4645978099999999
   517   1      16.309286549999999    0.069566009999999998      6.5160366400000003
   518   1      20.165603780000001      28.142344059999999      6.7436480400000001
   519   1      24.302591660000001      28.022769199999999      6.8295622900000001
   520   1             28.48029841             28.20335901      6.5681093600000002
   521   1              2.16072123              3.57065915      6.5562639799999998
   522   1              6.12655247      3.6175706500000002      6.6602614100000004
   523   1             10.16764532      3.5084943499999999      6.3226693799999998
   524   1             14.57677638      3.6423845099999999              6.71000218
   525   1      18.335580480000001              3.45914265      6.7021548500000003
   526   1      22.366629069999998      3.4480351699999998      6.5930331999999998
   527   1      26.222775469999998      3.4304578100000001      6.7529139999999996
   528   1      30.275019790000002              3.52946275              6.50857435
   529   1  -0.0016010099999999999      6.9160200999999999      6.7104609999999996
   530   1      4.2712623499999998              7.02574817      6.7129822399999997
   531   1      8.2683058700000007      7.0763463099999999              6.80188887
   532   1              12.3263693      7.0779805299999996              6.81261341
   533   1      16.410291040000001      6.9238417700000001      6.4406383199999997
   534   1      20.309953579999998      6.9351336100000003      6.7574242399999997
   535   1      24.328122230000002      7.0799112600000003      6.2363275199999997
   536   1      28.451879229999999              6.96140618      6.5840893300000003
   537   1              2.13570934             10.40160234      6.6310861699999997
   538   1      5.9843060000000001              10.5291587      6.8623321600000002
   539   1             10.18289779              10.6220246      6.8029812500000002
   540   1      14.190319730000001             10.52701092               6.7242251
   541   1      18.149214149999999             10.84653874      6.5602979899999996
   542   1      22.184600270000001             10.44443294      6.4586909400000003
   543   1      26.257458249999999             10.39578433      6.4985431199999999
   544   1             30.40367243                 10.6364      6.6568716300000004
   545   1              0.23814119             13.90858193      6.6909467200000003
   546   1      4.2487644099999997             14.21995877      6.6708751800000003
   547   1      8.0913336699999991      13.928567660000001      6.6149492299999997
   548   1             12.06306897      14.156632500000001      6.8007981099999997
   549   1      16.090595780000001             14.07888303      6.6488385000000001
   550   1      20.129204439999999             13.94459122              6.71673162
   551   1             24.47483334             13.90980354      6.5641868800000003
   552   1             28.54151843             14.03366568      6.6220296400000001
   553   1              2.34266504      17.636987909999998      6.5201957799999999
   554   1      6.1505951100000003      17.577213960000002      6.6284106200000004
   555   1             10.16717132      17.623996630000001      6.6973777999999999
   556   1              13.9489111      17.689770939999999      6.5244650100000001
   557   1      18.131632369999998             17.57127551      6.9175810599999998
   558   1      22.397038810000002      17.556418520000001      6.7216407299999998
   559   1      26.455862419999999      17.592607569999998      6.5063950799999999
   560   1      30.644863780000001      17.587216420000001      6.7119910899999997
   561   1      32.448745860000002             21.08449688      6.5957009500000003
   562   1      4.1303025599999996      21.187781210000001      6.3868771100000004
   563   1      8.1817001699999992             21.01700069      6.3930316300000003
   564   1             12.04484504      21.336452999999999      6.3977097900000004
   565   1      16.118300359999999      21.073547430000001      6.5603553100000003
   566   1             20.52853022      21.105708329999999      6.6742024400000002
   567   1             24.30281334      20.941813140000001      6.5570112600000003
   568   1      28.465386540000001      20.946126769999999      6.6766634399999996
   569   1      2.0652683000000001      24.568301309999999      6.5348516400000003
   570   1      6.1880690200000004      24.626788350000002      6.6577909100000001
   571   1      10.191703779999999      24.597111779999999      6.6832540399999996
   572   1             14.34404052      24.696994759999999      6.7415775299999998
   573   1      18.342926340000002      24.489291619999999      6.4901843799999996
   574   1      22.430537900000001      24.708027699999999      6.8048564999999996
   575   1             26.39205742      24.798257580000001      6.5872666200000003
   576   1             30.25643805      24.511150879999999      6.6923010200000004
   577   1      1.9811696400000001              1.17803338      7.6717536700000002
   578   1      6.0818925300000002      1.1860936099999999      7.3623641500000003
   579   1      10.303869629999999               1.2716349      7.3121993300000003
   580   1      14.271135320000001      1.2445257000000001      7.6001236199999997
   581   1      18.207074680000002      1.2533962999999999      7.6751762799999996
   582   1      22.481260509999998      1.0013573499999999      7.7734136999999999
   583   1      26.218451170000002              1.10058308      7.4125027599999997
   584   1      30.634066140000002      1.1619884199999999      7.3737561700000001
   585   1             32.48854455      4.6502037899999999      7.3434348800000002
   586   1      3.9892008200000002      4.7934490800000003      7.5624936099999998
   587   1      8.2653890299999997      4.8117680299999996      7.6080572899999996
   588   1      12.265624069999999      4.6489393899999998      7.3964855199999997
   589   1             16.44749474      4.7780134700000003      7.5358475499999997
   590   1      20.486851720000001      4.4489498699999999      7.6992409200000003
   591   1             24.31635335      4.6209748599999996      7.6369053500000001
   592   1      28.524194430000001      4.6553810100000002      7.5557280100000002
   593   1      2.1508331100000002      8.0849437099999992      7.4010032499999996
   594   1      6.0663853899999998      8.2471057000000005      7.5278389399999996
   595   1      10.297739480000001      8.3680666899999991      7.5249146800000002
   596   1      14.504734279999999      7.9654176999999997      7.5057103700000001
   597   1      18.164379090000001      8.3150161499999999      7.2077052799999999
   598   1             22.34727719      8.1480666100000008      7.1187511700000004
   599   1      26.481045609999999      8.0609663299999994      7.3257306499999997
   600   1      30.604783210000001      8.3810038000000002              7.27116951
   601   1              0.17291207             11.79751982      7.4849057400000003
   602   1      4.2342666299999996             11.77834934      7.7978628299999997
   603   1              8.07431403      11.607190709999999      7.6261251400000001
   604   1             12.25969549      11.880003739999999      7.6785683599999999
   605   1      22.410811689999999      11.612826419999999      8.9588909999999995
   606   1      20.290720310000001      11.674769899999999      7.7096798800000004
   607   1      24.382232850000001             11.76934668      7.3071108899999997
   608   1             28.33065204      9.2940170999999996              8.28483868
   609   1      2.2365201400000001      15.325918039999999              7.41994709
   610   1              6.14095674               15.198689      7.4360235000000001
   611   1      10.003108020000001             15.27734873      7.4510328699999997
   612   1             13.90849373      15.469158370000001      7.4086373800000001
   613   1      18.141587940000001             15.36316908      7.7863364199999996
   614   1      22.196196709999999             15.24416795      7.2337850799999996
   615   1             26.62211065      15.302392859999999      7.3515300000000003
   616   1              30.6471698      15.133987429999999      7.4336201099999997
   617   1              0.16714856      18.730002410000001      7.6511772999999996
   618   1      4.1939997900000003      18.691549370000001      7.4606802999999999
   619   1      8.0829941699999992      18.705964359999999      7.1932233600000002
   620   1             12.22086522      19.064074340000001      7.3806428899999998
   621   1      16.176639420000001      18.301408819999999      8.0328764100000001
   622   1              20.2331298      18.576980500000001      7.5249945399999998
   623   1      24.395307819999999              18.6480529      7.4456129400000002
   624   1             28.76725819             18.60701615      7.5019817700000004
   625   1      2.1352136499999999      22.309563220000001      7.3797613100000001
   626   1      6.1959051699999996             22.11329787      7.4296848300000002
   627   1             12.22765435             21.29424642               8.7886682
   628   1      14.192224899999999              22.4155555      7.4140970800000003
   629   1             18.36881129      22.050328279999999      7.6395689100000004
   630   1      22.482958020000002             22.13060398      7.7696592000000004
   631   1      26.462028549999999      22.246461029999999      7.5065560400000004
   632   1             30.52001315              22.3255531              7.48998265
   633   1      32.580500540000003      25.866785539999999      7.3182234099999999
   634   1      4.1146397500000003      25.890297159999999      7.3494689700000002
   635   1      8.0868792299999992      26.091461450000001      7.5574097499999997
   636   1      12.132242460000001      25.904093150000001      7.3789710199999998
   637   1             16.48898676      25.906145080000002      7.4586861400000002
   638   1      20.318444119999999      25.752028469999999              7.53311537
   639   1      24.464547679999999      25.791790079999998      7.6875121100000001
   640   1             28.40297979      25.856292069999999      7.3185189199999998
   641   1      4.3924492700000002      6.9806260800000004      9.1599792799999999
   642   1      2.3724782599999998      8.1315841899999999      9.6465395199999993
   643   1             12.49541193      2.3978593300000002      8.3503604500000002
   644   1              16.1876663     0.19599361000000001      8.8768484099999991
   645   1              10.0793006      22.220017049999999      7.4759559900000001
   646   1      26.288638639999999      24.709116989999998      9.1665183999999993
   647   1      22.277132770000001      3.5973447699999999      9.1289596500000005
   648   1              32.4392511              2.34770338      8.3006466799999998
   649   1      30.667936220000001      12.793139679999999      8.0841995099999995
   650   1      2.2583347100000002      24.521814979999998      8.8717860900000005
   651   1             16.39518678      23.305288539999999      8.2882837299999998
   652   1      10.402993909999999      5.8426058300000001      8.4228855800000009
   653   1             21.04877827      13.922099469999999      9.1310716599999999
   654   1      3.9814446100000001              0.16487747      9.0105008400000006
   655   1      22.235173100000001             26.75912254      8.5072789100000001
   656   1      4.2567931699999999              4.70259772      9.9396114600000001
   657   1      8.1078273599999999      9.3562607900000003      8.5544946599999996
   658   1             15.89982432             15.59181727      8.7288720800000004
   659   1      6.1596387899999998             10.75489015      9.3379992900000008
   660   1             10.58705967              3.62614277      8.8955166499999994
   661   1             26.43322461             26.89222461      8.3951482599999991
   662   1              24.4143309      7.4006545800000003      8.7586486800000003
   663   1      18.665713270000001      3.9818365099999999      9.1463470699999991
   664   1      4.3843524399999998      14.142092119999999      9.1836514499999993
   665   1             10.57079882             10.62211636      9.1903975300000003
   666   1      14.209634149999999      20.000419529999999              7.97214606
   667   1             11.88712473      16.433204029999999      8.2660830799999996
   668   1      16.117373010000001             11.54831441      7.8355479099999998
   669   1             30.44475422             10.46958265      9.0273396800000008
   670   1      26.522563630000001      5.9881113299999997      8.1903669600000004
   671   1      2.0612770600000001      17.528789209999999      8.8592895899999995
   672   1               2.2722175              13.1015298      8.3012991500000002
   673   1              2.02642641      3.2417495600000001      9.2287766199999997
   674   1    0.053627019999999997      16.468970479999999      8.2366642599999995
   675   1      24.450193550000002      16.006586989999999      8.2189315500000006
   676   1      12.193192359999999      23.486565729999999              8.27417348
   677   1             22.24894755      6.1186236799999998              8.32966199
   678   1             24.32200353      18.526242499999999      9.7435781899999991
   679   1      24.182896280000001      9.7460793399999996      8.0971500899999995
   680   1      28.362596979999999      11.727816860000001      7.4218688100000003
   681   1    -0.10717471000000001      4.5495419400000001      9.8422556700000001
   682   1      7.9067360200000003              16.4656278      8.3122682399999999
   683   1      8.0003044600000006      23.499209619999998              8.09322798
   684   1             10.14184259      12.916297200000001      8.3850832900000007
   685   1      22.383866080000001      19.504338539999999      8.3639120600000005
   686   1             22.47842485             17.19023425      9.0903397500000001
   687   1      26.383629819999999      10.751380960000001      9.0070756200000002
   688   1      28.785647010000002      14.068466770000001      9.0987970100000002
   689   1      20.419880160000002      21.055837579999999      9.1206173600000007
   690   1               4.1388327      21.299872010000001      8.6105033500000001
   691   1      32.416535000000003      6.8622256000000004              8.97534089
   692   1      22.759021560000001      24.441745940000001      9.1112744499999998
   693   1      18.113074900000001             10.71405345      8.9128893500000004
   694   1      20.221607219999999      16.140699470000001      8.4960343799999993
   695   1      24.542040740000001      23.311278349999998      8.2609445200000007
   696   1      28.505450639999999             20.98303396      9.1351140399999995
   697   1              4.10505575      2.4543832800000001      8.1873688500000004
   698   1      16.249256030000002      21.009394759999999      8.9049312500000006
   699   1      18.144132590000002      24.865112969999998      8.9309581300000005
   700   1      18.256692359999999      27.221835819999999      8.3470572199999999
   701   1             14.05364642      27.091522000000001      8.2930964700000001
   702   1      28.468375170000002      23.347258629999999      8.2352653100000008
   703   1              20.3063672      2.0610597899999998      8.6089649000000001
   704   1      30.972244669999998              24.7165572      8.9890827000000009
   705   1      1.9410229999999999      5.8451075699999997      8.6757359199999993
   706   1      8.3249461999999994    -0.12309821999999999      9.0171851800000002
   707   1      14.195226419999999               5.6620998      8.4186030699999996
   708   1      20.455402500000002      18.415305100000001      9.7930703500000007
   709   1             24.41585401              0.04971805      9.2827216299999993
   710   1      18.278658109999999              19.7742039      8.5104670799999997
   711   1      30.287984689999998              3.37885993      9.0841898699999994
   712   1    0.069714570000000003      23.309001940000002      8.0998588999999992
   713   1     0.36495460000000002   -0.055854540000000001      9.1082179799999992
   714   1      30.495285249999998      22.581588929999999              9.84561639
   715   1      30.505075569999999      27.141681800000001      8.3129816200000004
   716   1      14.332224269999999      24.602152100000001      9.0831118699999998
   717   1      26.506177279999999      22.231075279999999      9.8231250400000008
   718   1      26.075384440000001      3.6092072700000002      9.2043118499999999
   719   1              1.99826448              10.8020645      9.4381880099999993
   720   1      30.452688129999999      5.8435395999999997      8.2409598800000001
   721   1      4.2190514500000003      9.1669747200000007                8.418939
   722   1             10.13645193             19.88088621      8.3570346499999992
   723   1      6.2144556599999996      5.7614469899999996      8.3300958400000003
   724   1      6.1599907099999998      8.3263889199999994      9.9062516899999995
   725   1             16.31066328      6.6528956199999998      8.9814802599999997
   726   1      16.160958470000001      9.2517643599999992              8.45120161
   727   1      18.243123440000002      17.060970090000001      9.3201617799999994
   728   1   -0.038899820000000002              14.1160204      8.8296643899999996
   729   1      8.0046023900000005             14.34839142      9.1911852599999992
   730   1      8.3460528800000002      2.3529578899999999              7.92998958
   731   1      12.305897290000001      9.1726878700000007      8.4588321299999993
   732   1      14.115771580000001               10.787295      9.1832545400000001
   733   1             18.12246249             13.06687082      8.2540601200000001
   734   1      2.1550060000000002      26.915060109999999      8.2602932599999992
   735   1      24.274114919999999              2.26120528      8.4648107400000008
   736   1      8.2586809500000005             11.95178619      9.9170312200000001
   737   1      30.546120680000001      19.917104590000001      8.3215299500000004
   738   1    0.052788590000000003      9.3134138100000001      8.2318016299999996
   739   1      14.401594429999999      13.245319650000001      8.2536133899999999
   740   1      20.409052840000001      9.2505418099999996      8.3821638000000007
   741   1      23.489586679999999             13.53943162      8.7517356399999997
   742   1             28.11764646      2.3123805200000001      8.1228162800000003
   743   1      18.671935130000001      6.1715638899999998      8.2198597200000005
   744   1      30.413769259999999      17.734532919999999      9.0247700099999992
   745   1      1.9528529699999999      20.029748479999999      8.2798057099999998
   746   1      6.1658483400000001      12.865362810000001      8.4840612400000008
   747   1      12.250937260000001      13.883013780000001      9.0664222500000005
   748   1      8.0965982200000006      21.347794789999998      8.8902413100000004
   749   1      26.586304439999999      17.440706550000002      9.0235565399999995
   750   1             28.71381487      16.349057129999998      8.2793161400000006
   751   1             24.31478027      20.876294170000001      9.2150668099999997
   752   1      4.3120934499999999      16.537634520000001      8.3085037199999991
   753   1      6.1746487200000004             19.82794814      8.2027050900000003
   754   1      10.311556400000001             27.10429267      8.1327722799999993
   755   1      6.4721512900000002      3.5766871199999999      8.9430976199999996
   756   1      10.006699100000001             24.87170755      9.0247203900000006
   757   1      4.2967308199999996      23.614822910000001      8.0928088700000007
   758   1      26.442006930000002      1.2769514500000001              9.75993332
   759   1      26.365092600000001      19.890018520000002      8.2509344900000006
   760   1      28.660043290000001      25.639491320000001      9.6033736899999997
   761   1      14.165544990000001      17.415034210000002      9.1054419400000004
   762   1      26.374277469999999             13.00760406      8.2006794999999997
   763   1      8.3000791500000002      7.1057700300000004      9.2558380299999996
   764   1      6.1808264299999998      27.073695470000001      8.2539812300000008
   765   1      16.211966530000002      2.6533695499999999      8.4782782300000008
   766   1             20.33981795      23.428971010000001      8.3686714200000001
   767   1      28.726667389999999              0.21955938      9.3660806399999998
   768   1    -0.15501045999999999             21.22474923      9.3120180399999999
   769   2             28.47054249      22.634522069999999             10.16119119
   770   2             27.69187101             24.16378388              10.2853192
