N2-dn2-coord-10bar/300K/snapshots/frame-70024/run-000/../data.lammps (written by ASE) 

770 	 atoms 
2  atom types
0.0      32.470343392086264  xlo xhi
0.0      28.120142247150884  ylo yhi
0.0      31.213473999158239  zlo zhi


Atoms 

     1   1      2.0293964600000001      1.1716090800000001    0.023552650000000001
     2   1      6.0880008999999999              1.17168918              0.02556874
     3   1      10.146952280000001              1.17170328    0.025416459999999998
     4   1      14.205754900000001      1.1716496700000001              0.02501565
     5   1             18.26456816              1.17166478              0.02504435
     6   1             22.32338141      1.1716496700000001              0.02501565
     7   1      26.382184030000001              1.17170328    0.025416459999999998
     8   1      30.441135410000001              1.17168918              0.02556874
     9   1  9.1780000000000006e-05      4.6866847900000002    0.025581599999999999
    10   1      4.0587011400000002      4.6866847900000002    0.025581599999999999
    11   1      8.1174961000000003      4.6866290399999997    0.025584639999999999
    12   1             12.17638011      4.6866852999999997              0.02491202
    13   1             16.23517979      4.6866942700000003    0.025006210000000001
    14   1      20.293956519999998      4.6866942700000003    0.025006210000000001
    15   1      24.352756209999999      4.6866852999999997              0.02491202
    16   1      28.411640219999999      4.6866290399999997    0.025584639999999999
    17   1      2.0293964600000001      8.2016395800000002    0.026613040000000001
    18   1      6.0881071599999999      8.2016314300000008              0.02543782
    19   1             10.14701835               8.2017045    0.025156850000000001
    20   1      14.205766049999999      8.2017080900000003    0.024990459999999999
    21   1             18.26456816      8.2017077599999997    0.025091249999999999
    22   1      22.323370260000001      8.2017080900000003    0.024990459999999999
    23   1      26.382117969999999               8.2017045    0.025156850000000001
    24   1      30.441029149999999      8.2016314300000008              0.02543782
    25   1  9.2789999999999998e-05             11.71671873    0.025573410000000001
    26   1              4.05870014             11.71671873    0.025573410000000001
    27   1      8.1176017700000003             11.71668698              0.02497914
    28   1             12.17637068             11.71673069    0.025001590000000001
    29   1      16.235177310000001      11.716730249999999    0.025074039999999999
    30   1      20.293959009999998      11.716730249999999    0.025074039999999999
    31   1      24.352765640000001             11.71673069    0.025001590000000001
    32   1      28.411534549999999             11.71668698              0.02497914
    33   1      2.0293964600000001             15.23167155              0.02525285
    34   1      6.0881728300000004      15.231678799999999    0.025062859999999999
    35   1             10.14698486      15.231762639999999               0.0250786
    36   1             14.20578841             15.23176782    0.025201990000000001
    37   1             18.26456816              15.2317707    0.025149979999999999
    38   1      22.323347900000002             15.23176782    0.025201990000000001
    39   1      26.382151459999999      15.231762639999999               0.0250786
    40   1      30.440963480000001      15.231678799999999    0.025062859999999999
    41   1      32.470327990000001      18.746748629999999    0.024951939999999999
    42   1      4.0588083299999997      18.746748629999999    0.024951939999999999
    43   1      8.1175770200000006      18.746803499999999    0.025222040000000001
    44   1             12.17637459      18.746799750000001    0.025428470000000002
    45   1      16.235159400000001      18.746805200000001    0.025487360000000001
    46   1      20.293976919999999      18.746805200000001    0.025487360000000001
    47   1      24.352761730000001      18.746799750000001    0.025428470000000002
    48   1             28.41155929      18.746803499999999    0.025222040000000001
    49   1      2.0293964600000001      22.261939099999999    0.025844880000000001
    50   1      6.0881419299999999      22.261841799999999    0.025489439999999999
    51   1             10.14692954             22.26176895              0.02551757
    52   1             14.20573559      22.261804690000002    0.025639160000000001
    53   1             18.26456816             22.26178625    0.025640119999999999
    54   1      22.323400729999999      22.261804690000002    0.025639160000000001
    55   1      26.382206780000001             22.26176895              0.02551757
    56   1             30.44099439      22.261841799999999    0.025489439999999999
    57   1  5.6450000000000003e-05      25.776936450000001              0.02613327
    58   1      4.0587364700000004      25.776936450000001              0.02613327
    59   1      8.1175325399999991              25.7767713    0.024734180000000001
    60   1      12.176376469999999      25.776831090000002              0.02545323
    61   1      16.235145939999999      25.776775220000001    0.025273360000000002
    62   1             20.29399038      25.776775220000001    0.025273360000000002
    63   1      24.352759840000001      25.776831090000002              0.02545323
    64   1      28.411603769999999              25.7767713    0.024734180000000001
    65   1  0.00024266000000000001              2.34304215     0.80166565000000001
    66   1      4.0585502699999996              2.34304215     0.80166565000000001
    67   1      8.1157394600000003              2.34454954     0.80169402000000001
    68   1             12.17601256      2.3433829099999999     0.80116898000000003
    69   1      16.235258170000002      2.3433209100000001     0.80090046999999998
    70   1      20.293878150000001      2.3433209100000001     0.80090046999999998
    71   1      24.353123750000002      2.3433829099999999     0.80116898000000003
    72   1      28.413396859999999              2.34454954     0.80169402000000001
    73   1      2.0293964600000001      5.8582218700000004     0.80119762000000005
    74   1      6.0870566899999998      5.8583336700000004              0.80194851
    75   1             10.14649655              5.85853131     0.80121584000000001
    76   1             14.20597894      5.8582938599999999     0.80086840999999998
    77   1             18.26456816      5.8583798500000004               0.8010794
    78   1      22.323157380000001      5.8582938599999999     0.80086840999999998
    79   1             26.38263976              5.85853131     0.80121584000000001
    80   1      30.442079629999999      5.8583336700000004              0.80194851
    81   1  0.00019438999999999999      9.3717771800000005     0.80082061000000004
    82   1      4.0585985400000002      9.3717771800000005     0.80082061000000004
    83   1      8.1175070500000004      9.3725002699999997     0.80149060999999999
    84   1      12.176590020000001      9.3733583399999993     0.80088261999999999
    85   1             16.23512199      9.3733789200000004              0.80106506
    86   1             20.29401433      9.3733789200000004              0.80106506
    87   1      24.352546289999999      9.3733583399999993     0.80088261999999999
    88   1      28.411629269999999      9.3725002699999997     0.80149060999999999
    89   1      2.0293964600000001             12.88692854     0.80220621000000003
    90   1      6.0883212999999996             12.88743848     0.80138414999999996
    91   1      10.147128609999999             12.88859852     0.80085256000000005
    92   1             14.20571782      12.888558189999999     0.80113791000000001
    93   1             18.26456816      12.888409899999999     0.80109381000000002
    94   1      22.323418490000002      12.888558189999999     0.80113791000000001
    95   1             26.38200771             12.88859852     0.80085256000000005
    96   1      30.440815019999999             12.88743848     0.80138414999999996
    97   1              0.00012365      16.403222639999999     0.80145666999999998
    98   1      4.0586692700000002      16.403222639999999     0.80145666999999998
    99   1      8.1174337899999998      16.403825260000001     0.80097196999999998
   100   1              12.1761021             16.40390721     0.80133072000000005
   101   1             16.23503496      16.403861750000001     0.80140014999999998
   102   1      20.294101359999999      16.403861750000001     0.80140014999999998
   103   1      24.353034220000001             16.40390721     0.80133072000000005
   104   1      28.411702529999999      16.403825260000001     0.80097196999999998
   105   1      2.0293964600000001      19.919205120000001     0.80066369999999998
   106   1              6.08752564             19.91894023     0.80122479000000002
   107   1      10.146078839999999             19.91919038     0.80159137999999996
   108   1      14.204993419999999              19.9192584     0.80178742000000003
   109   1             18.26456816      19.919377350000001     0.80194975999999996
   110   1      22.324142899999998              19.9192584     0.80178742000000003
   111   1      26.383057470000001             19.91919038     0.80159137999999996
   112   1      30.441610669999999             19.91894023     0.80122479000000002
   113   1              0.00142012      23.434536609999999     0.80178442000000005
   114   1      4.0573728100000004      23.434536609999999     0.80178442000000005
   115   1      8.1165862000000004      23.433936769999999     0.80182306000000003
   116   1             12.17555218      23.433996919999998     0.80156656000000004
   117   1             16.23465491      23.434040110000002     0.80170828999999999
   118   1      20.294481409999999      23.434040110000002     0.80170828999999999
   119   1      24.353584130000002      23.433996919999998     0.80156656000000004
   120   1      28.412550110000002      23.433936769999999     0.80182306000000003
   121   1      2.0293964600000001      26.949875330000001              0.80297246
   122   1      6.0858208300000003      26.950066320000001              0.80215291
   123   1             10.14598146      26.949241430000001     0.80165810000000004
   124   1             14.20520604      26.948673230000001     0.80131923999999999
   125   1             18.26456816             26.94858318     0.80108193999999999
   126   1      22.323930279999999      26.948673230000001     0.80131923999999999
   127   1      26.383154860000001      26.949241430000001     0.80165810000000004
   128   1             30.44331549      26.950066320000001              0.80215291
   129   1      32.452712490000003              0.03137823      1.4323189199999999
   130   1      4.0618193700000003      28.135730410000001      1.4925998599999999
   131   1      8.1178568700000007              28.0948268              1.42260476
   132   1             12.07260492    0.036530800000000002              1.47090389
   133   1      16.292666560000001    0.080828319999999995      1.4582742900000001
   134   1      20.260357899999999      28.145445630000001              1.42621522
   135   1      24.341153590000001      28.127912510000002      1.4867135600000001
   136   1      28.283319030000001      28.078754069999999      1.3565764199999999
   137   1      1.9187241900000001      3.5050039800000001              1.52116381
   138   1      6.1598002000000003      3.6158938200000001      1.5345133399999999
   139   1             10.12672311      3.5187619099999998              1.48134882
   140   1      14.147658659999999              3.41709474              1.47685092
   141   1      18.252333870000001      3.5035776699999999      1.5165375400000001
   142   1      22.337174489999999      3.4679402000000001      1.4922951099999999
   143   1      26.455105360000001      3.5576781999999998      1.3963751600000001
   144   1             30.32041894      3.3583591500000001      1.4203666800000001
   145   1             32.42957122      7.0586190599999998      1.4401630599999999
   146   1      4.0663206499999998      7.0530858900000002      1.4297582799999999
   147   1      8.1068670100000002      6.9485595099999999      1.4201032600000001
   148   1             12.12215685      7.0132751100000004      1.3606849599999999
   149   1      16.269316400000001      7.0177130400000003      1.4956704199999999
   150   1      20.326258580000001      7.1099054700000002      1.5896158899999999
   151   1      24.373536139999999      7.0282032699999997              1.61627057
   152   1             28.35955032              7.02999698                1.400954
   153   1              1.92317925             10.53081734      1.4565888300000001
   154   1      6.2134550800000001             10.49670558      1.4016024499999999
   155   1             10.21010588      10.582822459999999              1.49780482
   156   1      14.202156690000001             10.56695159              1.34683431
   157   1             18.34328241      10.567772209999999      1.2260116599999999
   158   1      22.332649620000002             10.53264551      1.4360813699999999
   159   1      26.422218019999999      10.608574669999999              1.49133593
   160   1      30.352410840000001      10.464663870000001      1.4125393799999999
   161   1   -0.036199469999999997      14.032895910000001              1.41743774
   162   1              3.95213115             14.03201217      1.5245267899999999
   163   1      8.1133537800000006             14.07315799              1.55868085
   164   1      12.151349059999999             14.06655793      1.5304916799999999
   165   1      16.222560250000001      13.972822109999999              1.52879732
   166   1      20.315345010000001             14.12936887      1.3650188700000001
   167   1      24.367891220000001             14.07693121      1.3328546400000001
   168   1             28.34575255      14.014307479999999      1.4368297800000001
   169   1      2.1105262499999999      17.650901749999999      1.5544045200000001
   170   1      6.0498118999999999             17.48987623      1.4520639799999999
   171   1             10.23293623      17.556408430000001      1.6450670199999999
   172   1             14.20351788      17.523436719999999              1.47699775
   173   1             18.25214583             17.55530838              1.50552939
   174   1      22.331533230000002      17.563953040000001      1.4752799299999999
   175   1             26.46062517             17.59704528      1.4295514899999999
   176   1      30.339943330000001             17.53481064      1.5457370699999999
   177   1      32.374057579999999      21.137171299999999              1.58222522
   178   1      4.0183038199999999      21.164224919999999              1.47909826
   179   1      8.1243742999999995      21.062987490000001      1.4457561400000001
   180   1             12.19457061      21.104088860000001      1.5083506900000001
   181   1             16.26106412      21.035630350000002              1.47188407
   182   1      20.249578159999999             21.07693394              1.44937154
   183   1             24.39169746             21.15257059      1.5779506299999999
   184   1      28.450018830000001      21.187008330000001              1.41520892
   185   1      2.0212836799999998      24.555757610000001      1.3712609899999999
   186   1      6.1554900899999998      24.579475980000002              1.54325018
   187   1      10.156419339999999              24.6471819              1.57000644
   188   1      14.210960549999999      24.610022449999999               1.4609208
   189   1             18.26852323      24.635547039999999      1.4202635100000001
   190   1             22.40680536      24.593127840000001              1.38829924
   191   1      26.385749860000001      24.532445070000001               1.4851288
   192   1      30.470888779999999             24.60705183      1.3684150399999999
   193   1      2.0151475099999998      1.2192256400000001              2.35360288
   194   1              6.05684662      1.2411008800000001      2.4237986899999999
   195   1             10.08798343              1.13879584      2.4124568599999998
   196   1             14.13103437      1.2114227200000001      2.5095975400000001
   197   1      18.250313259999999      1.1818834899999999      2.3966747100000001
   198   1             22.27764994              1.07839152      2.3776876100000002
   199   1      26.386159719999998      1.2695455499999999              2.43673049
   200   1      30.402033899999999              1.18388494               2.4259195
   201   1      32.428322639999998      4.7872880799999997      2.5227081299999998
   202   1      4.0000974400000002      4.7510064999999999      2.4824727200000001
   203   1      8.1461645899999997      4.6947306600000003              2.48188247
   204   1             12.09516732      4.5759417200000003              2.29852035
   205   1             16.18251338              4.64338534      2.4533889699999998
   206   1      20.309408739999999              4.73009244      2.4756379900000001
   207   1             24.37689267      4.6776014000000004              2.41370043
   208   1             28.36291108      4.7570846600000003      2.3716676300000001
   209   1      1.9291165299999999      8.1924213899999998      2.3614299399999998
   210   1      5.9996816700000002      8.2041760200000002              2.46303143
   211   1      10.129092460000001      8.1494195699999992              2.40020341
   212   1             14.18204987      8.1671924499999999      2.3773823599999999
   213   1      18.305255259999999      8.3226628700000003      2.4019704000000002
   214   1      22.374567370000001      8.1085258699999994      2.4579432899999998
   215   1             26.48002249      8.2321759799999992              2.44943613
   216   1             30.34379135      8.1905765499999994      2.4530298300000002
   217   1      32.306426549999998             11.67928201              2.39716226
   218   1      4.0849112200000004              11.6220056      2.3825066000000001
   219   1      8.1944116200000003      11.768090750000001      2.4207467899999999
   220   1      12.149355740000001              11.7402114               2.4589756
   221   1      16.297632979999999      11.714287779999999      2.4031264999999999
   222   1      20.297964539999999      11.766430509999999               2.2795519
   223   1      24.341660959999999      11.725089949999999      2.3711708200000001
   224   1      28.367127910000001      11.641987990000001              2.36203823
   225   1      2.0547340900000002      15.271630829999999      2.2538413799999999
   226   1      6.0215917299999999      15.182426830000001      2.3305143099999999
   227   1             10.16521404      15.192796019999999      2.4257781199999999
   228   1             14.09823031      15.234771719999999      2.4265399400000001
   229   1      18.240510579999999      15.217644180000001      2.3455306500000002
   230   1      22.379857019999999      15.311971720000001      2.4203940500000001
   231   1      26.376488340000002      15.310862670000001      2.4010423200000002
   232   1      30.368594940000001      15.173460759999999      2.4189990699999999
   233   1   -0.056545360000000003             18.84748974      2.3598226200000001
   234   1      4.2316557799999996      18.771895390000001      2.3647070800000001
   235   1              8.04610585      18.659857290000001              2.40580639
   236   1      12.244802119999999      18.714613870000001      2.5066126400000002
   237   1      16.241369450000001             18.68486184      2.4347934200000001
   238   1      20.286152810000001      18.720313650000001      2.3917711800000001
   239   1      24.356611579999999      18.770157430000001      2.4650390899999999
   240   1             28.39018514             18.89760905              2.53693298
   241   1      2.0615703500000002             22.26909006      2.4069334100000002
   242   1      6.2064060000000003             22.20418235              2.46658819
   243   1             10.06386232      22.224885619999998      2.2830580600000001
   244   1      14.227700459999999      22.203167799999999              2.42740307
   245   1             18.33848077      22.319752990000001      2.3344093699999999
   246   1      22.431789439999999      22.366008870000002      2.5159867199999999
   247   1      26.299266280000001      22.252309220000001      2.4690858499999999
   248   1              30.4255174      22.302704769999998              2.43521952
   249   1   -0.029304489999999999             25.70088105      2.3240069700000001
   250   1              3.97205721      25.755544560000001              2.36599789
   251   1      8.0545366600000001      25.809777830000002      2.3911778799999999
   252   1      12.162851420000001      25.810414389999998              2.52683203
   253   1      16.290569550000001      25.726091449999998      2.4972337200000001
   254   1      20.264942619999999             25.80178884      2.4790319300000001
   255   1      24.408880100000001      25.736731110000001      2.4923421299999999
   256   1      28.338274770000002             25.78247876      2.3592498000000002
   257   1      32.510258960000002      2.3665003800000002      3.1874880800000001
   258   1      4.1162526899999996      2.4169803000000001              3.28110349
   259   1      8.1063192599999994              2.34289718      3.2841691399999999
   260   1      12.156497359999999      2.2960320799999998      3.2505538299999999
   261   1      16.209228639999999      2.2351960399999999      3.2485841299999998
   262   1      20.167414140000002      2.3412887100000002      3.2036719300000001
   263   1             24.25495871      2.4139495100000001      3.2226789600000001
   264   1      28.518808750000002      2.4276831400000001      3.3106961199999998
   265   1               1.8740885      6.0502485500000001      3.1770200200000001
   266   1      6.1428943199999999      5.9442484000000002              3.32816468
   267   1      10.215093270000001      5.8275178399999996              3.28563143
   268   1      14.234222989999999      5.7856627899999999              3.12428412
   269   1      18.242986640000002              6.00205739      3.1810990800000001
   270   1             22.47327276      5.7445261199999997      3.4052764199999999
   271   1              26.4015059      5.8452816800000003      3.2102629199999999
   272   1      30.236834559999998      5.8676197200000004      3.2912595800000002
   273   1      32.306240279999997      9.4323535300000003      3.2344097500000002
   274   1      3.9652728399999999              9.38438163              3.23325196
   275   1      8.0409882600000007      9.4075501799999994              3.17043177
   276   1             12.07974156      9.4406584799999997              3.26378835
   277   1      16.203630619999998      9.3448865699999999      3.2951650300000002
   278   1      20.367454890000001      9.4025183000000006      3.2602804500000002
   279   1      24.306595470000001      9.3829700000000003      3.2324286799999999
   280   1              28.3693469      9.3551089199999993      3.2851352700000001
   281   1      2.0239303199999998             12.96919911      3.2603492100000002
   282   1      6.0781421900000003             12.80843969      3.2137690800000001
   283   1             10.12061082              12.9022024      3.2900026499999999
   284   1             14.18048488             12.85677658      3.2813460000000001
   285   1      18.401639200000002      12.928644930000001      3.1741900699999999
   286   1      22.387043720000001             12.85351631      3.2324442599999998
   287   1      26.394925409999999      12.995901440000001      3.2225458200000001
   288   1             30.35324679             12.80943693      3.2168146499999999
   289   1   0.0024689199999999999             16.49115926              3.20622674
   290   1      4.0663742599999999      16.474028950000001      3.2316558799999999
   291   1      8.1085608199999992             16.29911894      3.2564141000000002
   292   1             12.13176361      16.413069910000001      3.3620862699999998
   293   1      16.122212879999999      16.326776800000001      3.2146042700000002
   294   1      20.303499070000001             16.47843194              3.26348912
   295   1             24.40232567             16.43946446      3.3421637300000002
   296   1      28.509300799999998      16.480281160000001      3.2299324199999999
   297   1      2.1018295299999998      19.927734839999999              3.22945613
   298   1      6.0382472700000003             19.91726598      3.2108585399999998
   299   1             10.04557849      19.833747519999999      3.2770216099999998
   300   1      14.173900720000001             19.84843248      3.1588126000000001
   301   1      18.223785509999999      19.931780490000001              3.26549836
   302   1             22.30074072             19.95781173      3.3354526500000001
   303   1      26.433574369999999      19.921045320000001      3.4355356600000002
   304   1             30.41289012      20.007470380000001              3.29192777
   305   1   -0.069692169999999998             23.43482221              3.14932984
   306   1      4.1190119599999999      23.413783240000001      3.2453834600000002
   307   1      8.2143769399999993      23.436460109999999      3.2512554499999999
   308   1              12.1357918      23.472546730000001      3.2124368099999998
   309   1      16.218584150000002      23.422121059999998      3.2389881800000002
   310   1             20.27855705      23.416116379999998      3.3976648300000001
   311   1      24.358305359999999      23.453000400000001      3.3666673500000002
   312   1      28.346221969999998             23.50970744      3.3181608300000001
   313   1      1.9827520700000001      26.936484929999999      3.2396230300000002
   314   1      6.0932934699999999      27.049920159999999      3.1773269499999999
   315   1      10.074294249999999      26.992759769999999      3.3018147500000001
   316   1             14.22766867      26.981169789999999      3.2656314499999999
   317   1      18.207555750000001             26.95325858              3.18010153
   318   1      22.280000090000001      27.029841139999998      3.2933506299999999
   319   1             26.37256622      26.983015779999999      3.2951259400000001
   320   1      30.372507639999998             27.04215147      3.2446635499999998
   321   1      32.371166760000001              0.14510328      4.0427502999999998
   322   1      3.9454648799999998      28.244305829999998      4.0386187199999997
   323   1      8.2034581000000006      28.245259310000002      3.8962948599999998
   324   1              12.1872475      28.167596580000001      4.1942345699999999
   325   1      16.114224400000001             28.14022898      4.0195495799999996
   326   1      20.163458949999999             28.07608626      4.1495517700000004
   327   1      24.397423159999999              28.0793921                 3.97458
   328   1             28.31196967             28.15641162      4.0949912099999999
   329   1      2.1397694600000001              3.59397528      4.0412335700000002
   330   1      6.0804961799999999      3.5190695399999998      4.1139874900000004
   331   1             10.16112298      3.4728164700000002      4.0442552799999998
   332   1             14.13703666      3.4193526799999998      4.0632756399999996
   333   1      18.226341739999999      3.6272349300000002              4.08458919
   334   1      22.231266099999999      3.4563571500000001              3.95942214
   335   1      26.411257670000001      3.5753506399999999      4.1241355000000004
   336   1      30.449361979999999              3.55807004      4.0150051400000004
   337   1             -0.11413287      7.1882449199999998      4.0340159099999999
   338   1      4.0638269200000003      7.0809348700000001      4.1196264999999999
   339   1      8.1468430400000003      7.0891186399999997      4.0868288100000001
   340   1             12.27719841      6.9759161000000001      4.0595740400000002
   341   1             16.21689662      6.8704634799999997      4.0927379999999998
   342   1      20.434602250000001      7.0179748799999997      4.0281486600000003
   343   1      24.364791719999999      7.0634245099999999              4.15407891
   344   1             28.32349052              6.94590044      4.0536812800000002
   345   1      1.9703253999999999      10.620346420000001              4.08344811
   346   1      6.0768925899999999             10.61414336      3.9832474699999998
   347   1      10.181632609999999              10.5771438      4.0291566000000003
   348   1      14.101135640000001      10.430295149999999      4.1500683599999997
   349   1      18.306292729999999             10.58294156      4.0774438599999998
   350   1      22.258188870000001      10.574481459999999      4.0342800399999996
   351   1      26.242415980000001      10.600049459999999      4.1168748300000004
   352   1      30.379385769999999             10.50371193      4.0312984900000002
   353   1      32.516713070000002             14.15753803      4.0315345799999998
   354   1      4.1498291099999998             14.08564346      4.0285596899999998
   355   1      8.1161626699999996      13.954776150000001      4.0563129299999998
   356   1             12.17405445             14.17582749      4.1026954399999997
   357   1      16.203692799999999             14.02298942      4.0950670699999998
   358   1      20.273058089999999             14.02086008      4.0494066499999999
   359   1      24.338990119999998      14.031464890000001      4.0854538399999996
   360   1      28.422455039999999             14.14444836      4.0262703899999996
   361   1              1.98479245      17.674446020000001      4.0478462400000002
   362   1              6.15006641      17.584841260000001      4.0188990200000001
   363   1      10.179243100000001      17.544772519999999      4.0988861099999996
   364   1      14.128993469999999      17.505031030000001      4.1238778399999996
   365   1             18.21746722      17.441462909999998      4.0668521799999997
   366   1             22.39290347             17.56956096      3.9677527499999998
   367   1      26.407297530000001      17.668568619999999      4.1060733100000002
   368   1      30.409082770000001      17.651323120000001      4.1096865899999999
   369   1    0.074154499999999998      21.105536789999999      4.0812739499999999
   370   1      4.0722020900000002      21.082883450000001      4.0612262000000001
   371   1      8.0852302199999997      20.989953969999998      4.0212345699999998
   372   1              12.2386395             21.12628256      4.0799485799999999
   373   1      16.091952320000001      21.045281679999999      4.0449536799999999
   374   1             20.33396076             21.09404177      4.1320703700000001
   375   1              24.3103908             21.11029735      4.2657769400000003
   376   1             28.44829811             21.23042994              4.13157862
   377   1      1.9803167500000001      24.593117110000001      4.0364179199999999
   378   1      6.0695555299999997      24.658189029999999      3.9243578299999999
   379   1             10.18189523      24.709727730000001      4.1839558300000004
   380   1             14.24001902      24.667811740000001      4.0075664700000004
   381   1             18.25107676      24.550121109999999      4.1505446199999998
   382   1      22.443253160000001              24.6704796      4.1054049600000004
   383   1             26.38283844             24.64001575      4.1978637799999996
   384   1      30.409495039999999             24.63475867      4.2103692500000003
   385   1              1.98930159      1.1603677800000001      4.8857282299999998
   386   1      6.0601556299999997      1.1208383399999999      4.9008733800000002
   387   1      10.163333250000001      1.0959255000000001      5.0533323699999997
   388   1             14.18395686      1.1400253899999999      4.9683982100000001
   389   1             18.12247799              1.13796517      4.9224780800000003
   390   1             22.09551591      1.2377975699999999      4.9144056599999999
   391   1      26.386622639999999      1.2436548999999999      4.9353111099999998
   392   1      30.420608229999999               1.1788334      4.9189287400000001
   393   1      32.499974260000002      4.6050099400000004      4.8912628099999997
   394   1      3.9152032600000002      4.7570780499999996      4.9037015000000004
   395   1      8.1026415099999998      4.7131295299999998      4.9079148100000003
   396   1      12.142228449999999      4.6201482699999996      4.9374901400000004
   397   1      16.238641250000001      4.6330046100000004      4.9318141999999998
   398   1      20.215502570000002      4.6963916399999999      4.8261980400000004
   399   1      24.255706589999999      4.5158601100000002      4.9487236399999999
   400   1             28.45939182              4.68290439              4.92015197
   401   1      1.8447864199999999      8.1960704999999994      4.8424446999999997
   402   1      6.0591584799999998      8.2773930100000008      4.9549239800000002
   403   1             10.17044565      8.2718032600000004      4.9192427399999996
   404   1      14.147447359999999      8.1600909300000009      4.8874056499999998
   405   1             18.27560768              8.15864981      4.7828029599999997
   406   1             22.37363221      8.2058374500000006      4.9808377500000001
   407   1             26.34495282      8.1420445200000007      4.9587840700000001
   408   1      30.429217390000002      8.1835932499999995      4.8763969400000002
   409   1      32.356708990000001      11.645743550000001      4.8875864299999998
   410   1      4.0140418100000002      11.826064390000001      4.8659763700000003
   411   1      8.2409377799999994             11.69800877      4.8628935899999997
   412   1      12.178720950000001             11.79874296      5.0321706099999997
   413   1      16.172356560000001      11.794194750000001      4.8019736599999998
   414   1             20.22571666      11.713546790000001      4.8609469900000004
   415   1      24.236887830000001      11.631501889999999      4.8806604499999997
   416   1      28.407158089999999             11.69686362      4.8223799200000004
   417   1      2.0708270799999999      15.269250919999999      4.8449852699999996
   418   1      6.1604961400000002      15.240317279999999      4.8850179899999997
   419   1               10.251471      15.246474320000001      4.8818645800000002
   420   1             14.24470883      15.180736209999999      4.9757140800000004
   421   1      18.255206950000002      15.202417649999999      4.6826494500000004
   422   1      22.313852489999999             15.09544028              4.88777259
   423   1             26.39795063      15.280500679999999              4.83752212
   424   1             30.38386259             15.23008636      4.8908522899999998
   425   1              -0.0371796      18.707188380000002      4.8464811599999997
   426   1      4.1273468600000003      18.742271899999999              4.85543236
   427   1      8.1212347400000002      18.657158500000001      4.8149870699999999
   428   1      12.142135440000001      18.785564099999998      4.9042908699999996
   429   1      16.153882939999999      18.680332190000001      4.8866046799999996
   430   1             20.20291954      18.724053789999999                4.948334
   431   1      24.297033500000001      18.810268489999999      4.9107179099999998
   432   1      28.334844069999999      18.771679939999999      4.9153379399999997
   433   1      2.0418923599999999             22.20899696      4.8691498199999996
   434   1      6.1457713900000002      22.308217849999998      4.8726226300000004
   435   1      10.082410769999999             22.14777024      4.8773596299999999
   436   1      14.244298069999999      22.151454739999998              4.94788476
   437   1      18.336226490000001             22.27107973      4.9030803499999998
   438   1      22.374707999999998      22.319193599999998      5.0818556299999997
   439   1             26.29100386      22.250284409999999      5.0086499699999996
   440   1      30.421589149999999      22.367487820000001      4.8756759499999998
   441   1  -0.0046468200000000003      25.805967679999998      4.8151042899999998
   442   1      3.9766107599999998      25.833553510000002      4.8791776599999999
   443   1      8.0616441600000002      25.882295540000001      4.9345687500000004
   444   1             12.24724235      25.853152170000001              5.01898847
   445   1      16.247211249999999      25.772725619999999      4.9485927700000003
   446   1      20.336789920000001             25.81702224              4.91413104
   447   1             24.45052256      25.764664719999999      4.9856006800000001
   448   1      28.386764400000001      25.828976440000002      4.9292365900000004
   449   1   0.0085790299999999996      2.3976691899999998      5.7793605699999997
   450   1      4.0021887899999999      2.3771027500000002      5.7319570000000004
   451   1      8.0689335599999996              2.25690401      5.7570021200000001
   452   1      12.150123049999999      2.3021639199999999      5.7627587399999998
   453   1      16.165206090000002              2.44678884      5.7521726900000001
   454   1             20.13018306      2.3423130400000001              5.74247087
   455   1      24.348340960000002      2.1576442899999999      5.5896052200000002
   456   1      28.393247349999999              2.33097026               5.7236167
   457   1      1.9740293600000001      5.8462304700000001      5.7028196400000004
   458   1      5.9764586299999998      5.8588670900000004      5.6434416299999999
   459   1             10.20924875      5.9731309599999998      5.7921362700000003
   460   1             14.15352571              5.75197191      5.7664177399999996
   461   1             18.29224889      5.8948640499999998      5.6999889000000001
   462   1      22.345189810000001               5.7625579      5.8116507200000003
   463   1      26.262452530000001      5.7358733400000004              5.74671106
   464   1      30.526715150000001      5.8780593300000001               5.7294497
   465   1      32.395752659999999      9.4000335800000006      5.7185934400000002
   466   1      3.9212101599999998      9.3611060300000002      5.6595009200000002
   467   1      8.0745774000000008      9.4718494700000004      5.8049601099999997
   468   1             12.16528314      9.4248091800000005      5.6287795799999998
   469   1             16.21714441      9.3530038999999991      5.8456290800000001
   470   1             20.21114927      9.4148380700000001      5.6775738999999996
   471   1             24.39130127              9.36920632      5.7552019999999997
   472   1      28.318516460000001      9.3865061000000001      5.7711033199999999
   473   1      1.9189923499999999             12.86238949      5.7125727199999998
   474   1              6.22665968             12.83457325      5.6337486200000004
   475   1      10.160905380000001      13.004440860000001      5.7171399200000002
   476   1             14.13759445             12.88856528      5.8292230399999996
   477   1             18.19443472             12.91722895              5.66302883
   478   1      22.258677290000001             12.76886223      5.6840831300000003
   479   1      26.372515079999999      12.835511779999999      5.6888161400000001
   480   1      30.396367680000001             12.98249386              5.66438328
   481   1    0.051820989999999997      16.306242810000001      5.6237421699999999
   482   1      4.1242007999999997      16.498623049999999      5.5795687599999999
   483   1      8.1736147799999994      16.376848930000001      5.7544626900000004
   484   1             12.16943526             16.34978581      5.8921199299999998
   485   1      16.256827810000001      16.380960909999999      5.6508587500000003
   486   1      20.244913539999999             16.21843179      5.7125894400000004
   487   1      24.228663569999998             16.43133396      5.7482404699999998
   488   1      28.322253140000001      16.368938119999999      5.8658644100000004
   489   1      1.9883367999999999      19.978770130000001      5.6735498099999999
   490   1      6.1097674700000004      19.811942729999998      5.7041689299999998
   491   1      10.165666699999999      19.858302269999999      5.7189245700000004
   492   1      14.197267200000001      19.920338529999999      5.6021499400000003
   493   1              18.1115095      19.873975649999998      5.6157107699999997
   494   1      22.298649130000001      19.937752039999999      5.7656693800000003
   495   1             26.40746631      19.983290589999999      5.8791697200000002
   496   1      30.320402569999999      19.853112790000001      5.6787827899999996
   497   1             32.47867669      23.565381460000001      5.7248563099999998
   498   1      4.0580727999999997      23.377870640000001      5.6329294599999997
   499   1      8.1246283600000009      23.384739289999999      5.7710340000000002
   500   1             12.18576298      23.352903479999998      5.7219316999999998
   501   1      16.401579819999998      23.359935069999999      5.7522850500000002
   502   1      20.325074969999999      23.490079659999999      5.8659576600000003
   503   1      24.344873840000002             23.52962303      5.9155110300000002
   504   1      28.465738810000001      23.443769710000002               5.7847738
   505   1              2.06481855      26.879573220000001      5.7900334000000004
   506   1      6.0243704300000003      26.941586109999999      5.5820814900000002
   507   1               10.105573      26.838514029999999      5.7763572099999996
   508   1              14.1569047             26.93079689      5.7078322100000003
   509   1      18.354805899999999      26.940927609999999      5.7359978500000004
   510   1             22.30441875             26.94081615              5.75888986
   511   1      26.450037519999999      27.000847199999999      5.8123620100000002
   512   1      30.480138799999999      26.887455240000001      5.7294427099999998
   513   1      32.552267030000003    0.027468050000000001      6.5172706399999996
   514   1              4.04563468    0.018132909999999999      6.6171128100000001
   515   1      8.1303359499999992    0.037453689999999998      6.5588189200000002
   516   1             12.15354565   -0.044813690000000003      6.7292949599999998
   517   1      16.319642909999999             28.09766492              6.55308125
   518   1      20.236882019999999      28.179484609999999      6.6054967299999996
   519   1      24.444382969999999      28.104292569999998      6.6109035699999996
   520   1      28.474084829999999      28.091190470000001              6.56021476
   521   1      2.0525866000000001      3.5560561399999999              6.55535332
   522   1      6.0393711799999998      3.5828109000000001      6.5259788299999997
   523   1             10.18052683      3.5943824100000001      6.5891999800000001
   524   1      14.158571220000001      3.4536342699999998      6.5666627200000001
   525   1      18.132720070000001      3.6125066399999999               6.5702251
   526   1      22.347349860000001      3.4109937299999999      6.3859283700000002
   527   1             26.34451902      3.4874307899999999      6.6906745900000004
   528   1      30.434740940000001      3.5273224399999998      6.6522218200000003
   529   1      32.398506060000003               7.0976922      6.5832167999999998
   530   1               3.8478713      7.0836724999999996              6.42773196
   531   1      8.1150818200000003      7.0407057899999996      6.4640423499999997
   532   1             12.21270176      7.0551819499999997      6.6422949200000003
   533   1      16.180728089999999      6.9981586599999996      6.5343894300000001
   534   1      20.185087939999999      7.0451326999999999              6.56959787
   535   1      24.367481959999999      6.9865053000000001      6.6686541200000002
   536   1      28.307240220000001      7.1081460400000003      6.5151378299999996
   537   1              1.92941969             10.53965165      6.5050260399999997
   538   1      5.9814187299999997              10.5460859      6.5645981799999999
   539   1              10.0980737             10.62581073      6.7251349600000001
   540   1             14.14766395      10.592918129999999              6.64485831
   541   1      18.237553500000001      10.559585179999999              6.59378463
   542   1      22.354061189999999      10.470212800000001      6.6070199699999996
   543   1      26.303289110000001      10.520558879999999      6.5910135099999998
   544   1      30.258016439999999             10.63108549      6.4736278900000004
   545   1   -0.045783539999999998             14.17111508      6.5918198600000002
   546   1      4.0865653999999996      14.120633509999999      6.5018423800000003
   547   1      8.0736383899999993             14.03867449      6.6416470700000003
   548   1      12.206706349999999      14.006266610000001      6.5921335499999998
   549   1      16.211056190000001             14.00167925      6.5657549199999998
   550   1      20.297312560000002      13.961846250000001      6.6365008599999999
   551   1              24.4034847              13.9867224      6.5390753500000001
   552   1      28.325751790000002             14.11753861      6.5184872900000004
   553   1      1.9731835099999999      17.527878479999998      6.4844366400000002
   554   1      6.0857910400000002      17.484420799999999      6.6265289999999997
   555   1      10.175381939999999      17.570955229999999      6.6337328099999997
   556   1             14.28051608      17.626817719999998      6.5182498400000002
   557   1             18.21792838      17.638149869999999      6.5280043699999997
   558   1      22.310159120000002      17.531827270000001      6.5405632899999997
   559   1             26.29828569      17.575313730000001      6.3830250199999998
   560   1      30.424147399999999      17.494249440000001      6.5214804400000004
   561   1   -0.045812890000000002             21.07497682      6.4905771799999998
   562   1      4.1274729399999996             21.02015149      6.4272375200000003
   563   1      8.1121762299999993      21.062512349999999              6.47225787
   564   1             12.14911564      21.067162870000001      6.5063963999999999
   565   1      16.268631589999998      21.098185340000001      6.5982959299999999
   566   1      20.171355569999999             21.07626634               6.6599385
   567   1      24.313709549999999      21.211925659999999      6.7726471699999999
   568   1      28.454920210000001      21.148778539999999      6.5514745599999999
   569   1      2.0723925599999999      24.586597569999999      6.4436946800000001
   570   1      6.0816151600000001      24.714571400000001      6.4292798600000003
   571   1             10.27926327      24.502529689999999              6.64073972
   572   1             14.17684944      24.596221499999999      6.4984800299999996
   573   1      18.320775619999999             24.49218802      6.6823039900000003
   574   1      22.350452390000001      24.596597030000002      6.5731995799999998
   575   1      26.424768090000001      24.660028990000001      6.7130538599999996
   576   1      30.517956479999999              24.5795067      6.5953102399999999
   577   1              1.90725145              1.18287827      7.6357992499999998
   578   1      5.9690231999999996              1.25103772              7.42053224
   579   1             10.01181952      1.0953280299999999      7.6248863099999999
   580   1      14.191009599999999               1.1331947      7.5573736499999997
   581   1      18.304175149999999              1.23477635      7.4291966800000004
   582   1      22.377112260000001      1.1537572199999999      7.5392989500000001
   583   1      26.405525560000001              1.16428296      7.4125474699999998
   584   1      30.444269890000001      1.1340045700000001      7.4145397400000004
   585   1      32.609614499999999      4.7899351599999997      7.5152865799999997
   586   1      4.0387489900000002      4.8664026600000003      7.4591092100000003
   587   1      8.0347606299999992      4.6880504800000002      7.6668887300000002
   588   1      12.168324419999999      4.6255799399999997      7.5350030800000001
   589   1             16.29743835      4.8230822499999997      7.4871439400000002
   590   1      20.343544519999998      4.5979097400000004              7.30569706
   591   1             24.27712313      4.5477432000000002      7.5318892999999996
   592   1      28.372097100000001      4.6759578700000004      7.5600756999999996
   593   1      1.8056496500000001      8.1942221199999992      7.5678656100000001
   594   1      5.9895977699999996      8.1226597399999996      7.4651793499999997
   595   1             10.06245502      8.2615455200000003      7.4872724799999997
   596   1             14.20480929      8.1762386500000002      7.5904570099999997
   597   1      18.102174649999998      8.1861777999999994      7.4091624899999999
   598   1      22.256750409999999      8.0594133600000006      7.5223082200000002
   599   1             26.39077829      8.0982382800000003      7.5849280300000004
   600   1      30.360068479999999      8.2648196499999997      7.3665768099999998
   601   1      32.423516319999997             11.79562164      7.5058344200000002
   602   1              3.98909571              11.8351828      7.3983672399999998
   603   1              7.99712947      11.642016330000001      7.6396276600000004
   604   1              12.0995455             11.77696053      7.6091423100000002
   605   1             16.27013861             11.65977754              7.52858888
   606   1      20.349098229999999             11.50731876      7.5033644300000004
   607   1      24.258639039999998      11.702745220000001      7.5838004999999997
   608   1             28.34648185             11.79971763      7.4076559700000004
   609   1              2.04877391      15.138181489999999      7.3746905600000003
   610   1      5.8910056099999997      15.266223589999999      7.5126419899999997
   611   1      10.072753329999999             15.16807882      7.4983398699999997
   612   1      14.144001169999999      15.126702119999999      7.5465942899999998
   613   1      18.112146289999998      15.121622459999999      7.4032950199999998
   614   1             22.23868598      15.100883250000001      7.3666761799999998
   615   1             26.33069459              15.2045882      7.4586732400000004
   616   1      30.366459469999999             15.18631697      7.5156487700000003
   617   1   -0.040491100000000002      18.714168539999999      7.3772909000000002
   618   1      4.1288004799999998             18.71738723      7.4138844099999996
   619   1      8.1594536200000007      18.690478769999999      7.4969357600000004
   620   1             12.29932133             18.71645775      7.4569485899999997
   621   1      16.213386230000001      18.634631479999999      7.6124798299999998
   622   1      20.401806050000001      18.554817620000001      7.4197752599999998
   623   1             24.33522112      18.894002480000001      7.5189986800000002
   624   1      28.388832489999999      18.790186670000001      7.4481387799999998
   625   1      2.1000658099999998             22.10279242      7.4624716500000003
   626   1      6.1706471299999999      22.317303890000002      7.4404028499999999
   627   1             10.17906528      22.118267379999999      7.4902793900000004
   628   1             14.26625052      22.295005419999999      7.4375796699999999
   629   1      18.195833570000001      22.201527259999999      7.5907864800000002
   630   1      22.291180109999999      22.240794650000002      7.8198270599999997
   631   1             26.40458263      22.326217620000001      7.5958317199999996
   632   1             30.54908996      22.252344740000002      7.4005655199999998
   633   1      32.593389690000002      25.720093689999999      7.4455843599999998
   634   1      4.1501441799999998      25.793876319999999      7.3661038100000003
   635   1      8.2583574599999992              25.5797338      7.4349134299999999
   636   1             12.19906589      25.773769420000001      7.6411247099999997
   637   1             16.30699212      25.794016460000002      7.4471123099999996
   638   1      20.192357940000001             25.82211285      7.6741378600000001
   639   1      24.272194540000001      25.823053259999998      7.6146873900000003
   640   1      28.417563439999999      25.770899360000001      7.7638147699999998
   641   1             -0.14971292      2.4589364499999999      8.2225978000000008
   642   1      3.9795171599999999              2.40493735      8.0236494999999994
   643   1               8.1249506      2.3397825999999999      8.2875447300000005
   644   1      12.062726120000001      2.2921686499999998      8.1668503000000001
   645   1      16.181165289999999      2.3012410600000002      8.2368394899999995
   646   1             20.20315313              2.34285013      8.2436217099999993
   647   1      24.474816610000001      2.2089397800000001      8.0169810500000001
   648   1      28.426983379999999      2.3371400699999998      8.1546344000000008
   649   1      2.0118457300000001      5.9562612399999999      8.2730503399999993
   650   1      6.0485019600000003      5.8620386599999996      8.0285880600000006
   651   1      10.101304900000001      5.8744880899999998      8.0964711299999994
   652   1             14.18884892      5.6585107900000002      8.3899980799999998
   653   1      18.309750650000002      5.8828642100000001      8.1257044500000006
   654   1             22.20471238      5.7960779100000002      8.1962945400000002
   655   1             26.42927285      5.7524402700000001      8.2449839699999998
   656   1      30.475824880000001      5.8513037700000003      8.1109442099999995
   657   1             32.39837275      9.3799285799999996      8.0806002400000008
   658   1              3.85763583      9.3981820700000007      8.0086355699999991
   659   1      7.9884618200000004      9.3423444999999994      8.1939520199999993
   660   1             12.20879789      9.3380978900000002      8.2426292300000004
   661   1      16.305108409999999      9.4380201199999991      8.1723837699999997
   662   1      20.337365470000002      9.2132754800000001      8.2500004100000002
   663   1      24.305091470000001      9.2232513699999998      8.1395711500000001
   664   1      28.312230230000001      9.4475933300000001      8.1298028700000007
   665   1      1.9787789200000001      12.910490429999999      8.1979818099999999
   666   1      5.9767485499999999      12.885618279999999      8.2004329299999998
   667   1             10.05617468      12.835840149999999      8.2374547600000003
   668   1      14.269343579999999             12.84303418      8.2179959599999997
   669   1             18.25529023             12.76969545      8.1410785499999996
   670   1      22.315696670000001             12.71912491      8.1896303499999998
   671   1      26.218072289999999               12.945663              8.16003379
   672   1      30.379185570000001      12.930511879999999      8.0936652000000002
   673   1    0.081302529999999998      16.345583040000001      8.1411285699999993
   674   1              3.87034403             16.48244193      8.1488223699999995
   675   1      8.0489641200000008             16.45864898      8.2032348899999992
   676   1             12.21473222      16.302977540000001      8.2986069400000009
   677   1      16.278642510000001      16.300789399999999      8.1929464099999993
   678   1      20.274607379999999             16.30518193      8.0640034400000005
   679   1             24.33858275      16.413144639999999      8.0866506600000001
   680   1      28.358514660000001      16.505884300000002      8.2608511300000007
   681   1      2.1616492100000002      19.875500160000001      8.0414206099999994
   682   1      6.0721732099999999             19.96000656      8.1967064500000006
   683   1             10.23084761             19.72844589      7.9791223200000001
   684   1      14.182768429999999      19.924477459999999      8.2557582000000007
   685   1             18.39271462      19.804232290000002      8.2029424199999994
   686   1      22.263732650000001      19.941235580000001      8.3398820600000008
   687   1      26.536285079999999             20.12956913      8.5629063700000003
   688   1      30.389901510000001      19.968613489999999      8.0483147600000002
   689   1              0.18908849      23.514622459999998      8.1625881400000004
   690   1      4.0715075900000004      23.408797809999999      8.1592152799999997
   691   1      8.1251949499999991      23.350429399999999      8.1982415599999996
   692   1      12.170331259999999      23.457629140000002      8.2587514599999992
   693   1      16.168992970000001             23.49138649      8.1351263800000009
   694   1      20.191933599999999      23.493684930000001              8.24666283
   695   1      24.507479279999998             23.39617659      8.4232524699999995
   696   1      28.493208249999999      23.488181109999999      8.2183148500000005
   697   1      1.9768321600000001      27.007123320000002      8.1837494300000007
   698   1      6.1779302400000002      27.035523820000002      8.0816377300000006
   699   1             10.21161285      26.862969400000001              8.23540223
   700   1             14.20677514             26.95260605      8.0914037400000005
   701   1             18.32559981      27.010719630000001      8.3051043300000007
   702   1             22.28747341      26.909966069999999      8.0640813900000001
   703   1      26.341986389999999      27.034361959999998      8.2810732599999994
   704   1             30.50589991      26.929279990000001      8.2195791600000003
   705   1             -0.01480073      28.114484950000001      8.8816163299999999
   706   1      3.9649379699999998   -0.050457750000000003      8.9603411699999995
   707   1      8.1397345399999992      28.100802949999999      8.9034798199999994
   708   1             12.39768902      28.154389680000001      9.0735204399999994
   709   1      16.198100530000001      28.208281970000002      9.0602811499999998
   710   1      20.513666709999999              0.00152801      9.0344870799999999
   711   1      24.288992149999999   -0.095992919999999995      9.0078217699999996
   712   1      28.452973289999999      28.115300730000001      8.9606037500000006
   713   1      2.2125543099999998      3.6314783400000001      9.0428275899999999
   714   1      6.0618882599999999      3.6579129400000001      8.9449346999999992
   715   1              10.0721285      3.5854978499999999      9.0212167500000007
   716   1             14.06192092      3.2558638200000001      8.9135823500000004
   717   1      18.194785620000001      3.5710487299999998      8.8787486599999994
   718   1      22.421570119999998      3.3901088100000001      8.8439380300000003
   719   1      26.589115530000001      3.3469458599999999      9.0514050400000006
   720   1      30.447504240000001      3.6898521899999999      9.0890284000000001
   721   1      32.505286069999997      7.0452507899999999      8.9363856699999999
   722   1      4.2081725900000002      7.1373087899999996      8.9029763899999992
   723   1      8.0282156600000008                6.814317      9.0103594099999995
   724   1      12.161888579999999      7.0212140099999996      9.0090020800000001
   725   1             16.08616872      7.1992349400000002      8.9145696900000004
   726   1      20.233054030000002      6.8056879800000001      9.0063865100000005
   727   1      24.128025000000001      6.8398749099999998              9.03551225
   728   1      28.484424099999998      6.9998974599999997      8.8787526700000008
   729   1      1.9034860499999999      10.614873429999999      8.9445040599999999
   730   1      6.0290647100000001             10.43483958      8.9922517899999992
   731   1      9.9671022300000001      10.393415510000001      9.1308361799999993
   732   1             14.36910059             10.42716252      9.0681115800000001
   733   1      18.216823489999999             10.44792457      8.8800316899999991
   734   1      22.377460989999999      10.544695239999999      9.0359798599999994
   735   1             26.15164871      10.627641089999999      8.8741637200000003
   736   1             30.30966759             10.64257851      8.8632664099999996
   737   1   -0.097722459999999997      13.944676189999999      9.0161973799999995
   738   1      4.0606920000000004             14.25796564      8.9534456700000007
   739   1      7.9743075799999996             14.02793806      9.0416554300000005
   740   1             12.17783639      13.894954289999999      8.9104058599999991
   741   1               16.214762              13.9757771      9.0268084500000008
   742   1      20.311275179999999              13.8791852      8.9134077099999995
   743   1      24.175769540000001      13.965719200000001      9.0125787099999997
   744   1      28.175775309999999      14.134570650000001      8.8839572199999992
   745   1      1.9233530000000001      17.623857319999999      9.0157042199999999
   746   1      5.8368388400000004      17.410906709999999      8.9572211500000005
   747   1      10.023999399999999             17.53709924      9.1040383800000004
   748   1      14.275265389999999      17.465354470000001      9.0411822500000003
   749   1             18.24015503             17.34337039      8.9177389100000006
   750   1             22.31726158      17.474028270000002      9.0239137899999999
   751   1      26.334672820000002      17.781396990000001      8.7685758699999994
   752   1      30.441003380000001             17.38713014      8.8935435199999997
   753   1    0.032294129999999997      21.081828900000001      8.8437257200000001
   754   1              4.21408424      20.911722860000001      9.0129584200000004
   755   1      8.3551280000000006             20.80963865      8.7940330699999993
   756   1             12.06035056             21.24920294      8.8548606500000009
   757   1      16.310145639999998      21.159617659999999      8.9137525699999998
   758   1             20.19059219             21.26565042      8.8534808100000006
   759   1      24.253654990000001      21.109772079999999      9.1789493600000007
   760   1      28.623930619999999      21.202546120000001      9.0254854099999999
   761   1      2.1925055000000002      24.709557180000001      8.7369137600000002
   762   1      6.2211698999999996             24.63260292      8.8014825900000009
   763   1             10.03847893      24.369376209999999      9.0143478699999999
   764   1             14.17367014      24.697676550000001      8.8878349799999992
   765   1      18.345171690000001      24.748900410000001      9.1661861499999997
   766   1      22.199007170000002             24.82464088      8.9794827500000007
   767   1      26.304524319999999      24.829530989999999      9.0820889200000003
   768   1      30.544536019999999             24.70045481      8.9301934999999997
   769   2             21.49825796             15.39971832      9.3365883899999993
   770   2      23.264490179999999      15.600124170000001      9.3302918300000002
