N2-dn2-coord-10bar/300K/snapshots/frame-60098/run-000/../data.lammps (written by ASE) 

770 	 atoms 
2  atom types
0.0      32.470343392086264  xlo xhi
0.0      28.120142247150884  ylo yhi
0.0      31.213473999158239  zlo zhi


Atoms 

     1   1      2.0293964600000001      1.1716090800000001    0.023552650000000001
     2   1      6.0880008999999999              1.17168918              0.02556874
     3   1      10.146952280000001              1.17170328    0.025416459999999998
     4   1      14.205754900000001      1.1716496700000001              0.02501565
     5   1             18.26456816              1.17166478              0.02504435
     6   1             22.32338141      1.1716496700000001              0.02501565
     7   1      26.382184030000001              1.17170328    0.025416459999999998
     8   1      30.441135410000001              1.17168918              0.02556874
     9   1  9.1780000000000006e-05      4.6866847900000002    0.025581599999999999
    10   1      4.0587011400000002      4.6866847900000002    0.025581599999999999
    11   1      8.1174961000000003      4.6866290399999997    0.025584639999999999
    12   1             12.17638011      4.6866852999999997              0.02491202
    13   1             16.23517979      4.6866942700000003    0.025006210000000001
    14   1      20.293956519999998      4.6866942700000003    0.025006210000000001
    15   1      24.352756209999999      4.6866852999999997              0.02491202
    16   1      28.411640219999999      4.6866290399999997    0.025584639999999999
    17   1      2.0293964600000001      8.2016395800000002    0.026613040000000001
    18   1      6.0881071599999999      8.2016314300000008              0.02543782
    19   1             10.14701835               8.2017045    0.025156850000000001
    20   1      14.205766049999999      8.2017080900000003    0.024990459999999999
    21   1             18.26456816      8.2017077599999997    0.025091249999999999
    22   1      22.323370260000001      8.2017080900000003    0.024990459999999999
    23   1      26.382117969999999               8.2017045    0.025156850000000001
    24   1      30.441029149999999      8.2016314300000008              0.02543782
    25   1  9.2789999999999998e-05             11.71671873    0.025573410000000001
    26   1              4.05870014             11.71671873    0.025573410000000001
    27   1      8.1176017700000003             11.71668698              0.02497914
    28   1             12.17637068             11.71673069    0.025001590000000001
    29   1      16.235177310000001      11.716730249999999    0.025074039999999999
    30   1      20.293959009999998      11.716730249999999    0.025074039999999999
    31   1      24.352765640000001             11.71673069    0.025001590000000001
    32   1      28.411534549999999             11.71668698              0.02497914
    33   1      2.0293964600000001             15.23167155              0.02525285
    34   1      6.0881728300000004      15.231678799999999    0.025062859999999999
    35   1             10.14698486      15.231762639999999               0.0250786
    36   1             14.20578841             15.23176782    0.025201990000000001
    37   1             18.26456816              15.2317707    0.025149979999999999
    38   1      22.323347900000002             15.23176782    0.025201990000000001
    39   1      26.382151459999999      15.231762639999999               0.0250786
    40   1      30.440963480000001      15.231678799999999    0.025062859999999999
    41   1      32.470327990000001      18.746748629999999    0.024951939999999999
    42   1      4.0588083299999997      18.746748629999999    0.024951939999999999
    43   1      8.1175770200000006      18.746803499999999    0.025222040000000001
    44   1             12.17637459      18.746799750000001    0.025428470000000002
    45   1      16.235159400000001      18.746805200000001    0.025487360000000001
    46   1      20.293976919999999      18.746805200000001    0.025487360000000001
    47   1      24.352761730000001      18.746799750000001    0.025428470000000002
    48   1             28.41155929      18.746803499999999    0.025222040000000001
    49   1      2.0293964600000001      22.261939099999999    0.025844880000000001
    50   1      6.0881419299999999      22.261841799999999    0.025489439999999999
    51   1             10.14692954             22.26176895              0.02551757
    52   1             14.20573559      22.261804690000002    0.025639160000000001
    53   1             18.26456816             22.26178625    0.025640119999999999
    54   1      22.323400729999999      22.261804690000002    0.025639160000000001
    55   1      26.382206780000001             22.26176895              0.02551757
    56   1             30.44099439      22.261841799999999    0.025489439999999999
    57   1  5.6450000000000003e-05      25.776936450000001              0.02613327
    58   1      4.0587364700000004      25.776936450000001              0.02613327
    59   1      8.1175325399999991              25.7767713    0.024734180000000001
    60   1      12.176376469999999      25.776831090000002              0.02545323
    61   1      16.235145939999999      25.776775220000001    0.025273360000000002
    62   1             20.29399038      25.776775220000001    0.025273360000000002
    63   1      24.352759840000001      25.776831090000002              0.02545323
    64   1      28.411603769999999              25.7767713    0.024734180000000001
    65   1  0.00024266000000000001              2.34304215     0.80166565000000001
    66   1      4.0585502699999996              2.34304215     0.80166565000000001
    67   1      8.1157394600000003              2.34454954     0.80169402000000001
    68   1             12.17601256      2.3433829099999999     0.80116898000000003
    69   1      16.235258170000002      2.3433209100000001     0.80090046999999998
    70   1      20.293878150000001      2.3433209100000001     0.80090046999999998
    71   1      24.353123750000002      2.3433829099999999     0.80116898000000003
    72   1      28.413396859999999              2.34454954     0.80169402000000001
    73   1      2.0293964600000001      5.8582218700000004     0.80119762000000005
    74   1      6.0870566899999998      5.8583336700000004              0.80194851
    75   1             10.14649655              5.85853131     0.80121584000000001
    76   1             14.20597894      5.8582938599999999     0.80086840999999998
    77   1             18.26456816      5.8583798500000004               0.8010794
    78   1      22.323157380000001      5.8582938599999999     0.80086840999999998
    79   1             26.38263976              5.85853131     0.80121584000000001
    80   1      30.442079629999999      5.8583336700000004              0.80194851
    81   1  0.00019438999999999999      9.3717771800000005     0.80082061000000004
    82   1      4.0585985400000002      9.3717771800000005     0.80082061000000004
    83   1      8.1175070500000004      9.3725002699999997     0.80149060999999999
    84   1      12.176590020000001      9.3733583399999993     0.80088261999999999
    85   1             16.23512199      9.3733789200000004              0.80106506
    86   1             20.29401433      9.3733789200000004              0.80106506
    87   1      24.352546289999999      9.3733583399999993     0.80088261999999999
    88   1      28.411629269999999      9.3725002699999997     0.80149060999999999
    89   1      2.0293964600000001             12.88692854     0.80220621000000003
    90   1      6.0883212999999996             12.88743848     0.80138414999999996
    91   1      10.147128609999999             12.88859852     0.80085256000000005
    92   1             14.20571782      12.888558189999999     0.80113791000000001
    93   1             18.26456816      12.888409899999999     0.80109381000000002
    94   1      22.323418490000002      12.888558189999999     0.80113791000000001
    95   1             26.38200771             12.88859852     0.80085256000000005
    96   1      30.440815019999999             12.88743848     0.80138414999999996
    97   1              0.00012365      16.403222639999999     0.80145666999999998
    98   1      4.0586692700000002      16.403222639999999     0.80145666999999998
    99   1      8.1174337899999998      16.403825260000001     0.80097196999999998
   100   1              12.1761021             16.40390721     0.80133072000000005
   101   1             16.23503496      16.403861750000001     0.80140014999999998
   102   1      20.294101359999999      16.403861750000001     0.80140014999999998
   103   1      24.353034220000001             16.40390721     0.80133072000000005
   104   1      28.411702529999999      16.403825260000001     0.80097196999999998
   105   1      2.0293964600000001      19.919205120000001     0.80066369999999998
   106   1              6.08752564             19.91894023     0.80122479000000002
   107   1      10.146078839999999             19.91919038     0.80159137999999996
   108   1      14.204993419999999              19.9192584     0.80178742000000003
   109   1             18.26456816      19.919377350000001     0.80194975999999996
   110   1      22.324142899999998              19.9192584     0.80178742000000003
   111   1      26.383057470000001             19.91919038     0.80159137999999996
   112   1      30.441610669999999             19.91894023     0.80122479000000002
   113   1              0.00142012      23.434536609999999     0.80178442000000005
   114   1      4.0573728100000004      23.434536609999999     0.80178442000000005
   115   1      8.1165862000000004      23.433936769999999     0.80182306000000003
   116   1             12.17555218      23.433996919999998     0.80156656000000004
   117   1             16.23465491      23.434040110000002     0.80170828999999999
   118   1      20.294481409999999      23.434040110000002     0.80170828999999999
   119   1      24.353584130000002      23.433996919999998     0.80156656000000004
   120   1      28.412550110000002      23.433936769999999     0.80182306000000003
   121   1      2.0293964600000001      26.949875330000001              0.80297246
   122   1      6.0858208300000003      26.950066320000001              0.80215291
   123   1             10.14598146      26.949241430000001     0.80165810000000004
   124   1             14.20520604      26.948673230000001     0.80131923999999999
   125   1             18.26456816             26.94858318     0.80108193999999999
   126   1      22.323930279999999      26.948673230000001     0.80131923999999999
   127   1      26.383154860000001      26.949241430000001     0.80165810000000004
   128   1             30.44331549      26.950066320000001              0.80215291
   129   1      32.523168830000003             -0.01934785              1.46878668
   130   1      4.0449494000000001             28.20117398              1.44238032
   131   1      8.0891334100000005    0.053264899999999997      1.5597221999999999
   132   1             12.18331294             28.08790205      1.5081455500000001
   133   1      16.266937209999998      28.186110429999999               1.3891639
   134   1      20.300865160000001   -0.077192559999999993      1.5585965100000001
   135   1      24.436844669999999              28.2392079      1.3690626100000001
   136   1      28.400939789999999      28.152345799999999              1.42235355
   137   1      2.1000887600000002      3.6042503400000001              1.54008531
   138   1      6.0731026799999999              3.40243312      1.3970500400000001
   139   1             10.05741224              3.49583618      1.5184027099999999
   140   1             14.27320761      3.3845217399999998      1.5671728300000001
   141   1             18.26804482      3.3837908699999999      1.4423936500000001
   142   1      22.405500539999998      3.6090584400000001      1.5072641899999999
   143   1      26.446190309999999      3.5956965400000001              1.44233977
   144   1      30.439623510000001      3.4548494399999998              1.59073033
   145   1      32.390163530000002              7.06595292              1.44305526
   146   1      3.9771240699999999      7.0951329599999999      1.5576113700000001
   147   1      8.1169661400000006      6.8407171599999996              1.38058803
   148   1      12.212724740000001      7.0369520799999998      1.6145919200000001
   149   1      16.208777600000001      6.9685142000000004      1.3380567000000001
   150   1      20.260709080000002      7.0308942800000001      1.4910987499999999
   151   1      24.328649120000001      7.0018075599999996      1.3462429899999999
   152   1      28.405499939999999      7.0664056500000001              1.32238916
   153   1              1.98504634             10.44044104      1.5126602300000001
   154   1      6.0935468699999999      10.485801029999999               1.4337389
   155   1      10.226991290000001             10.49035795      1.3800094599999999
   156   1      14.246967189999999      10.585720500000001      1.4999849599999999
   157   1             18.21406949             10.57794518      1.4242411399999999
   158   1      22.386045029999998             10.57709723              1.51139961
   159   1      26.285470650000001             10.58741099      1.5347326100000001
   160   1             30.44409903      10.513341970000001      1.5089854199999999
   161   1      32.533429900000002      13.941736909999999      1.3230071299999999
   162   1      4.1160366100000001             14.00796375      1.4207267699999999
   163   1      8.0487867699999995      14.049039349999999              1.43555327
   164   1             12.17359639             14.03570611              1.53267994
   165   1      16.145789189999999      14.137599979999999      1.3867771499999999
   166   1             20.28110792             14.13690939              1.39127154
   167   1      24.404807819999998             14.13904694              1.49723531
   168   1               28.317107             14.05893069              1.54109165
   169   1      2.0652907599999999      17.621209140000001              1.42623517
   170   1      6.0693739300000003      17.615726240000001      1.4864062199999999
   171   1             10.07889048      17.613090190000001      1.3957758199999999
   172   1      14.229459950000001      17.575037519999999              1.42073348
   173   1             18.17554294      17.489465039999999      1.4828336799999999
   174   1      22.407902979999999             17.60402251              1.35199169
   175   1      26.333605819999999             17.53662078              1.66344139
   176   1      30.378803090000002      17.542321050000002      1.4269202700000001
   177   1             32.45130047      21.070044159999998              1.57909086
   178   1      3.9951257500000001      21.087258219999999              1.54653986
   179   1      8.1358421300000003             21.09500602      1.5301059400000001
   180   1      12.173221079999999             21.15591496      1.5495542200000001
   181   1      16.188962329999999      21.076593259999999              1.45938156
   182   1             20.32598561      21.119354609999998              1.36456468
   183   1             24.32343547      21.036126500000002              1.38529711
   184   1      28.347201210000001             21.14948961               1.4558593
   185   1      2.0039785999999999      24.528574259999999              1.38701718
   186   1      6.0867980499999996      24.700040860000001      1.4000767300000001
   187   1      10.156181630000001      24.595961160000002      1.5658316699999999
   188   1             14.27491051             24.54244357      1.4315209600000001
   189   1      18.157018399999998      24.581414630000001      1.5428292400000001
   190   1      22.289371689999999      24.644344440000001              1.45449899
   191   1      26.332228990000001      24.519611619999999              1.49101996
   192   1      30.444542420000001      24.601108979999999      1.4966424700000001
   193   1      2.0711454300000001      1.2400340599999999      2.3711396900000001
   194   1              6.03061442      1.1196600999999999              2.42565835
   195   1      10.173460199999999              1.08673099      2.3911040799999999
   196   1      14.224942629999999      1.1515560499999999      2.4654069399999998
   197   1      18.334364050000001      1.1075712099999999      2.3884250499999999
   198   1             22.31569017      1.1773283299999999      2.4189607899999999
   199   1      26.389258099999999      1.1471738899999999      2.3520348100000001
   200   1      30.512733560000001              1.14944797      2.4559499499999999
   201   1      32.323571350000002      4.7374087400000002               2.4161766
   202   1      4.0895243299999997      4.6219010599999999      2.4267032199999998
   203   1      8.1115593500000003      4.5475770799999999              2.43827967
   204   1             12.17991454      4.6701903600000003      2.4955878999999999
   205   1      16.269226239999998      4.6386520100000004      2.4080569600000001
   206   1      20.331862050000002      4.7255312099999998      2.2757126900000002
   207   1             24.26229811      4.7268371699999996      2.4661884700000001
   208   1             28.33949939              4.70803058      2.3973211000000001
   209   1              1.94096929      8.1654570799999995      2.4235546000000001
   210   1      6.1525702600000001      8.0390419000000009      2.4632629000000001
   211   1      10.145015239999999      8.2446230699999994      2.4216377499999999
   212   1             14.28607289      8.2436097400000001      2.4584411500000001
   213   1      18.276658309999998      8.2125115799999993      2.4776675500000001
   214   1      22.303841139999999      8.2521969199999994      2.3636722400000001
   215   1      26.342302579999998      8.0842064800000006      2.2958009499999998
   216   1             30.33755055      8.1631748799999997      2.4675502800000002
   217   1    0.027534889999999999      11.698266670000001      2.3699387199999999
   218   1      4.0243324700000001              11.6743062      2.4233053299999998
   219   1      8.1073153999999992      11.750082389999999      2.4730803699999999
   220   1             12.16876753             11.67476166      2.3612577400000001
   221   1              16.2235437      11.660727359999999              2.52474737
   222   1      20.230406500000001      11.795503070000001      2.4752625699999999
   223   1      24.324223920000001              11.8645809      2.4146072900000002
   224   1      28.396819820000001             11.66228652      2.3356146999999998
   225   1              2.07370528             15.30777048               2.3724615
   226   1      6.1183523700000002              15.1372401      2.4080896100000002
   227   1      10.230194450000001             15.30354153      2.4619417299999999
   228   1             14.23771548             15.15355654              2.38895861
   229   1               18.093315      15.236313579999999              2.41664908
   230   1      22.258021660000001      15.216350780000001      2.3745965999999998
   231   1      26.433654709999999             15.22602753      2.4715140099999999
   232   1              30.3818354      15.093369920000001      2.3498774600000001
   233   1      32.391504730000001      18.723804829999999      2.3014423399999999
   234   1      4.1707002500000003      18.650905139999999      2.5129992799999998
   235   1      8.0568418099999999             18.68074068              2.47810715
   236   1             12.13424242             18.69789419      2.4334388100000002
   237   1      16.321419079999998      18.773691769999999      2.3843673299999999
   238   1      20.213039439999999      18.644487399999999      2.3838722400000001
   239   1             24.33946907      18.781127909999999      2.3246582600000001
   240   1             28.32747049      18.896097919999999      2.4461007000000001
   241   1              1.90809757      22.251298940000002              2.43978004
   242   1      6.0348420300000001      22.180274619999999      2.3919028299999998
   243   1      10.215692580000001      22.241988809999999      2.4356099499999999
   244   1      14.145442989999999      22.229548090000002      2.4094631099999999
   245   1      18.201824899999998      22.107492570000002              2.48232286
   246   1      22.352756880000001      22.238302740000002              2.34940572
   247   1             26.32258341      22.261072110000001              2.40185059
   248   1             30.31258936      22.262484969999999      2.4379286800000002
   249   1      32.399356509999997             25.81500204              2.39186502
   250   1      4.0279982399999996             25.86058147      2.3483300800000002
   251   1      8.1291567699999998      25.741810690000001      2.4420599799999998
   252   1             12.16336044             25.65053486      2.3570124099999998
   253   1      16.206818940000002      25.753660119999999              2.30514493
   254   1      20.167115590000002      25.770876579999999      2.4742349899999998
   255   1             24.33284226      25.894458180000001              2.38972286
   256   1             28.33263285      25.803366369999999      2.3294904399999998
   257   1      32.511489099999999      2.3495678299999998      3.2232244400000001
   258   1      4.0728857600000001      2.3819120699999998      3.2578102499999999
   259   1      8.1164268699999997      2.2282053099999999      3.2820108499999998
   260   1             12.13350181      2.2992834100000001      3.2373289600000001
   261   1      16.243848629999999      2.2389194099999998      3.2138986599999999
   262   1      20.323487780000001      2.3417822500000001      3.2480586800000002
   263   1      24.432898980000001      2.3873955499999999      3.2387261999999999
   264   1             28.31677161      2.3377331200000002      3.2118608700000002
   265   1      2.0094480099999998      5.8160148999999999      3.2088192499999999
   266   1      6.1137650499999996      5.8494635800000001      3.3687002599999998
   267   1             10.07168401      5.7979588099999999      3.3878952199999999
   268   1      14.227564900000001      5.8081120000000004              3.30900719
   269   1      18.320279540000001              5.83508374      3.2783652999999999
   270   1      22.322446280000001      5.7766828400000003      3.1993828099999999
   271   1      26.262010790000001      5.7356056999999998      3.2333150399999999
   272   1             30.36020426      5.8176488600000003      3.2590719699999999
   273   1   -0.090705709999999995      9.3270662800000004      3.2550679100000002
   274   1              4.01754385              9.39380229      3.1682383000000001
   275   1      8.1598544400000002      9.3920429199999997      3.2161270599999998
   276   1             12.07144203      9.5369592999999995      3.2076448000000002
   277   1      16.268568940000002      9.2776041100000004      3.2674589699999999
   278   1             20.35669614      9.4342831199999999      3.1904497799999998
   279   1      24.527264039999999      9.4263562299999997      3.1731985800000002
   280   1      28.407837069999999      9.4252813700000004      3.2536976900000001
   281   1      2.0242892800000001      12.907028670000001      3.2469180099999999
   282   1      6.0878670599999998             12.74531629              3.18872708
   283   1             10.07354447             12.97200387      3.2541733000000002
   284   1             14.15930139             12.85959068      3.3723578600000002
   285   1      18.266578389999999      12.831569699999999      3.2945188399999998
   286   1      22.352564520000001      12.966291330000001              3.31042513
   287   1      26.305133340000001             12.89831783      3.3446064799999999
   288   1      30.419263050000001      12.824297209999999              3.21559573
   289   1             32.33544698      16.358346239999999      3.2742828500000001
   290   1      4.0061260299999999      16.469752379999999      3.2841420600000002
   291   1      8.0895514100000003      16.415173150000001              3.23898361
   292   1             12.27857895      16.297018550000001      3.2098944899999999
   293   1             16.07161988             16.49225302      3.3365918200000002
   294   1             20.33673258      16.425030339999999      3.2320838699999999
   295   1      24.376645759999999      16.505612079999999              3.25746424
   296   1      28.388225179999999             16.35168504      3.2304594999999998
   297   1      2.0637689699999999      19.850623389999999              3.21044565
   298   1      6.1059167800000003      19.946452690000001      3.2795618700000002
   299   1      10.076508970000001      19.786706209999998              3.25578411
   300   1      14.207955460000001      20.015009639999999      3.2613558199999999
   301   1      18.242711979999999             19.79518977      3.3092256500000001
   302   1      22.263838830000001             19.87157105      3.2464666599999998
   303   1      26.337254680000001      19.923160119999999      3.1874933200000002
   304   1             30.29151529      19.866871969999998      3.2330977500000002
   305   1      32.464050569999998      23.601053329999999              3.23749602
   306   1      4.0297227700000002      23.424435240000001      3.1928448600000001
   307   1      8.1601105700000005      23.330520150000002      3.2866380799999999
   308   1      12.168792310000001      23.395273499999998      3.2722909599999999
   309   1      16.308797439999999                23.47381      3.2310629300000002
   310   1      20.223510990000001      23.357630260000001              3.19735462
   311   1             24.20205408      23.509333380000001      3.1625204999999998
   312   1      28.420398110000001      23.484622399999999      3.2795238900000001
   313   1              1.97931659             27.05442875              3.16403408
   314   1      6.0883055400000003             27.02798731      3.2915235699999998
   315   1              10.1693681      26.915632930000001      3.3392104800000002
   316   1             14.07689757      26.878805969999998      3.1609839800000001
   317   1      18.133282090000002             26.91658353      3.2315165499999998
   318   1      22.274118980000001      26.889114960000001      3.3646170400000002
   319   1      26.386480949999999      26.926835100000002      3.2890461100000001
   320   1             30.37276026      26.941821239999999      3.2603333000000001
   321   1             -0.00692759    0.083419820000000006      4.0010658399999999
   322   1      4.0754139399999998      28.153884250000001      3.9996598699999999
   323   1      8.2259155699999997      28.054069569999999      4.0961594200000002
   324   1             12.18596576      28.140662280000001              4.04719827
   325   1      16.117961380000001             -0.17122761      4.0826891700000001
   326   1      20.202034470000001             28.09113095      4.0911908099999996
   327   1             24.39592567      28.111603909999999      4.0299268699999997
   328   1             28.26262079  -0.0057314999999999996      4.1006452600000003
   329   1               2.0737492              3.53866441      3.9864627000000001
   330   1      6.0642776200000004      3.4082436999999999      4.1780145800000001
   331   1      10.133672580000001      3.4217267699999998      4.0505725300000002
   332   1      14.308554089999999      3.3506721399999999      4.2090628499999996
   333   1             18.23082501      3.5357840500000002              4.05289111
   334   1      22.302523130000001              3.42199433      4.0031356599999999
   335   1      26.344482559999999      3.5895416500000001      4.1449989199999999
   336   1      30.473043100000002              3.46667835      4.1759188299999996
   337   1    0.029357379999999999      6.8826653499999999      3.9870175400000001
   338   1      3.9649110900000002      7.0126408199999997      4.0722052299999998
   339   1      8.1103735100000005              7.09554478      4.0396175000000003
   340   1              12.2402339      6.9927863800000001      4.1870082399999999
   341   1             16.32686992      6.9543628399999999      4.1339115599999996
   342   1      20.291375680000002      6.9943273100000001      4.0335937499999996
   343   1      24.282416479999998      6.9495040100000001      4.0734550299999999
   344   1      28.204152560000001      7.0049221199999998      3.9689539800000002
   345   1              1.87429768             10.54814944      4.0648213799999997
   346   1      6.0710678600000003             10.30176749      4.0052890699999999
   347   1             10.06429719      10.577513120000001      4.0362044800000003
   348   1             14.25160788      10.513068369999999      3.9934415599999999
   349   1      18.309314149999999      10.551506270000001      4.0822445099999998
   350   1             22.23874434      10.648549190000001      4.1461752299999999
   351   1      26.354340260000001             10.53795423      4.0811939500000003
   352   1             30.45622286      10.543289489999999              3.96766635
   353   1      32.414007810000001      14.098600060000001      4.0532065700000004
   354   1      4.0064233400000004             14.06705126      4.0885464999999996
   355   1      8.0650130400000002             14.01187728      4.1511099500000004
   356   1             12.18782622      14.042071549999999      4.0155007100000004
   357   1      16.366568860000001      13.992648989999999      4.2367209299999997
   358   1      20.275685169999999      14.090093230000001      4.1020766499999999
   359   1             24.36805957             14.10975154      4.1412299199999998
   360   1      28.413623640000001             13.91505924      4.0111363000000004
   361   1      1.9463770600000001      17.606418649999998      3.9552883400000001
   362   1      6.0890037799999996              17.5363331      4.1033218800000002
   363   1              10.1362211             17.57871325      3.9829338399999998
   364   1             14.21703799      17.665869749999999      4.1417676300000004
   365   1      18.248837179999999      17.524571949999999      4.1843187300000002
   366   1      22.291182540000001      17.522202020000002      4.0915018500000002
   367   1             26.30867417      17.620862809999998      4.1534932900000001
   368   1      30.349133609999999      17.588837099999999      4.0648143499999998
   369   1             -0.11430677             21.11806936      3.9609404399999999
   370   1      3.9714164099999998      21.013354320000001      4.0700233399999997
   371   1      8.0834667899999992             21.12646646      4.0793775200000004
   372   1      12.117271000000001             21.05378361      4.0629393800000004
   373   1             16.16479859      21.153424189999999      4.1063347700000001
   374   1      20.174107289999998             21.07779317      3.9681986899999999
   375   1             24.28403763              21.1173894              3.95151962
   376   1      28.325824430000001             21.14004207      4.0928337099999998
   377   1      2.1498870600000002      24.668623830000001      4.0312673200000004
   378   1      6.1268437100000002      24.661515439999999              3.91979649
   379   1             10.06584479             24.53515436               4.0599935
   380   1             14.21411838      24.597911710000002      4.0039278100000004
   381   1      18.300643139999998             24.57575821      4.0968615899999996
   382   1             22.13305763             24.58432024      4.0752556699999998
   383   1             26.28502542              24.5439322      4.0811013899999997
   384   1      30.287706060000001      24.617861829999999      3.9994619400000002
   385   1      2.0629468599999998      1.1997663000000001      4.8821085100000001
   386   1      6.0539355700000002               1.0278684      5.0412142500000003
   387   1      10.187207669999999              1.09995362      4.9250164500000002
   388   1      14.156118940000001      1.1544342299999999      4.9891268000000002
   389   1      18.094500920000002              1.02854409      4.9226604800000002
   390   1      22.272537379999999      1.0826505399999999      4.9901652900000002
   391   1      26.324745360000001              1.15007831      4.8202027100000002
   392   1      30.360668990000001      1.1136918499999999      4.9911648900000003
   393   1      32.463826539999999      4.5608826499999999      4.9208813899999999
   394   1      4.0471721199999999      4.7514301200000002      5.0014737499999997
   395   1      8.1927035299999993      4.5817907699999996      5.0204851000000001
   396   1             12.21858548      4.4864857200000001      4.9905589700000004
   397   1      16.330002010000001      4.5984009400000003      4.9924341200000004
   398   1      20.245031600000001      4.6998529199999997              4.89121775
   399   1      24.278584930000001      4.7225555999999997      4.8585097499999996
   400   1      28.340353010000001      4.5811154299999997      5.0454655900000001
   401   1      1.8146645400000001      8.2111074199999994      4.9054327999999998
   402   1      6.0582567300000001      8.1619485399999991      5.0575694899999997
   403   1             10.12067897      8.1913933300000004      4.8583022199999997
   404   1             14.25135248      8.1614846100000005      4.9451900599999998
   405   1      18.306169369999999      8.0907524199999994      4.8769425499999999
   406   1      22.481297619999999      8.3123918299999993              4.97455085
   407   1             26.41462276      8.1531939100000006                4.930771
   408   1      30.471162289999999      8.2020491999999994      4.7851543400000001
   409   1             32.30451781             11.77199081      4.8885484899999998
   410   1      3.9097820099999998             11.75382312      4.9013595199999997
   411   1      8.1263112999999993             11.71568465      4.9902149199999997
   412   1      12.052346249999999             11.74985253      4.9066145199999998
   413   1      16.204101309999999             11.70845651      4.9227811199999998
   414   1      20.178060200000001              11.7012062      4.9091775899999996
   415   1      24.230089240000002             11.77766886      5.0256498299999999
   416   1      28.395767620000001      11.674353480000001      4.8811878200000001
   417   1              1.97853269      15.366990019999999      4.8595705899999997
   418   1      5.9989782299999996             15.21007957      4.9910630600000001
   419   1             10.10728033              15.2527141      4.9939331100000004
   420   1             14.13504621             15.22742296      5.0856575299999998
   421   1              18.1732999      15.207700969999999      4.9990765899999996
   422   1      22.288966720000001             15.23269404      4.9897316900000002
   423   1             26.44234612      15.341026060000001      4.9448623500000002
   424   1             30.44788475      15.166127960000001      4.8644388999999997
   425   1      32.494220439999999      18.814429700000002      4.8226562900000003
   426   1      4.0077851000000004      18.643006799999998      4.8674967799999997
   427   1              8.07824001              18.7404595      4.9849975000000004
   428   1             12.18155859             18.70685975      4.9880709300000001
   429   1      16.381611500000002             18.78639424      4.8996216300000004
   430   1      20.307428810000001      18.691697999999999      4.8281283699999999
   431   1      24.313349970000001             18.83993212      4.8872116400000003
   432   1      28.440471840000001      18.853841299999999      4.9512366800000001
   433   1              1.98180029      22.219923319999999      4.8692026000000004
   434   1      6.0205504200000002      22.138117780000002      4.8540661600000004
   435   1             10.06589102      22.327272879999999      4.9970778600000001
   436   1             14.16297939      22.168621470000001              5.00516512
   437   1      18.340371210000001      22.160000780000001      5.1184820999999996
   438   1      22.215469500000001      22.244063189999999      4.7942064899999997
   439   1      26.315310050000001      22.170198490000001      4.9647920499999998
   440   1             30.49912896             22.27929151      4.9079049799999996
   441   1      32.506259210000003      25.784247059999998      4.9494530699999997
   442   1      4.0351119799999999             25.73836068      4.9192427900000002
   443   1      8.1266580899999994      25.621548950000001      4.9407359399999997
   444   1      12.170795650000001      25.681887249999999      4.9785186000000001
   445   1      16.119050909999999      25.612520119999999              4.86860187
   446   1             20.22480595      25.756258549999998      4.8899595099999997
   447   1      24.302413309999999      25.784175359999999      4.9305948300000004
   448   1             28.39254472      25.833356210000002      4.8930632599999999
   449   1      32.429812200000001      2.2466996799999999      5.6260773100000003
   450   1      3.9955293099999998      2.3372669699999999      5.7475815099999998
   451   1      8.1624397099999992              2.24757199              5.83922235
   452   1             12.21565316      2.2693618600000001      5.7776625399999997
   453   1             16.25753688      2.2786594199999999      5.8636088900000001
   454   1      20.174955189999999      2.2593145200000002      5.6500650400000003
   455   1      24.349329449999999      2.2601151900000001      5.6103190999999999
   456   1      28.301602620000001      2.2735454499999999      5.8669503900000004
   457   1              1.97733498      5.8330339499999999      5.6984179499999996
   458   1      6.1500589999999997      5.8210980299999999      5.8306926099999998
   459   1      10.205725510000001      5.7865576000000001      5.7604299699999997
   460   1             14.36514916      5.7269721899999997      5.7167439499999997
   461   1      18.290619190000001      5.8566675500000001      5.7424661400000003
   462   1             22.27344145      6.0013040799999997      5.6538375099999998
   463   1      26.356752839999999      5.8009561999999999      5.7435919000000002
   464   1      30.263961760000001      5.8195496799999997      5.7101261399999999
   465   1             -0.10612581      9.3488021400000001      5.7801332700000003
   466   1      3.7942877199999998      9.3650351500000006      5.6935866099999997
   467   1      8.1145709999999998      9.1787785900000003      5.7318857100000002
   468   1             12.21349751      9.3512352500000002      5.6646879800000001
   469   1      16.179207349999999      9.3202590199999999      5.6831745700000003
   470   1      20.354413480000002      9.3114641200000001      5.6999886899999996
   471   1             24.42784747              9.32382402      5.7656268500000003
   472   1      28.408464729999999      9.3050507600000003      5.7167700300000002
   473   1      2.0033423699999999      13.042108989999999              5.66330708
   474   1      6.0605808899999998             12.77129409      5.7269133300000004
   475   1             10.16718833             12.80686491              5.81703203
   476   1             14.14573876              12.9626248      5.7259710000000004
   477   1      18.209595929999999             12.86444476      5.7947085200000004
   478   1      22.263919810000001             12.90174223              5.82477511
   479   1      26.393634509999998             12.90926561      5.7008406799999998
   480   1      30.375737319999999      12.832867759999999              5.84577116
   481   1      32.379771949999999      16.433445620000001      5.6586608199999997
   482   1              4.02266849      16.396448029999998              5.71629875
   483   1              8.04937419             16.31739906      5.6873012899999997
   484   1      12.151976400000001      16.418731220000002              5.78253109
   485   1      16.168692220000001             16.40620745      5.6534504999999999
   486   1              20.2202266      16.304314779999999      5.7363540200000003
   487   1      24.334419159999999      16.420002950000001      5.6555485299999999
   488   1      28.415263039999999      16.374996620000001              5.58292228
   489   1      2.0677183000000001      19.909713419999999      5.7583128700000001
   490   1      6.0187542499999998      19.867255709999998      5.8056202800000003
   491   1             10.05791614      19.877217430000002      5.7428094999999999
   492   1      14.238700740000001             19.79612118      5.6138328599999996
   493   1      18.261129700000001             19.85491773      5.7590830799999999
   494   1      22.374970189999999      19.864796689999999      5.7382197100000001
   495   1      26.307265489999999      19.815996729999998      5.5562337599999996
   496   1             30.48933049      19.997629799999999      5.7740548799999996
   497   1             32.45532034      23.529186580000001      5.7125942500000004
   498   1      4.1260636399999999      23.448697589999998      5.7135297700000001
   499   1      8.1066044900000005      23.310624170000001      5.7814890400000003
   500   1             12.11531913      23.316885280000001      5.6420714299999997
   501   1      16.170879289999998             23.34801727      5.7001142600000003
   502   1      20.303677440000001      23.527197780000002      5.6863397300000003
   503   1             24.26955821      23.374259729999999      5.6719890399999997
   504   1      28.437957109999999             23.49150435      5.7182976999999999
   505   1              2.03631552      27.057821489999998      5.6040777899999998
   506   1      6.1612162100000001      26.844370179999999      5.7119294600000003
   507   1              10.1501839      26.798939050000001              5.82545322
   508   1      14.127508799999999      26.824251100000001      5.6271087399999997
   509   1             18.31752449      26.831052249999999      5.7620938700000002
   510   1      22.294331889999999      26.832993940000001      5.7543467899999996
   511   1      26.387568139999999      26.975896850000002      5.7985112299999999
   512   1      30.490336460000002      26.952152439999999      5.6739250800000001
   513   1      32.546566669999997             28.18127316      6.5721700700000003
   514   1      4.0844665600000001    -0.16279560000000001      6.5588841000000002
   515   1      8.1378768200000007   -0.076921779999999995      6.5987629300000004
   516   1             12.20808725      27.969308999999999      6.6313736499999996
   517   1      16.127935919999999      27.993766919999999      6.6845419000000001
   518   1             20.25601176             28.00703678      6.5517295799999999
   519   1      24.242167080000002             28.00555129      6.5505242900000002
   520   1      28.506465519999999  -0.0057347199999999996      6.5404659799999996
   521   1      1.9504336499999999      3.5153052200000001              6.59997071
   522   1      6.1254871199999998      3.5175707699999998              6.61377243
   523   1             10.16147466              3.35156046      6.6168281499999999
   524   1             14.22537517      3.4945337300000001      6.7186169199999997
   525   1      18.349273929999999      3.5434443600000001      6.5463942399999997
   526   1      22.234531709999999      3.4907620600000002              6.50214932
   527   1             26.30441583      3.3974745999999998      6.6147946600000003
   528   1             30.43406821               3.4307013      6.6215316599999996
   529   1    -0.12757508000000001      6.9965624100000001      6.4250333299999998
   530   1      3.9847258399999999      7.0664814500000004      6.5539273299999996
   531   1      8.1375910099999995      6.9345560099999997      6.5475478499999999
   532   1             12.08546452      7.0511133600000004      6.5612060000000003
   533   1      16.247400930000001      7.0481135100000003      6.6517275299999996
   534   1      20.378197549999999      7.1277265200000004               6.5279745
   535   1             24.32309927      6.9655614200000002      6.6525681499999996
   536   1             28.34146642              6.87522126      6.5403007100000004
   537   1              1.87848617      10.674891799999999      6.4651008599999997
   538   1      5.9390503399999997      10.404116119999999      6.5096976299999998
   539   1      10.252514720000001             10.56898947      6.5581872900000002
   540   1             14.18249621             10.63227711      6.6004200700000002
   541   1      18.247402600000001             10.40911599      6.5703404799999996
   542   1      22.244682269999998             10.54413087      6.6422129999999999
   543   1             26.35643937             10.52542059      6.5687840299999998
   544   1      30.371176720000001      10.519049450000001      6.5269463700000001
   545   1      32.442258289999998      14.064024809999999      6.5415409499999999
   546   1      4.1774280099999999      14.070399780000001      6.6621706600000001
   547   1      8.0173197100000007      13.982840210000001      6.6487972900000001
   548   1      12.104180530000001             14.15527378      6.5626101700000001
   549   1      16.180442979999999             14.07646362      6.6343180000000004
   550   1      20.229478069999999      14.043289400000001      6.6179354300000002
   551   1             24.34452941             14.07708268      6.6124290500000003
   552   1             28.33885471      14.088959900000001      6.6115571900000001
   553   1              1.96705079             17.61109635      6.4595546500000003
   554   1      6.0380617000000001      17.474553159999999      6.6130964299999997
   555   1              10.1519326      17.480398619999999              6.57582281
   556   1             14.21017176      17.492898960000002      6.6277199800000002
   557   1      18.267006309999999      17.470493600000001      6.5972765899999999
   558   1             22.31398768      17.513881399999999      6.6993645199999996
   559   1             26.51040579      17.616089259999999      6.5700866400000004
   560   1      30.413932039999999             17.49346474      6.5530303099999996
   561   1    0.053907240000000002      21.119521160000001      6.6498488800000004
   562   1      4.0701582500000004             21.03382517      6.5821028300000002
   563   1      8.0088866299999992      21.007722319999999      6.6833124499999998
   564   1      12.239040729999999      20.894753380000001      6.5760418600000001
   565   1      16.252957330000001      21.028821610000001      6.5573020599999996
   566   1      20.392148420000002             21.06056774      6.5771498900000003
   567   1             24.36480796      21.078070480000001      6.5633703800000003
   568   1      28.396033880000001             21.05715782      6.5387491799999999
   569   1              2.08499575      24.639743299999999      6.5648824499999998
   570   1      6.1766392999999997      24.506515319999998      6.4128610899999998
   571   1      10.023165000000001      24.467249800000001      6.6290530499999996
   572   1             14.26873017      24.452386239999999      6.6826332500000003
   573   1      18.260532380000001      24.529759290000001      6.5657769699999999
   574   1      22.331246719999999      24.606028429999999      6.5383716200000004
   575   1      26.355739239999998      24.579558339999998      6.5841602000000004
   576   1             30.45809783      24.732777939999998      6.5442778300000004
   577   1      2.0802108499999998      1.1725779199999999      7.5145755200000002
   578   1      5.9167216500000004              1.10585829              7.65258298
   579   1      10.136678910000001     0.95830709000000003      7.5549075200000004
   580   1             14.08621714              1.15531077      7.5190230099999997
   581   1      18.232372219999998              1.18250934      7.6606043599999998
   582   1      22.271472880000001              1.18456341      7.5479582799999996
   583   1      26.347567059999999              1.14959349      7.5710301600000003
   584   1      30.467948140000001      1.1029930699999999      7.5597587199999996
   585   1   -0.056375710000000002      4.6580144600000004      7.3225689300000001
   586   1              3.79367579      4.5639457400000003      7.5338218399999999
   587   1      8.0985749600000005              4.47942353      7.6576620999999996
   588   1             12.07873966              4.55446025      7.7298470999999997
   589   1      16.235604810000002      4.7369159500000002      7.5195726499999997
   590   1      20.330419509999999      4.7937735799999999      7.4696127399999996
   591   1             24.32612013      4.6395063299999997      7.4789724599999996
   592   1      28.371843869999999                4.429799      7.4609382799999997
   593   1      1.9222264099999999              8.23566748      7.6030828599999998
   594   1      6.1819098300000004      8.1314188000000005      7.4877245300000004
   595   1      10.140290370000001      8.1877300000000002              7.54367754
   596   1               14.263698      8.1166398999999991      7.5612985899999998
   597   1             18.34151104      8.2920723299999999      7.5125728599999997
   598   1      22.366511419999998      8.1833996399999993      7.7442325099999998
   599   1              26.3687583      8.1188073700000007      7.4028650999999996
   600   1             30.36923724      8.2171641500000003      7.4379430400000004
   601   1    -0.20639774999999999      11.854568929999999      7.4214898199999997
   602   1      3.9708717500000001      11.781962480000001      7.5803452900000003
   603   1      8.0975218699999996             11.49116693              7.50875146
   604   1             12.27800087      11.839069520000001      7.5134598099999996
   605   1      16.153862570000001             11.62554989      7.5563725399999999
   606   1              20.2012091              11.6863514      7.4866675499999999
   607   1      24.263602330000001      11.687956059999999      7.7077965700000002
   608   1      28.442295640000001      11.694759319999999      7.5666602100000002
   609   1      2.0454961100000002             15.41016655      7.5420144499999999
   610   1      5.9663092799999999             15.20743489      7.4711964200000001
   611   1      10.136255719999999             15.10476776      7.5348286199999999
   612   1             14.17368503      15.068774100000001      7.6090959800000002
   613   1      18.189102219999999             15.22045717      7.6467391500000002
   614   1             22.39761399      15.261280859999999      7.5082475000000004
   615   1      26.299094929999999      15.302495670000001      7.3942251800000003
   616   1      30.452458360000001      15.197955820000001      7.3512516799999998
   617   1    0.029559459999999999      18.812904410000002      7.4773560200000002
   618   1              4.09627374      18.778090129999999      7.5361957400000001
   619   1      8.1407362200000009      18.649446900000001      7.5606187199999999
   620   1             12.18967735             18.53046981      7.5625229999999997
   621   1      16.242492680000002      18.670117319999999      7.4919916200000003
   622   1             20.30845497             18.71315006      7.5337059799999997
   623   1      24.402372140000001      18.688030529999999      7.5636404300000004
   624   1      28.405814459999998      18.770903950000001      7.4527399900000004
   625   1      1.9794154500000001             22.27312878      7.4825295399999998
   626   1      6.1107148699999998      22.227431450000001              7.64273778
   627   1             10.20282946      22.125694079999999      7.4967767199999997
   628   1             14.12518367      22.090136300000001              7.55452558
   629   1      18.371328330000001             22.16834016      7.6568342400000002
   630   1             22.31275402      22.231885720000001      7.4702117399999999
   631   1      26.473024110000001             22.36468683      7.4631200800000004
   632   1             30.43071261             22.37732827      7.4162349499999998
   633   1    0.047589550000000001      25.834706430000001      7.6265599699999997
   634   1      4.1384967699999997      25.675983890000001      7.4749967399999999
   635   1      8.1475142500000004      25.636584670000001      7.6342807400000003
   636   1      12.163380829999999      25.684630680000001      7.6090574999999996
   637   1             16.26219588      25.522315819999999      7.3397336099999997
   638   1      20.275147950000001             25.78873162      7.5024522500000002
   639   1              24.3758409      25.751046930000001      7.5224143999999997
   640   1             28.40698076              25.7563435      7.4931902900000003
   641   1      32.405728439999997      2.3315777500000001      8.1881559900000003
   642   1      3.8929414000000002      2.2825255000000002      8.2680225899999993
   643   1      8.1205577600000005      2.1486251900000002      8.1880941600000003
   644   1      12.107867649999999      2.2323771200000002              8.24551269
   645   1      16.097043759999998      2.3819750499999999      8.1483582600000002
   646   1             20.20699029      2.4178890100000001      8.2956439900000003
   647   1             24.30201877      2.2464607499999998      8.0419992699999998
   648   1             28.35648282               2.2087005      8.3385359599999997
   649   1      1.8219329799999999      5.8459048999999998      8.3789396499999995
   650   1      5.9654316500000002              5.79308142      8.2495860499999996
   651   1             10.05564028      5.8270177099999998      8.1511294700000008
   652   1      14.126900490000001      5.8287554899999998      8.2827578699999993
   653   1             18.29061029      5.9440694499999998      8.1753192800000001
   654   1      22.358781430000001      5.7474918800000001      8.1408538700000008
   655   1      26.433846979999998      5.8400311699999996      8.2940364100000004
   656   1             30.40832545              5.84937649      8.1510487200000004
   657   1   -0.083745620000000007      9.4478472100000008      8.0692614599999999
   658   1      3.9712846599999998              9.41238201               8.1225375
   659   1      8.1593289099999993      9.2648550299999997      8.2865093600000002
   660   1      12.212405609999999      9.4095252400000007      8.1053538300000003
   661   1      16.345477200000001      9.4329125299999994      8.1455823899999995
   662   1      20.266905269999999              9.33204761      8.2124856899999994
   663   1      24.354542519999999      9.2651340199999996      8.2776355499999994
   664   1      28.338240729999999      9.2776672900000001      8.2491318600000003
   665   1      2.0054710600000001             13.01870647      7.9960653600000002
   666   1      6.0955493000000001             12.82099599      8.1854639599999999
   667   1             10.20094471             12.83746476      8.2980044700000004
   668   1      14.284484640000001      12.830194880000001      8.3115340599999996
   669   1      18.193025200000001             12.91798408      8.2737488300000006
   670   1      22.264227890000001      12.885968350000001      8.2378322300000004
   671   1      26.385087200000001             12.84987681      8.1229685600000003
   672   1             30.24917653             12.91568859      8.2927357500000003
   673   1   -0.058048450000000001             16.41227026      8.1374120899999998
   674   1      3.9734965600000001      16.547989560000001              8.15973331
   675   1      8.1128217100000004      16.322981410000001              8.23772898
   676   1             12.17834772      16.348954880000001      8.3425825200000006
   677   1      16.185891430000002      16.361149019999999      8.1716252100000002
   678   1      20.320360489999999      16.309226129999999      8.1893867700000005
   679   1      24.417603440000001      16.487411179999999      8.2102582999999996
   680   1      28.464674580000001              16.3158742              8.08068426
   681   1              2.05441479      20.004826959999999      8.2566472399999995
   682   1      6.1551872400000001             19.89722029      8.2875946799999998
   683   1             10.37167822             19.88068591      8.2702953200000007
   684   1             14.21849632      19.760712600000002      8.1325429499999995
   685   1      18.342682369999999             19.82033174      8.2010923899999995
   686   1      22.313451969999999      19.888395890000002      8.1709783900000001
   687   1             26.33310973             19.92721105      8.0490630599999999
   688   1             30.47451044      20.143477879999999      8.1994035000000007
   689   1      32.462836899999999             23.44717734      8.1208382500000003
   690   1      4.1151638999999998      23.392648820000002      8.1200651300000004
   691   1      8.1230496999999993             23.29535087      8.1992570699999998
   692   1      12.062988649999999      23.280499420000002      8.0711918199999992
   693   1      16.173043230000001      23.255306569999998      8.2106822000000008
   694   1      20.322498809999999      23.454571749999999      8.0887349000000004
   695   1      24.395165160000001      23.406428340000001      8.0802137199999997
   696   1      28.452562879999999             23.36269566      8.1937932999999994
   697   1      2.0866682000000001             26.90859888      8.1440010399999991
   698   1      6.1027082899999998      26.877522710000001      8.1187126999999997
   699   1      10.207684199999999      26.746917140000001      8.3241332400000001
   700   1             14.28659815             26.94268473      8.1975148699999991
   701   1      18.128083969999999      26.830959700000001      8.1258783799999996
   702   1      22.322628819999998      26.855681270000002      8.1537350199999992
   703   1      26.419568930000001             26.90040424      8.1431995599999993
   704   1      30.464623849999999      26.849077680000001      8.1917255099999995
   705   1              0.25751383    -0.10737256000000001      9.0287468999999998
   706   1      4.0238638399999997             -0.20883146      8.9461271500000006
   707   1      8.0631471000000001      27.870427289999999      8.9932621499999996
   708   1             12.21124423      27.818232800000001      9.1441441799999996
   709   1      16.264654180000001     0.16766117999999999      9.0989563400000009
   710   1             20.25928429    -0.15335272999999999      8.9673644100000001
   711   1             24.35969171      28.053329940000001      8.9125253299999994
   712   1             28.50699401    -0.12177304999999999      9.0263788900000002
   713   1      1.8448926800000001      3.3209986699999998      8.9358572299999999
   714   1      6.0966487499999999              3.41359916      8.9483831400000007
   715   1             10.00542941               3.5054702      8.9863736299999992
   716   1             14.15437607              3.41362502      9.0729637600000004
   717   1             18.20954622      3.5844544599999999      8.8948739999999997
   718   1      22.267362070000001      3.4613482699999998      8.8717731000000004
   719   1             26.29970964      3.3758695099999998      8.9458458400000005
   720   1      30.577531100000002      3.6334392599999998      9.1068297200000003
   721   1             32.39828799      7.1317205499999998              8.96237715
   722   1      3.9806621199999999      7.0327667900000002      8.8689387899999996
   723   1      8.1311135199999995      6.8997366299999996      8.7899525700000005
   724   1      12.220240309999999      7.0653856099999999      8.9687702100000006
   725   1      16.220807260000001      7.1116079499999998      8.9297721600000006
   726   1             20.31267914      7.0458908400000002      8.9624224399999992
   727   1      24.369398740000001      7.0505986800000002      9.0554994400000002
   728   1             28.30923731      6.8561797100000001      9.0714778900000006
   729   1              1.85619537             10.66103867      8.9464095599999993
   730   1      6.0492409299999998      10.383840510000001      8.7397892200000005
   731   1              10.2348499             10.50681971      9.0161417200000002
   732   1      14.184190770000001             10.46221808      9.0385931199999998
   733   1      18.339005239999999             10.48486138      8.9965698599999993
   734   1      22.231300520000001             10.60218375      8.9825202799999992
   735   1      26.404418509999999             10.61176156      9.0071165000000004
   736   1             30.33288057              10.4941458      8.9878110499999995
   737   1      32.406877659999999      14.062623759999999      8.7783431000000007
   738   1      3.9722818700000002             14.19161991      8.9254014300000009
   739   1      8.1440597300000004             13.86021461      9.1265967999999997
   740   1             12.29915997      14.101996209999999      9.0152427500000005
   741   1      16.285327590000001      14.100277480000001              8.98904031
   742   1             20.22502982      14.085495870000001      9.1459439000000007
   743   1      24.366727010000002      13.962292789999999      8.9935408300000006
   744   1      28.296154349999998      14.033224239999999      9.0356199400000001
   745   1      2.0134691400000002      17.840784150000001      8.9026694299999996
   746   1      5.9825357700000001      17.375959259999998      9.0265113699999997
   747   1      10.013738630000001             17.56681253      8.8964189000000005
   748   1             14.20092182      17.603168119999999      9.1500315699999994
   749   1             18.23272059      17.406869029999999      8.9469533200000004
   750   1      22.206563370000001      17.645156579999998      9.0860264100000006
   751   1      26.436315100000002      17.672645459999998      9.0514650499999991
   752   1             30.44649081      17.497339870000001      8.8650444900000007
   753   1    0.096465499999999996      21.296931069999999      9.0742349200000003
   754   1      4.0334643799999998             21.15212391      8.9757097399999992
   755   1      8.2582038299999994      21.011990239999999      9.0786944799999993
   756   1      12.261146999999999             20.86996203      9.0745235199999996
   757   1      16.199759669999999      20.855320939999999              8.95976967
   758   1      20.329066009999998      21.035958749999999      8.9656052499999994
   759   1      24.337984339999998              21.0568527      8.8115678200000005
   760   1      28.393244710000001             20.91148613      8.9335939799999995
   761   1      2.0128137499999998      24.573466199999999      8.9647571900000003
   762   1      6.2486304099999996      24.556707509999999      8.9965657500000002
   763   1      10.052223100000001      24.515167649999999      9.0236478099999999
   764   1      14.203303719999999             24.29213463      8.9600354499999995
   765   1      18.191661589999999             24.73911876      8.9548292699999994
   766   1      22.328322579999998      24.649444330000001      8.9280377200000007
   767   1             26.50120725             24.59854322      8.9889191000000004
   768   1      30.400504210000001      24.612970270000002      8.9069129599999997
   769   2      28.440901149999998      17.762549400000001      9.1815944900000002
   770   2      29.341678460000001      19.198220549999998      9.3519867399999992
