N2-dn2-coord-10bar/700K/snapshots/frame-68828/run-000/../data.lammps (written by ASE) 

770 	 atoms 
2  atom types
0.0      32.470343392086264  xlo xhi
0.0      28.120142247150884  ylo yhi
0.0      31.213473999158239  zlo zhi


Atoms 

     1   1      2.0293964600000001      1.1716090800000001    0.023552650000000001
     2   1      6.0880008999999999              1.17168918              0.02556874
     3   1      10.146952280000001              1.17170328    0.025416459999999998
     4   1      14.205754900000001      1.1716496700000001              0.02501565
     5   1             18.26456816              1.17166478              0.02504435
     6   1             22.32338141      1.1716496700000001              0.02501565
     7   1      26.382184030000001              1.17170328    0.025416459999999998
     8   1      30.441135410000001              1.17168918              0.02556874
     9   1  9.1780000000000006e-05      4.6866847900000002    0.025581599999999999
    10   1      4.0587011400000002      4.6866847900000002    0.025581599999999999
    11   1      8.1174961000000003      4.6866290399999997    0.025584639999999999
    12   1             12.17638011      4.6866852999999997              0.02491202
    13   1             16.23517979      4.6866942700000003    0.025006210000000001
    14   1      20.293956519999998      4.6866942700000003    0.025006210000000001
    15   1      24.352756209999999      4.6866852999999997              0.02491202
    16   1      28.411640219999999      4.6866290399999997    0.025584639999999999
    17   1      2.0293964600000001      8.2016395800000002    0.026613040000000001
    18   1      6.0881071599999999      8.2016314300000008              0.02543782
    19   1             10.14701835               8.2017045    0.025156850000000001
    20   1      14.205766049999999      8.2017080900000003    0.024990459999999999
    21   1             18.26456816      8.2017077599999997    0.025091249999999999
    22   1      22.323370260000001      8.2017080900000003    0.024990459999999999
    23   1      26.382117969999999               8.2017045    0.025156850000000001
    24   1      30.441029149999999      8.2016314300000008              0.02543782
    25   1  9.2789999999999998e-05             11.71671873    0.025573410000000001
    26   1              4.05870014             11.71671873    0.025573410000000001
    27   1      8.1176017700000003             11.71668698              0.02497914
    28   1             12.17637068             11.71673069    0.025001590000000001
    29   1      16.235177310000001      11.716730249999999    0.025074039999999999
    30   1      20.293959009999998      11.716730249999999    0.025074039999999999
    31   1      24.352765640000001             11.71673069    0.025001590000000001
    32   1      28.411534549999999             11.71668698              0.02497914
    33   1      2.0293964600000001             15.23167155              0.02525285
    34   1      6.0881728300000004      15.231678799999999    0.025062859999999999
    35   1             10.14698486      15.231762639999999               0.0250786
    36   1             14.20578841             15.23176782    0.025201990000000001
    37   1             18.26456816              15.2317707    0.025149979999999999
    38   1      22.323347900000002             15.23176782    0.025201990000000001
    39   1      26.382151459999999      15.231762639999999               0.0250786
    40   1      30.440963480000001      15.231678799999999    0.025062859999999999
    41   1      32.470327990000001      18.746748629999999    0.024951939999999999
    42   1      4.0588083299999997      18.746748629999999    0.024951939999999999
    43   1      8.1175770200000006      18.746803499999999    0.025222040000000001
    44   1             12.17637459      18.746799750000001    0.025428470000000002
    45   1      16.235159400000001      18.746805200000001    0.025487360000000001
    46   1      20.293976919999999      18.746805200000001    0.025487360000000001
    47   1      24.352761730000001      18.746799750000001    0.025428470000000002
    48   1             28.41155929      18.746803499999999    0.025222040000000001
    49   1      2.0293964600000001      22.261939099999999    0.025844880000000001
    50   1      6.0881419299999999      22.261841799999999    0.025489439999999999
    51   1             10.14692954             22.26176895              0.02551757
    52   1             14.20573559      22.261804690000002    0.025639160000000001
    53   1             18.26456816             22.26178625    0.025640119999999999
    54   1      22.323400729999999      22.261804690000002    0.025639160000000001
    55   1      26.382206780000001             22.26176895              0.02551757
    56   1             30.44099439      22.261841799999999    0.025489439999999999
    57   1  5.6450000000000003e-05      25.776936450000001              0.02613327
    58   1      4.0587364700000004      25.776936450000001              0.02613327
    59   1      8.1175325399999991              25.7767713    0.024734180000000001
    60   1      12.176376469999999      25.776831090000002              0.02545323
    61   1      16.235145939999999      25.776775220000001    0.025273360000000002
    62   1             20.29399038      25.776775220000001    0.025273360000000002
    63   1      24.352759840000001      25.776831090000002              0.02545323
    64   1      28.411603769999999              25.7767713    0.024734180000000001
    65   1  0.00024266000000000001              2.34304215     0.80166565000000001
    66   1      4.0585502699999996              2.34304215     0.80166565000000001
    67   1      8.1157394600000003              2.34454954     0.80169402000000001
    68   1             12.17601256      2.3433829099999999     0.80116898000000003
    69   1      16.235258170000002      2.3433209100000001     0.80090046999999998
    70   1      20.293878150000001      2.3433209100000001     0.80090046999999998
    71   1      24.353123750000002      2.3433829099999999     0.80116898000000003
    72   1      28.413396859999999              2.34454954     0.80169402000000001
    73   1      2.0293964600000001      5.8582218700000004     0.80119762000000005
    74   1      6.0870566899999998      5.8583336700000004              0.80194851
    75   1             10.14649655              5.85853131     0.80121584000000001
    76   1             14.20597894      5.8582938599999999     0.80086840999999998
    77   1             18.26456816      5.8583798500000004               0.8010794
    78   1      22.323157380000001      5.8582938599999999     0.80086840999999998
    79   1             26.38263976              5.85853131     0.80121584000000001
    80   1      30.442079629999999      5.8583336700000004              0.80194851
    81   1  0.00019438999999999999      9.3717771800000005     0.80082061000000004
    82   1      4.0585985400000002      9.3717771800000005     0.80082061000000004
    83   1      8.1175070500000004      9.3725002699999997     0.80149060999999999
    84   1      12.176590020000001      9.3733583399999993     0.80088261999999999
    85   1             16.23512199      9.3733789200000004              0.80106506
    86   1             20.29401433      9.3733789200000004              0.80106506
    87   1      24.352546289999999      9.3733583399999993     0.80088261999999999
    88   1      28.411629269999999      9.3725002699999997     0.80149060999999999
    89   1      2.0293964600000001             12.88692854     0.80220621000000003
    90   1      6.0883212999999996             12.88743848     0.80138414999999996
    91   1      10.147128609999999             12.88859852     0.80085256000000005
    92   1             14.20571782      12.888558189999999     0.80113791000000001
    93   1             18.26456816      12.888409899999999     0.80109381000000002
    94   1      22.323418490000002      12.888558189999999     0.80113791000000001
    95   1             26.38200771             12.88859852     0.80085256000000005
    96   1      30.440815019999999             12.88743848     0.80138414999999996
    97   1              0.00012365      16.403222639999999     0.80145666999999998
    98   1      4.0586692700000002      16.403222639999999     0.80145666999999998
    99   1      8.1174337899999998      16.403825260000001     0.80097196999999998
   100   1              12.1761021             16.40390721     0.80133072000000005
   101   1             16.23503496      16.403861750000001     0.80140014999999998
   102   1      20.294101359999999      16.403861750000001     0.80140014999999998
   103   1      24.353034220000001             16.40390721     0.80133072000000005
   104   1      28.411702529999999      16.403825260000001     0.80097196999999998
   105   1      2.0293964600000001      19.919205120000001     0.80066369999999998
   106   1              6.08752564             19.91894023     0.80122479000000002
   107   1      10.146078839999999             19.91919038     0.80159137999999996
   108   1      14.204993419999999              19.9192584     0.80178742000000003
   109   1             18.26456816      19.919377350000001     0.80194975999999996
   110   1      22.324142899999998              19.9192584     0.80178742000000003
   111   1      26.383057470000001             19.91919038     0.80159137999999996
   112   1      30.441610669999999             19.91894023     0.80122479000000002
   113   1              0.00142012      23.434536609999999     0.80178442000000005
   114   1      4.0573728100000004      23.434536609999999     0.80178442000000005
   115   1      8.1165862000000004      23.433936769999999     0.80182306000000003
   116   1             12.17555218      23.433996919999998     0.80156656000000004
   117   1             16.23465491      23.434040110000002     0.80170828999999999
   118   1      20.294481409999999      23.434040110000002     0.80170828999999999
   119   1      24.353584130000002      23.433996919999998     0.80156656000000004
   120   1      28.412550110000002      23.433936769999999     0.80182306000000003
   121   1      2.0293964600000001      26.949875330000001              0.80297246
   122   1      6.0858208300000003      26.950066320000001              0.80215291
   123   1             10.14598146      26.949241430000001     0.80165810000000004
   124   1             14.20520604      26.948673230000001     0.80131923999999999
   125   1             18.26456816             26.94858318     0.80108193999999999
   126   1      22.323930279999999      26.948673230000001     0.80131923999999999
   127   1      26.383154860000001      26.949241430000001     0.80165810000000004
   128   1             30.44331549      26.950066320000001              0.80215291
   129   1      32.668384490000001              0.03207496      1.6946589299999999
   130   1      4.1097611499999998      28.220940150000001              1.52763746
   131   1      8.0297401300000004   -0.076849379999999995      1.4813211100000001
   132   1             12.07109382      28.191079080000002      1.4502479100000001
   133   1             16.10443802             28.23016754      1.5182943900000001
   134   1      20.205695949999999             28.04967568      1.5866745499999999
   135   1      24.355737430000001             28.17797491              1.54709107
   136   1             28.44744876      27.948926329999999               1.4742515
   137   1              1.99498069              3.58870573      1.5427184899999999
   138   1      6.0615095700000001      3.5644747799999998      1.6132964299999999
   139   1              10.0562931      3.5900573499999999              1.45245107
   140   1             14.15276501              3.36583867      1.5166144500000001
   141   1      18.256874199999999      3.4624232099999999      1.5182829499999999
   142   1      22.369761400000002              3.44604416      1.7659840200000001
   143   1      26.457373690000001      3.6207777999999999              1.47305025
   144   1      30.431958860000002      3.5181659999999999              1.50231461
   145   1      32.540314719999998      7.1502892300000003              1.47646082
   146   1      4.0524789700000001              6.93902529      1.5424557299999999
   147   1      8.2377402899999996      7.1266192999999998      1.6615112999999999
   148   1             12.10330416      6.8841839699999996              1.45852457
   149   1      16.131964320000002              6.91088769              1.86115393
   150   1             20.26280916      6.9985895100000004     0.96137090999999997
   151   1             24.39196025              6.99731243      1.5533570999999999
   152   1      28.492166990000001      7.0476720300000002              1.39405552
   153   1      2.0924979100000001             10.39366942      1.5105330100000001
   154   1      6.0747577499999998             10.47271151              1.46037309
   155   1             10.13717739      10.570814260000001              1.53131912
   156   1             14.23637192      10.603846069999999      1.2335648800000001
   157   1      18.391709729999999      10.640791610000001               1.4551733
   158   1      22.356466430000001               10.550841      1.4136832800000001
   159   1      26.495380919999999             10.52720016      1.5148928399999999
   160   1             30.48829705             10.54729933              1.32334679
   161   1    0.017163379999999999      14.064394009999999              1.38540127
   162   1      4.0338253999999996      13.934273510000001      1.7016097299999999
   163   1      7.9630621899999996      13.982598579999999      1.1203805899999999
   164   1              12.2874617             14.07045686              1.49832422
   165   1      16.316937889999998      13.889642090000001              1.50340528
   166   1      20.296450360000001             13.99386222      1.2578691399999999
   167   1      24.502220779999998             14.01245406      1.6173662799999999
   168   1      28.364393020000001             14.05144503      1.3186466699999999
   169   1      1.9131329399999999      17.502389879999999      1.5337201600000001
   170   1      6.0083846899999998      17.639345939999998              1.42458847
   171   1              10.1095969      17.535126460000001              1.34455086
   172   1             14.15205806             17.55233643      1.5055354700000001
   173   1      18.132102740000001               17.550549      1.3366808999999999
   174   1      22.179152210000002              17.6762227              1.53527043
   175   1      26.393074200000001      17.657512440000001              1.43885996
   176   1      30.545984409999999      17.510869970000002      1.3388578099999999
   177   1      32.599994680000002             20.91989315               1.2933938
   178   1              3.98217708      20.881011480000002      1.5102984399999999
   179   1      8.1352550099999998      21.234399199999999              1.63962381
   180   1             12.11792496      21.162950219999999              1.51069031
   181   1              16.0631168             21.17790694              1.53398246
   182   1      20.270386049999999             21.09307549               1.3828756
   183   1      24.400849180000002              21.1970828               1.4832627
   184   1      28.331836190000001      20.956750629999998              1.41225913
   185   1      2.2605759999999999      24.589211679999998              1.58747112
   186   1      6.0916937500000001      24.491122529999998              1.45219407
   187   1             10.19258469      24.558583760000001      1.4343835199999999
   188   1      14.221494910000001      24.760185849999999              1.78237227
   189   1      18.393485940000001             24.57767467      1.1663494999999999
   190   1      22.361474269999999      24.674239149999998               1.5813857
   191   1      26.473708479999999             24.76392074      1.4586920299999999
   192   1      30.372439849999999      24.764722580000001              1.40137632
   193   1      2.1285606399999999              1.21022517      2.3563804899999998
   194   1              5.97597779              1.20775937      2.5113139499999999
   195   1      10.044701379999999              1.15920964      2.3809835399999999
   196   1             13.98648026              1.16914841              2.38543328
   197   1      18.257427209999999      1.1549326600000001              2.63140989
   198   1             22.43651697              1.17812009      2.4224142099999999
   199   1      26.467120529999999      1.0781336100000001      2.3876377799999999
   200   1             30.52613917      1.3430518199999999      2.4271311600000001
   201   1  -0.0057612899999999996      4.7076192099999998      2.4096105200000002
   202   1      4.1033288600000004              4.62238712      2.4433446399999998
   203   1      8.0539256699999999      4.5744429699999998      2.4867507600000001
   204   1      12.283856200000001      4.7822105300000004      2.4911512999999998
   205   1      16.206899109999998      4.4288143299999998              2.45585567
   206   1      20.360508379999999      4.5123821700000004      2.3629163000000002
   207   1      24.512955309999999      4.7194869800000001              2.34586768
   208   1      28.561579299999998      4.6694725699999999      2.4599440100000001
   209   1      2.1329754300000001      8.0617512999999992      2.4633119899999998
   210   1      6.2073168900000004      8.0659427699999995               2.3494321
   211   1      10.179657089999999      8.2074466600000004      2.6590268699999999
   212   1      14.148494899999999      8.3066700900000008              2.54295581
   213   1             18.22399601      8.2167442499999996      2.3920243399999999
   214   1      22.356790320000002      8.2044663199999999              2.35488842
   215   1      26.431121959999999      8.2130434500000007      2.3556541000000002
   216   1      30.488693699999999      8.2314972799999993              2.49381728
   217   1              0.12207817             11.43128971      2.3684577999999998
   218   1      3.9985028100000002             11.57100958              2.37855938
   219   1      8.1268314200000003             11.76784531      2.5871525700000002
   220   1      12.316048739999999             11.83950181              2.36211941
   221   1             16.19776487             11.75010015      2.3941303500000002
   222   1      20.204435709999998             11.74972208      2.4944700000000002
   223   1             24.51007972             11.66675614              2.44000065
   224   1      28.506468300000002      11.626482060000001              2.38762271
   225   1      2.0002664499999998             15.16267309      2.4960024700000001
   226   1      6.1622104000000002      15.203617250000001      2.4772580099999999
   227   1             10.26014378      15.139828509999999      2.5001096700000001
   228   1             14.10184679      15.143452419999999      2.4132257500000001
   229   1      18.229278399999998      15.294410689999999      2.4826874000000001
   230   1             22.20200092             15.33156494      2.3068495100000002
   231   1      26.538785430000001      15.233359159999999      2.4644708299999998
   232   1      30.323407799999998             15.22310523      2.3792814600000001
   233   1   -0.071827420000000003      18.758054829999999      2.2962617000000001
   234   1      3.9397582999999998      18.586419200000002      2.3289554699999999
   235   1               8.0573093      18.881512369999999      2.3583406899999999
   236   1             12.01677205      18.837837350000001      2.4690598399999999
   237   1      16.106033490000002      18.886971989999999      2.4652401300000002
   238   1      20.101865199999999      18.820956559999999               2.5209454
   239   1      24.355773159999998             18.85893879      2.4453559399999998
   240   1      28.393944600000001      18.852479800000001      2.3332693999999998
   241   1      2.1025831400000001      22.003899260000001      2.3721808100000001
   242   1      5.9364030899999998      22.143216769999999      2.2694090500000001
   243   1             10.38486735              22.1363123              2.46403273
   244   1      13.960834869999999             22.21910922              2.39918247
   245   1      18.186072500000002      22.340818469999999      2.3598028200000001
   246   1      22.300261370000001      22.312462379999999      2.3906317000000001
   247   1             26.35683594              22.4487649      2.4372531199999998
   248   1      30.628157810000001      22.143513070000001      2.2885922999999999
   249   1    0.010147059999999999      25.826944770000001              2.35416187
   250   1      4.1587350000000001      25.974551259999998      2.3670143000000001
   251   1      8.1310637000000003      25.734298460000002               2.2645355
   252   1             11.99304111      25.976737440000001      2.4408394200000001
   253   1      16.262053030000001      25.699040220000001              2.50259842
   254   1             20.12903713      25.824561289999998              2.46825633
   255   1      24.376756579999999             25.81136922      2.4254797099999998
   256   1      28.468164829999999      25.852970580000001      2.5805218999999999
   257   1              0.16303213              2.32249281      3.1967521200000002
   258   1      4.0557874800000002      2.4104569900000001      3.2017741000000002
   259   1      8.2385909399999999               2.3729752              3.27214289
   260   1      12.160358970000001      2.3662572900000001      3.2593816000000002
   261   1      16.126469350000001      2.2582435200000002      3.2645041400000001
   262   1      20.239500849999999      2.2960356100000001      3.1590485500000001
   263   1      24.527282870000001              2.37264045      3.2677289799999998
   264   1             28.56628298      2.3719728099999999              3.18115171
   265   1               1.9747025      5.9715099599999997      3.3133348900000001
   266   1      6.0829339200000003      5.8790495600000003      3.3780979499999999
   267   1             10.32381754      5.9866279000000002      3.2364392199999998
   268   1             14.44250699      5.7901723900000004      3.2084863100000001
   269   1      18.342231559999998      5.6876561600000004      3.3236709200000001
   270   1             22.48193552              5.70465731      3.1984235499999998
   271   1             26.45019374      6.0530093899999997      3.3096792900000001
   272   1      30.539900289999999      5.9999278599999997      3.1554229299999998
   273   1     0.13083892999999999      9.2264997399999995      3.3161223099999999
   274   1      3.9438631200000001      9.1899937299999994              3.25683875
   275   1      8.0947751100000005      9.2723826500000008      3.2042290499999999
   276   1             12.18319312      9.5221509399999995      3.3271767300000001
   277   1      16.206958319999998      9.3114890500000005      3.1946739900000001
   278   1      20.353920899999999      9.4598664299999999      3.2794273199999999
   279   1      24.270397719999998      9.2989974800000006      3.2708493000000001
   280   1      28.588925410000002      9.4936545799999994      3.2790584200000001
   281   1      2.0806188400000001             12.69810985      3.3319114000000001
   282   1      6.1801958700000004      12.943909720000001      3.2796671000000002
   283   1             10.18565268      12.898215479999999      3.3250275999999999
   284   1             14.41032249             12.97722881      3.4988110400000001
   285   1             18.37558318             13.10544174      3.4200626299999999
   286   1      22.465876519999998      12.866287959999999      3.1510666399999998
   287   1      26.549199179999999             12.92898353      3.3322385400000001
   288   1      30.590437380000001             12.73121207              3.06662152
   289   1      32.377003909999999             16.32155663      3.2810304399999999
   290   1      3.8930335700000001             16.32985399      3.3809004100000002
   291   1      8.1195591300000007      16.439998769999999      3.2193168600000002
   292   1             12.21842676      16.468421840000001      3.3038707700000001
   293   1      16.219631669999998      16.463890230000001      3.0402174799999999
   294   1      20.281292319999999             16.52824124      3.1997423399999998
   295   1      24.447752000000001             16.42939878              3.19463031
   296   1      28.406624130000001             16.52562983      3.1973244200000002
   297   1              1.84312268      19.674266800000002      3.3576618599999999
   298   1      6.0968406499999999      19.878604020000001      3.2671765399999999
   299   1      9.9480933100000009      19.772284089999999      3.3963996600000002
   300   1      14.160033690000001      19.932148860000002      3.3429802300000002
   301   1      18.176684049999999      19.885895300000001      3.3395123099999999
   302   1      22.335645169999999      20.062109070000002      3.1506676499999999
   303   1      26.256797729999999             20.06019774      3.2114783299999998
   304   1      30.606345919999999             19.84501852      3.1310374799999998
   305   1              0.11599218      23.283789500000001      3.2784733300000002
   306   1      3.9699856200000001             23.25781817      3.2481417100000001
   307   1      8.1959218099999998      23.524929449999998      3.2277709799999998
   308   1      12.196384630000001      23.432852990000001      3.3641670000000001
   309   1      16.364668760000001             23.53430805      3.4236481900000002
   310   1             20.28807437      23.627847589999998               3.3638295
   311   1              24.4984462             23.49479208      3.2680577500000001
   312   1      28.543488849999999      23.542971229999999      3.2514297499999998
   313   1      2.0710531099999998      26.962029170000001      3.3012453599999998
   314   1      6.1678707399999997      27.014090580000001      3.2869233699999998
   315   1      10.084913220000001      26.898373599999999      3.2904765299999998
   316   1              14.0747784      26.920370630000001                3.427549
   317   1      18.235398199999999      27.002290479999999              3.25906539
   318   1      22.155731920000001      27.047602699999999      3.1874178799999999
   319   1      26.233222479999998      26.914456730000001      3.4718167900000001
   320   1      30.594071119999999      27.077375150000002      3.3095357399999998
   321   1      32.583704879999999              0.02108134      4.3186191100000002
   322   1      4.0831429799999999      28.005230690000001      4.0782747099999996
   323   1      8.0561714200000001    0.093982919999999998      4.2253308499999997
   324   1             12.31464375      28.159440010000001      4.2246793900000004
   325   1             16.05305457      28.028136910000001      4.1375674499999997
   326   1      20.315583100000001    0.069423170000000006      4.0661037999999996
   327   1      24.172664480000002    0.081812239999999994              4.03476078
   328   1             28.42106111    0.074023420000000006              4.15685868
   329   1      2.0966379499999999              3.63348571      4.0780337299999996
   330   1      6.0430938300000001              3.51281672      3.9492158000000002
   331   1      10.134941209999999      3.6086958500000001      4.0038871800000004
   332   1             14.25367211                3.444531      4.0775201399999998
   333   1             18.42804465      3.4561803599999998      4.2522996800000001
   334   1      22.111933000000001      3.5334712800000001      4.0638561900000001
   335   1             26.50266045      3.5576634500000002      3.9902241100000002
   336   1      30.528120869999999      3.4900174599999998      4.2170130500000003
   337   1     0.20822750000000001      7.0710463399999997      4.2527542499999997
   338   1      4.0732623700000001      6.9486975500000003      4.0744578599999999
   339   1      8.1460860000000004      6.9848895300000002      4.2588574100000001
   340   1      12.408744260000001      7.0239917500000004      4.0719042300000003
   341   1      16.316065630000001      6.8351204000000001      4.2677527800000004
   342   1      20.338319380000002              7.05668249      4.0919371699999996
   343   1      24.415492860000001      7.0965891000000001              4.19953778
   344   1      28.520723820000001      7.0631507400000002      3.9935679300000002
   345   1      2.1910506000000001      10.427536419999999      4.2474347999999997
   346   1      6.1255119100000002             10.42109445      4.0125641400000003
   347   1      10.248294530000001             10.52133003      4.2885699099999997
   348   1             14.35765194             10.65014788      4.1283147099999997
   349   1      18.325634050000001      10.465298600000001      4.1785704800000003
   350   1             22.30913898             10.65761618      4.1154333799999998
   351   1             26.46113235      10.395653769999999      4.1465390700000002
   352   1      30.668003330000001             10.41680556      4.1284830299999999
   353   1      32.668150230000002      13.995834309999999      3.9984315499999998
   354   1               4.0813628      14.151874449999999      4.1810358299999999
   355   1      8.1049887999999992             14.15301698      3.9330119099999998
   356   1             12.10669833             14.19863481      4.1956906800000002
   357   1      16.283111229999999             14.18104801      4.0521330000000004
   358   1      20.453561610000001             14.26103327              3.97292033
   359   1             24.50552931             14.11847375      4.1417542300000001
   360   1      28.662139580000002      13.898194520000001      4.1040772800000003
   361   1              1.94877079      17.392397079999999      4.2100855800000003
   362   1      6.0332199299999996      17.590556429999999      3.9322142499999999
   363   1             10.27140451      17.288708719999999      4.1545835599999998
   364   1      14.143993910000001             17.73691595      4.1107411200000001
   365   1      18.319942269999999      17.724241190000001              3.95554038
   366   1      22.459408979999999      17.768785919999999      4.1134791999999996
   367   1      26.326501579999999      17.730715279999998      4.0865157999999999
   368   1             30.36071797      17.397558050000001              4.23421789
   369   1             32.45041621      21.022669799999999      4.1229805500000003
   370   1      3.8516060699999999             20.80756521      3.8592109400000001
   371   1      8.0505227799999997      21.116666460000001      4.0185705799999996
   372   1             12.10024381      21.056445060000001      4.1447331900000002
   373   1      16.068266680000001      21.084686690000002              4.28634776
   374   1             20.24933536              21.2313124      4.0284185099999998
   375   1             24.20139357      21.253590790000001      4.0293237499999996
   376   1      28.647180710000001      21.055826419999999      3.9716254200000001
   377   1                1.999258      24.466406039999999      4.0472677199999998
   378   1      6.0405043999999997      24.646971740000001      4.1867212199999999
   379   1      10.356491439999999      24.456504800000001      4.1582369400000001
   380   1             14.29086936      24.502811430000001      4.0800662399999998
   381   1      18.261623780000001              24.5765095      4.2197522599999999
   382   1      22.384419099999999             24.63237311      4.0999612900000004
   383   1             26.49248107      24.659060610000001      4.2774855699999996
   384   1      30.533051189999998             24.72649917              3.99057095
   385   1      2.0020660299999999              1.29805646              5.06525596
   386   1      5.9113395300000002              1.15603404              4.84914121
   387   1             10.19285698      1.3371277800000001      4.8126212300000004
   388   1      14.218703769999999              1.19482121      4.8713226000000001
   389   1             18.29160044      1.2433285300000001      5.0787248399999996
   390   1      22.248130140000001              1.32372533      5.0237727400000001
   391   1      26.206498960000001      1.1638342699999999      4.8388218199999997
   392   1      30.343979010000002              1.23588801      5.0118076499999997
   393   1             -0.01346905      4.8195121800000003      4.8641521299999999
   394   1      4.0939293899999996      4.7834133100000003      4.8742369400000003
   395   1      8.2214066399999997              4.58269824      4.9912479200000002
   396   1             12.17414473      4.6337758100000004      5.0171584400000002
   397   1      16.311163629999999      4.5640057799999996      4.9835874899999997
   398   1             20.27701841      4.9031053199999999      5.0109090900000002
   399   1      24.485687429999999      4.6955297500000004              4.86136502
   400   1             28.55989143              4.91563237      4.8642232500000002
   401   1      2.1913502299999998      8.0841227300000007      5.1956911799999999
   402   1              6.01702972      8.1181661700000003      4.9260850999999999
   403   1             10.36781594      8.2237375400000001      5.0046299000000003
   404   1             14.37034491      8.3998659300000007      5.0148332699999996
   405   1      18.334208520000001      8.3014212399999998      5.0037585499999997
   406   1      22.470641149999999      8.2906368399999995              4.92714461
   407   1      26.429589499999999      8.1555381800000006      5.1212714699999999
   408   1      30.604783130000001      7.9991864899999996               5.0154131
   409   1    0.085372000000000003             11.62021863      5.0596675700000002
   410   1      4.1138602899999999             11.71121299      4.9882442400000002
   411   1      8.1852976099999992      11.848364009999999      4.9576965900000003
   412   1              12.1547334             11.67911219      5.0088290100000004
   413   1      16.626736640000001             11.91579101      4.9857747100000003
   414   1      20.424817300000001             11.81573539              4.93297659
   415   1             24.60572256      11.743115100000001      4.8890357699999996
   416   1      28.583412389999999      11.532434329999999      4.9464630300000003
   417   1      1.9745469099999999              15.2342361      4.9163379699999998
   418   1              5.93574102              15.3454432      4.9161365799999999
   419   1      10.257915819999999             15.23325799      5.0825619499999997
   420   1             14.20921532             15.35046788      4.9719948799999996
   421   1      18.315315680000001             15.33304972      4.8412031799999999
   422   1      22.520735380000001              15.3076224               4.7002362
   423   1              26.3503626      15.447765070000001      4.8709656299999997
   424   1      30.538874969999998      15.096253559999999      4.9957052700000002
   425   1    0.027819429999999999             18.58368832      4.8656587199999999
   426   1      3.9760098400000001      18.652894490000001      5.0384308400000002
   427   1      8.0622223900000005             18.65580667      4.9656330999999998
   428   1             12.18891028             18.76447216      4.9309129299999999
   429   1      16.304325909999999      18.790846200000001      4.8186553200000004
   430   1      20.305182290000001      18.821359820000001      5.0200602200000004
   431   1             24.35604279      18.991350430000001      4.8839317500000003
   432   1             28.25316282      18.762369119999999      5.0991894799999997
   433   1              1.91652618      22.174622289999999      4.9046687599999998
   434   1      6.0495783699999999             22.10145773      4.7412867199999997
   435   1      10.170941129999999             22.07488313      5.0543605200000004
   436   1      14.259813749999999      22.215474369999999      5.0464887599999999
   437   1      18.253582229999999             22.31222541      4.8555977199999996
   438   1      22.213920099999999              22.2442271              5.08430654
   439   1             26.46418637             22.32023281      4.7748469299999998
   440   1      30.665949120000001             22.12140278      4.6970825899999999
   441   1   -0.066076910000000003      25.830930989999999      4.9763740700000003
   442   1      4.0167455099999998      25.709380039999999      4.9790910799999999
   443   1      8.0185542200000004      25.901090839999998      4.7966401100000002
   444   1      12.200159129999999      25.670539850000001      5.0053157099999996
   445   1      16.273391159999999      25.892997619999999      5.0279361199999997
   446   1      20.222969760000002             25.97570867              5.01406201
   447   1      24.142980829999999             25.81338787      5.1563118699999997
   448   1      28.553356430000001      26.051015620000001      5.2203220100000003
   449   1   -0.030393130000000001              2.28018594      5.7717536799999998
   450   1      4.0307547699999997      2.3200164999999999      5.8910257799999997
   451   1      8.0391262099999992              2.47836473      5.7546064000000001
   452   1      12.237231899999999              2.47345865      5.8424508499999996
   453   1      16.287357109999999      2.4880130500000002      5.6386316799999996
   454   1             20.07302206      2.5735267400000001      5.8979174800000003
   455   1             24.35864857      2.5149589799999998      5.8309732299999997
   456   1      28.306652759999999      2.4035961399999999      5.6968562599999997
   457   1              2.10482368      5.8804299899999997      5.9883431099999997
   458   1      6.0801890600000004      5.7923308200000001              5.72799865
   459   1      10.204906380000001      5.8187829400000002      5.8478188099999997
   460   1      14.368892000000001      5.8255722800000003      5.8536425599999999
   461   1      18.381326290000001      6.0592369599999998      5.8684715900000004
   462   1      22.372593640000002              5.90845704      5.6259570400000003
   463   1             26.28544977              5.80915085      5.9377543700000004
   464   1      30.584778379999999      5.7850849200000001      5.8963677700000003
   465   1 -0.00046320999999999998      9.2878131499999999      5.8704121200000001
   466   1      4.2830028100000002      9.4905330200000009      5.8782074299999998
   467   1      8.2841394099999999      9.3223971999999993               5.7528131
   468   1             12.18415059      9.4156160799999995      5.8020541699999999
   469   1      16.367851349999999      9.4576856300000003      5.8122146800000003
   470   1      20.548803240000002      9.5432262399999992              5.79260457
   471   1             24.37357742      9.4347117899999997      5.8908940300000001
   472   1      28.587730919999998      9.3129110700000002      5.7137195399999996
   473   1              2.06014293      12.853874599999999      5.7316997299999999
   474   1      6.1222553900000003      13.133649350000001      5.8259024400000001
   475   1             10.27631702             12.78903249              5.83151245
   476   1      14.437735979999999      12.969574850000001      5.9031781399999996
   477   1      18.460591730000001               13.076997      5.8486456200000001
   478   1      22.605822660000001      12.913897860000001      5.6592035200000002
   479   1      26.601971989999999             12.79934935      5.8265879800000002
   480   1      30.576530000000002      12.738805920000001      5.8482295100000004
   481   1      32.407777580000001      16.353501309999999      5.7731282300000002
   482   1      3.9584092200000001      16.392570509999999      5.9580857600000003
   483   1      8.0296965900000004      16.379936489999999      5.9663609099999997
   484   1             12.22114745      16.530146689999999      5.8666829399999996
   485   1      16.264092810000001      16.537219270000001      5.5585042099999997
   486   1      20.410104459999999             16.57780361      5.7484674099999999
   487   1      24.445628800000001             16.60421977      5.6415245799999996
   488   1      28.452252550000001      16.290178820000001      5.7928420000000003
   489   1              1.89806316             19.70156442      5.9408699800000004
   490   1      6.1489093500000003      19.975208590000001      5.6710027399999996
   491   1             10.29662817      19.619699149999999      5.8329640899999999
   492   1             14.29107707             19.98203706      5.8446529900000002
   493   1      18.227819610000001      20.025244090000001      5.8010785299999998
   494   1      22.320430120000001             20.03817656      5.7745927899999998
   495   1              26.4629957             20.00683677      5.5569795800000001
   496   1      30.531219109999999      19.911500669999999      5.7961918299999997
   497   1   -0.029259159999999999      23.191537499999999      5.7396830599999999
   498   1      4.0081401100000003      23.361789049999999      5.7906558099999996
   499   1      8.1339293700000006             23.50458824      5.7248515800000002
   500   1             12.14104663      23.289856090000001      5.8371993599999996
   501   1      16.371449559999999             23.37844922      5.6717690100000002
   502   1      20.225114869999999      23.474657749999999      5.8716519399999996
   503   1      24.216562530000001      23.480622499999999      5.8753697699999998
   504   1             28.47064666      23.483281059999999      5.6730942500000001
   505   1      1.8966311600000001      26.838877660000001                5.820392
   506   1      6.0877689200000003             26.97838205      6.0465447899999996
   507   1      10.131508630000001             27.25092574      5.6474874799999997
   508   1             14.09872893      26.995433800000001      5.9286659799999999
   509   1             18.24176812             27.01820184      6.1626587500000003
   510   1      22.204520250000002             27.06386749      5.8015002600000001
   511   1             26.18725439      26.901865780000001      5.6905040600000003
   512   1             30.40241846      27.031512599999999      5.9644961399999996
   513   1      32.599559220000003   -0.059147449999999997      6.7888388300000004
   514   1              3.95252698   -0.032024110000000001      6.5810915799999998
   515   1      8.1866813700000005     0.16617154000000001      6.6289414100000004
   516   1      12.120200580000001      28.127962310000001      6.8324226699999997
   517   1      16.113706870000001    0.082908200000000001      6.5473212299999997
   518   1             20.29122284              0.13046326      6.8550330300000004
   519   1      24.095877130000002    0.040755729999999997      6.6209011499999999
   520   1      28.296427019999999      28.230061119999998      6.6302847199999997
   521   1      2.1402138499999999      3.5812617200000001      6.7642824800000003
   522   1      5.9606652699999998      3.5105003400000001      6.7430721800000004
   523   1              10.2490904              3.52355946      6.6033126500000003
   524   1      14.153157930000001      3.6258105999999999      6.6339786500000004
   525   1             18.12525295      3.3653848100000001      6.9607225499999998
   526   1      22.150061600000001               3.6453449      6.5204516699999999
   527   1      26.318179270000002      3.5454589900000002      6.6735339500000004
   528   1      30.536493790000002      3.5367949200000002      6.6936452800000001
   529   1     0.20813728000000001              6.86731026      6.8775741100000003
   530   1              4.15635785              7.27969212               6.7689781
   531   1      8.2858438700000008      7.0842042300000001      6.6501624000000001
   532   1             12.37148479      7.0760014599999996      6.5988547899999999
   533   1      16.323461389999999      7.1462776200000002      6.6724759799999998
   534   1      20.294154970000001      7.2538357500000004              6.61965161
   535   1      24.417089709999999      7.0470840099999998      6.5211593900000002
   536   1      28.471716529999998              6.89571954      6.7274492199999996
   537   1              2.06364466      10.519241620000001      6.6619769099999999
   538   1      6.2625765700000002      10.602690900000001      6.6902665900000002
   539   1      10.427896759999999      10.559605189999999      6.9278933800000004
   540   1               14.499362      10.627490229999999      6.5780046600000004
   541   1      18.374719110000001             10.80598161      6.6504093299999996
   542   1      22.505442160000001      10.723243350000001      6.8151554499999998
   543   1      26.412684250000002      10.519006170000001      6.5948076100000002
   544   1      30.563475629999999             10.51322598      6.8259841999999997
   545   1      32.623081910000003      14.031465730000001      6.6652739299999997
   546   1      3.8762813600000001      13.956915479999999      6.6713840299999996
   547   1      8.2521566199999992             14.15776082      6.7145706799999996
   548   1      12.297867289999999             14.14306455      6.7114228000000002
   549   1             16.53389537             14.33949387      6.7382472299999998
   550   1              20.6421587      14.174178599999999      6.6746554299999996
   551   1             24.77167931      14.121457449999999      6.4909327699999997
   552   1             28.53306736      14.078387770000001      6.9312322999999996
   553   1      1.7399091200000001               17.466459      6.5615348600000001
   554   1      5.8308262400000004             17.66563331      6.4080655100000001
   555   1             10.10612474      17.419119219999999      6.6995105199999996
   556   1      14.290274200000001      17.785662219999999      6.7065764899999998
   557   1      18.334252150000001      17.767697680000001      6.5560629700000002
   558   1      22.334098059999999             17.50714443      6.4976124200000003
   559   1      26.447424869999999      17.571521480000001      6.6990215199999996
   560   1      30.353597329999999      17.443482169999999      6.6478710000000003
   561   1   -0.073749019999999998      21.030404990000001      6.6962683500000004
   562   1      3.9045124200000001             20.85779234      6.4477678899999997
   563   1      8.2467503400000002             21.06443951      6.6449364400000004
   564   1             12.09753471             20.99760436      6.6148113799999999
   565   1      16.273970930000001             21.12258632      6.7237004899999997
   566   1             20.26661884             21.04190505      6.6468592800000001
   567   1      24.544456520000001      21.269264580000002      6.6052688499999999
   568   1      28.522857739999999             21.11372562              6.62077692
   569   1      1.9919344299999999             24.46100727      6.6219647500000001
   570   1      6.0459095100000004      24.599272469999999      6.6138927199999999
   571   1      10.223849230000001      24.603767510000001      6.7014861799999998
   572   1             14.31115438      24.550979040000001      6.6233016500000002
   573   1      18.326093520000001      24.558763599999999      6.7042792000000002
   574   1      22.270730879999999             24.76499553      6.7412535499999997
   575   1              26.3174429      24.618958939999999              6.63841254
   576   1      30.466067089999999      24.416072020000001              6.58574518
   577   1      2.0185804900000002      1.1978093299999999      7.6003326600000003
   578   1      6.0237844699999998              1.22767929      7.5870038199999996
   579   1             10.05309465      1.2828158000000001      7.2007776799999998
   580   1      14.028165639999999      1.1532443299999999              7.51601272
   581   1      18.298326889999998      1.2455734300000001      7.4181363100000004
   582   1      22.197561790000002              1.25811699      7.5231733700000003
   583   1      26.233955529999999      1.2561785400000001      7.4105744800000002
   584   1      30.500979709999999     0.91365280000000004              7.51088003
   585   1    0.011111889999999999      4.5857967100000003              7.64164463
   586   1      4.2186893899999998              4.82437498      7.3484233100000003
   587   1      8.0872571600000001      4.6978705999999999              7.59470037
   588   1             12.23453711      4.8754609599999998              7.63896262
   589   1      16.088646789999999      4.6062148299999999              7.37981569
   590   1      20.161250110000001      4.7679156200000001      7.6562582299999997
   591   1             24.26762153      4.7784993299999998      7.4317946099999999
   592   1      28.350120700000002      4.4972179800000003      7.3891985699999996
   593   1      2.2685349499999998      8.2433881899999992      7.9934344399999997
   594   1      6.2519788500000004      8.2165066800000002      7.5167314799999998
   595   1      10.198361520000001      8.1684989899999998              7.34278064
   596   1             14.19515444      8.4541376699999997      7.4346858400000002
   597   1      18.215171550000001      8.3943171000000003      7.5811835700000003
   598   1      22.468745599999998      8.4982309399999991      7.3781520399999998
   599   1      26.434673759999999      8.2043170799999992      7.4745311799999996
   600   1      30.646333559999999      8.0787356399999997      7.4753916800000004
   601   1    0.034635180000000002      11.782106499999999      7.6829048999999996
   602   1      4.0258078599999996             11.61464288      7.6844123499999997
   603   1              8.23787673      11.782881039999999      7.3667616999999996
   604   1             12.65885396      11.724045970000001      7.5610375999999997
   605   1             18.36285535             13.18744074      8.4746643400000004
   606   1      20.352687209999999              11.8923849      7.5571435500000002
   607   1      24.435670550000001             11.89234257      7.4343801100000002
   608   1      28.564341859999999      11.354353550000001      7.5188749599999998
   609   1              1.95548783      15.163591520000001      7.5263410400000001
   610   1      6.1220394899999997      15.361766660000001      7.5466133700000002
   611   1             10.23961997             15.14702656      7.7247637999999998
   612   1             14.43648978             15.43590582      7.3188060200000002
   613   1             18.54721713      15.434039569999999      7.4390868499999998
   614   1      22.540758499999999      15.249666149999999      7.6912915100000001
   615   1      26.477931829999999      15.390570439999999      7.1671809299999998
   616   1      30.574802640000001      15.279214809999999      7.5308826800000004
   617   1    -0.15922840999999999             18.52598004      7.6108090600000002
   618   1      3.7569007000000001      18.793505580000001      7.4502146900000001
   619   1      8.0235873499999997      18.587962109999999      7.3629745199999999
   620   1             12.20070701      18.791640359999999      7.4805157700000002
   621   1             16.21348995      18.734368580000002              7.60253976
   622   1             20.29392889             18.92446795      7.6153964399999996
   623   1      24.514330269999999      18.747199219999999      7.6823327900000002
   624   1      28.582116200000002      18.851746899999998      7.6302747100000001
   625   1      2.0649562299999999             22.25241844      7.3728420899999998
   626   1      6.1322413300000003      22.250834229999999      7.4863469199999999
   627   1              10.1043333      22.260604690000001      7.5400199900000002
   628   1             14.13441549      22.232950710000001      7.6044363800000001
   629   1             18.35156095      22.349278680000001      7.6045835200000003
   630   1             22.50900519      22.475419479999999      7.7162440500000002
   631   1      26.547321369999999      22.217435980000001      7.4764644000000002
   632   1      30.448113500000002             22.18717651              7.74301013
   633   1      32.453928240000003      25.881808500000002              7.47015647
   634   1              3.72352192      25.882200139999998              7.69514458
   635   1      8.2716822899999993      25.932621910000002      7.3376138700000002
   636   1      12.079971970000001      25.817512560000001      7.5160373600000003
   637   1              15.9396948      25.895252150000001      7.6959224500000003
   638   1      20.347585729999999             25.92816169      7.5504817800000001
   639   1             24.18337919      25.939652070000001      7.5863725899999999
   640   1      28.336866350000001      25.773501509999999      7.6145527700000004
   641   1      32.183869520000002      6.9913977899999997      9.1957936100000008
   642   1      2.3184421199999998     0.96251394999999995      9.9193916699999996
   643   1      10.184403229999999      3.3711991499999998      9.0385107799999993
   644   1      12.381307169999999      2.4314324799999998      8.2245672699999997
   645   1             11.86544378     0.18481270999999999      9.3356691499999993
   646   1      16.350106390000001              2.20355671      8.4525261500000006
   647   1      24.421140579999999      7.0602719699999996      9.3902127600000007
   648   1             30.53301166      3.3036949600000001      9.1443293899999993
   649   1      1.8631365200000001      3.3311212700000001      9.2874844900000006
   650   1               1.6684629      26.890586259999999      8.6537264399999998
   651   1      14.159623870000001      1.2768103799999999      9.7948775000000001
   652   1             12.09220144      9.6471627200000007      8.2772945799999995
   653   1             24.62368485      9.5764923700000004      8.3130878999999993
   654   1              4.21404668      27.990333039999999      8.9285189299999992
   655   1      20.223103009999999      2.3565760500000001              8.36312693
   656   1      4.1021522600000004      7.2163883499999999      9.2300184600000001
   657   1      8.1016545299999994      9.5391226200000006      8.2097212200000005
   658   1      14.240244730000001      17.734075319999999      9.0356615399999995
   659   1      6.0481146900000002      8.3312002199999995      9.8806042699999992
   660   1      10.134986469999999      5.8744810599999999      8.2610825600000002
   661   1      18.127004490000001      25.533935849999999      8.8888345399999995
   662   1      28.620600759999999      9.0078321599999995      8.3752623100000001
   663   1      20.251213060000001      7.2218485499999998      9.1005582999999994
   664   1      1.8215043900000001      10.501323429999999      9.1500238800000009
   665   1      10.396157949999999      12.633348740000001      8.3486810600000005
   666   1      6.2675143000000002             15.08866821             10.02440548
   667   1      12.047329789999999      21.059461760000001      8.8742017099999995
   668   1             16.31183815      12.010339829999999      7.5527012100000004
   669   1             20.40758443             14.52432774      8.9724433799999996
   670   1      26.651994609999999      12.760325720000001      8.2133868099999994
   671   1      32.557172370000004      16.163977379999999      8.2884537399999996
   672   1      2.0677374300000002      12.866247019999999      8.2954264799999997
   673   1      4.0106458199999997      16.356612779999999      8.5051664200000001
   674   1      4.1229230599999998             13.95197364      9.2442265799999994
   675   1              6.15203715      17.436057040000001      9.0039160599999999
   676   1             10.12145056      19.659873579999999      8.3064546900000007
   677   1             14.13367899             19.89964982      8.2746795599999992
   678   1      20.491045369999998      16.627694519999999      8.1442332499999992
   679   1      24.656961169999999             13.88862168      8.8760440500000009
   680   1      28.428752060000001              16.3672848      8.3923725499999993
   681   1      2.0107963500000001      24.257682930000001      8.9317625300000003
   682   1      8.2011295400000002              16.2515678      8.5443570700000002
   683   1      6.1848855699999996      27.021939700000001      8.4846420499999997
   684   1      8.2109815899999994             13.57479103      9.3239783799999998
   685   1      22.535527550000001      20.076531259999999      8.3412167400000001
   686   1              22.4240222             24.85529193      8.9898511600000006
   687   1             30.32921979             12.87848758              8.31492684
   688   1      30.689865449999999      19.720919599999998      8.2876375400000004
   689   1      24.584508750000001             21.16859925      8.9298490200000007
   690   1      4.2182406300000004             23.39456315      8.2135262600000001
   691   1              3.94068715      4.8213936300000002      9.7390622600000007
   692   1             13.92260014      27.191901770000001      8.4681095000000006
   693   1      18.215291329999999             19.99037658      8.2784935799999992
   694   1             18.49363348      17.504159739999999      8.9175694300000004
   695   1             24.43832768      23.571463390000002      8.4039364899999995
   696   1      28.300260250000001      23.351502050000001      8.0701514099999994
   697   1              3.94182678      2.2315642900000001      8.7062307699999995
   698   1      8.2629119299999996      26.058004029999999      9.7158776600000003
   699   1      20.260379539999999             23.62097979      8.4098941899999993
   700   1      16.320920839999999             23.47340243      8.2021423999999996
   701   1             16.64332954      27.654789600000001      9.0661569800000006
   702   1      24.414980400000001              0.10720375      8.9912005100000005
   703   1      22.383209059999999      3.5924862399999999      8.7850415599999998
   704   1      32.270771230000001      27.981768200000001      9.1971602099999998
   705   1      1.9302657599999999      5.9166191000000001      8.4438712099999993
   706   1      5.8965755700000004              1.16287414             10.05336352
   707   1             14.48192045      5.9869103800000003      8.4451838299999995
   708   1      16.212090490000001      21.167360049999999      8.9757756799999999
   709   1      19.308795790000001      27.800106329999998      8.9780006399999994
   710   1             20.48427487      21.322291140000001      8.8746919799999997
   711   1      28.318467800000001              2.26326122      8.0441356600000002
   712   1             -0.12210388      23.626992919999999      8.2595355300000008
   713   1      32.535226270000003      2.2227063299999998      8.3288843799999999
   714   1             30.12902132      24.431370560000001      9.1767229799999992
   715   1      30.379485639999999      26.789659329999999      8.5169292399999996
   716   1             14.51422741              3.40421665      9.0264459699999993
   717   1      28.464125299999999     0.26228240000000003              9.08670796
   718   1             24.20002882      2.3319994799999999      8.2137041199999992
   719   1   0.0079854399999999999      4.7100205800000001      9.8627792200000002
   720   1      30.420224520000001      5.7157862899999996      8.3385827999999993
   721   1      4.2222870500000003      9.5651097400000005      8.3593133099999992
   722   1             12.31789459      16.339883279999999      8.3138009400000001
   723   1      6.0461493400000004      5.9394506399999996      8.3657241199999994
   724   1      7.9465090700000003      6.6744452299999999      9.3002588399999997
   725   1              12.4458933      7.0587143299999999      8.9010180800000001
   726   1      18.008917889999999      5.9869708599999996      8.4952903400000004
   727   1      14.375399440000001             24.62011377      9.0463019300000003
   728   1              0.11748949      13.920700829999999      9.1542533000000006
   729   1              3.97513461             18.67292033      9.8676880800000006
   730   1      8.1637283899999993      2.4550154100000001      8.2133926200000005
   731   1      14.445505259999999             10.92663185      8.9290708300000006
   732   1      16.383739689999999              9.47262819      8.4683106899999991
   733   1             16.34891086             16.35218815      8.1550091899999995
   734   1      32.343490269999997      25.545082969999999      9.7828715800000001
   735   1             22.34803454      5.9901663599999999      8.1670188899999996
   736   1      6.3500584399999997      10.701743690000001      9.0174202900000004
   737   1      28.537992769999999             20.81920817      8.9829359800000006
   738   1      32.399720950000003      9.1980562900000002      8.3632564499999997
   739   1      12.569976390000001      13.405729109999999      9.3567784899999999
   740   1             15.06481456      13.332767219999999      8.6510077200000008
   741   1      22.495654819999999      12.929500989999999      8.6342168600000004
   742   1      26.522531520000001      6.1763288599999999      8.6081319399999998
   743   1      20.368853489999999              9.51003708      8.1094175899999996
   744   1      2.1471242799999999             15.09011492      9.9907854500000006
   745   1      2.0636385599999998      19.813024380000002      8.4924313199999997
   746   1      6.1924929300000002      12.958490879999999      8.3027820699999992
   747   1      10.112045070000001      17.512155740000001      9.0138602100000007
   748   1      7.7853834099999997      21.383910050000001      8.9860250300000004
   749   1      24.539129549999998      16.398680450000001      8.1941385899999997
   750   1             26.36240681      17.512109120000002      9.0614055499999999
   751   1      22.363076679999999             17.56974855      8.9095568699999994
   752   1      1.8889927799999999      17.509489729999999      9.2477198000000005
   753   1      4.0558739900000003      21.097700660000001      8.8722958300000005
   754   1              8.02235312      23.700095050000002      8.0371767399999996
   755   1      6.2046722299999999      24.837668619999999      9.1921387899999996
   756   1      10.091185749999999      26.930009250000001               8.2863954
   757   1             12.18288298      23.350820930000001      8.2379417400000001
   758   1             26.37234273             27.06785399      8.2204751799999993
   759   1      26.502169080000002      19.972147759999999      8.2059555199999998
   760   1      26.565594780000001      22.190761380000001      9.7018684400000001
   761   1      6.0280242599999996      19.903819890000001      8.1279057899999998
   762   1      30.611111990000001      17.579057330000001      9.1254589300000006
   763   1              6.27286038      3.6659622600000001      9.1057640000000006
   764   1      8.5106173999999992     0.25151957000000003      9.4110999799999995
   765   1             10.13729395      24.576390759999999      8.9197909800000001
   766   1             22.04613771      27.188641560000001      8.6504034000000001
   767   1      26.678752540000001      24.737765629999998      9.3465699299999994
   768   1   -0.045566250000000003             21.51594188              9.17215633
   769   2      27.171780989999998              1.99228882      9.5583012099999998
   770   2             25.53219812      1.8629051299999999      9.3194276699999996
