N2-dn2-coord-10bar/300K/snapshots/frame-68831/run-000/../data.lammps (written by ASE) 

770 	 atoms 
2  atom types
0.0      32.470343392086264  xlo xhi
0.0      28.120142247150884  ylo yhi
0.0      31.213473999158239  zlo zhi


Atoms 

     1   1      2.0293964600000001      1.1716090800000001    0.023552650000000001
     2   1      6.0880008999999999              1.17168918              0.02556874
     3   1      10.146952280000001              1.17170328    0.025416459999999998
     4   1      14.205754900000001      1.1716496700000001              0.02501565
     5   1             18.26456816              1.17166478              0.02504435
     6   1             22.32338141      1.1716496700000001              0.02501565
     7   1      26.382184030000001              1.17170328    0.025416459999999998
     8   1      30.441135410000001              1.17168918              0.02556874
     9   1  9.1780000000000006e-05      4.6866847900000002    0.025581599999999999
    10   1      4.0587011400000002      4.6866847900000002    0.025581599999999999
    11   1      8.1174961000000003      4.6866290399999997    0.025584639999999999
    12   1             12.17638011      4.6866852999999997              0.02491202
    13   1             16.23517979      4.6866942700000003    0.025006210000000001
    14   1      20.293956519999998      4.6866942700000003    0.025006210000000001
    15   1      24.352756209999999      4.6866852999999997              0.02491202
    16   1      28.411640219999999      4.6866290399999997    0.025584639999999999
    17   1      2.0293964600000001      8.2016395800000002    0.026613040000000001
    18   1      6.0881071599999999      8.2016314300000008              0.02543782
    19   1             10.14701835               8.2017045    0.025156850000000001
    20   1      14.205766049999999      8.2017080900000003    0.024990459999999999
    21   1             18.26456816      8.2017077599999997    0.025091249999999999
    22   1      22.323370260000001      8.2017080900000003    0.024990459999999999
    23   1      26.382117969999999               8.2017045    0.025156850000000001
    24   1      30.441029149999999      8.2016314300000008              0.02543782
    25   1  9.2789999999999998e-05             11.71671873    0.025573410000000001
    26   1              4.05870014             11.71671873    0.025573410000000001
    27   1      8.1176017700000003             11.71668698              0.02497914
    28   1             12.17637068             11.71673069    0.025001590000000001
    29   1      16.235177310000001      11.716730249999999    0.025074039999999999
    30   1      20.293959009999998      11.716730249999999    0.025074039999999999
    31   1      24.352765640000001             11.71673069    0.025001590000000001
    32   1      28.411534549999999             11.71668698              0.02497914
    33   1      2.0293964600000001             15.23167155              0.02525285
    34   1      6.0881728300000004      15.231678799999999    0.025062859999999999
    35   1             10.14698486      15.231762639999999               0.0250786
    36   1             14.20578841             15.23176782    0.025201990000000001
    37   1             18.26456816              15.2317707    0.025149979999999999
    38   1      22.323347900000002             15.23176782    0.025201990000000001
    39   1      26.382151459999999      15.231762639999999               0.0250786
    40   1      30.440963480000001      15.231678799999999    0.025062859999999999
    41   1      32.470327990000001      18.746748629999999    0.024951939999999999
    42   1      4.0588083299999997      18.746748629999999    0.024951939999999999
    43   1      8.1175770200000006      18.746803499999999    0.025222040000000001
    44   1             12.17637459      18.746799750000001    0.025428470000000002
    45   1      16.235159400000001      18.746805200000001    0.025487360000000001
    46   1      20.293976919999999      18.746805200000001    0.025487360000000001
    47   1      24.352761730000001      18.746799750000001    0.025428470000000002
    48   1             28.41155929      18.746803499999999    0.025222040000000001
    49   1      2.0293964600000001      22.261939099999999    0.025844880000000001
    50   1      6.0881419299999999      22.261841799999999    0.025489439999999999
    51   1             10.14692954             22.26176895              0.02551757
    52   1             14.20573559      22.261804690000002    0.025639160000000001
    53   1             18.26456816             22.26178625    0.025640119999999999
    54   1      22.323400729999999      22.261804690000002    0.025639160000000001
    55   1      26.382206780000001             22.26176895              0.02551757
    56   1             30.44099439      22.261841799999999    0.025489439999999999
    57   1  5.6450000000000003e-05      25.776936450000001              0.02613327
    58   1      4.0587364700000004      25.776936450000001              0.02613327
    59   1      8.1175325399999991              25.7767713    0.024734180000000001
    60   1      12.176376469999999      25.776831090000002              0.02545323
    61   1      16.235145939999999      25.776775220000001    0.025273360000000002
    62   1             20.29399038      25.776775220000001    0.025273360000000002
    63   1      24.352759840000001      25.776831090000002              0.02545323
    64   1      28.411603769999999              25.7767713    0.024734180000000001
    65   1  0.00024266000000000001              2.34304215     0.80166565000000001
    66   1      4.0585502699999996              2.34304215     0.80166565000000001
    67   1      8.1157394600000003              2.34454954     0.80169402000000001
    68   1             12.17601256      2.3433829099999999     0.80116898000000003
    69   1      16.235258170000002      2.3433209100000001     0.80090046999999998
    70   1      20.293878150000001      2.3433209100000001     0.80090046999999998
    71   1      24.353123750000002      2.3433829099999999     0.80116898000000003
    72   1      28.413396859999999              2.34454954     0.80169402000000001
    73   1      2.0293964600000001      5.8582218700000004     0.80119762000000005
    74   1      6.0870566899999998      5.8583336700000004              0.80194851
    75   1             10.14649655              5.85853131     0.80121584000000001
    76   1             14.20597894      5.8582938599999999     0.80086840999999998
    77   1             18.26456816      5.8583798500000004               0.8010794
    78   1      22.323157380000001      5.8582938599999999     0.80086840999999998
    79   1             26.38263976              5.85853131     0.80121584000000001
    80   1      30.442079629999999      5.8583336700000004              0.80194851
    81   1  0.00019438999999999999      9.3717771800000005     0.80082061000000004
    82   1      4.0585985400000002      9.3717771800000005     0.80082061000000004
    83   1      8.1175070500000004      9.3725002699999997     0.80149060999999999
    84   1      12.176590020000001      9.3733583399999993     0.80088261999999999
    85   1             16.23512199      9.3733789200000004              0.80106506
    86   1             20.29401433      9.3733789200000004              0.80106506
    87   1      24.352546289999999      9.3733583399999993     0.80088261999999999
    88   1      28.411629269999999      9.3725002699999997     0.80149060999999999
    89   1      2.0293964600000001             12.88692854     0.80220621000000003
    90   1      6.0883212999999996             12.88743848     0.80138414999999996
    91   1      10.147128609999999             12.88859852     0.80085256000000005
    92   1             14.20571782      12.888558189999999     0.80113791000000001
    93   1             18.26456816      12.888409899999999     0.80109381000000002
    94   1      22.323418490000002      12.888558189999999     0.80113791000000001
    95   1             26.38200771             12.88859852     0.80085256000000005
    96   1      30.440815019999999             12.88743848     0.80138414999999996
    97   1              0.00012365      16.403222639999999     0.80145666999999998
    98   1      4.0586692700000002      16.403222639999999     0.80145666999999998
    99   1      8.1174337899999998      16.403825260000001     0.80097196999999998
   100   1              12.1761021             16.40390721     0.80133072000000005
   101   1             16.23503496      16.403861750000001     0.80140014999999998
   102   1      20.294101359999999      16.403861750000001     0.80140014999999998
   103   1      24.353034220000001             16.40390721     0.80133072000000005
   104   1      28.411702529999999      16.403825260000001     0.80097196999999998
   105   1      2.0293964600000001      19.919205120000001     0.80066369999999998
   106   1              6.08752564             19.91894023     0.80122479000000002
   107   1      10.146078839999999             19.91919038     0.80159137999999996
   108   1      14.204993419999999              19.9192584     0.80178742000000003
   109   1             18.26456816      19.919377350000001     0.80194975999999996
   110   1      22.324142899999998              19.9192584     0.80178742000000003
   111   1      26.383057470000001             19.91919038     0.80159137999999996
   112   1      30.441610669999999             19.91894023     0.80122479000000002
   113   1              0.00142012      23.434536609999999     0.80178442000000005
   114   1      4.0573728100000004      23.434536609999999     0.80178442000000005
   115   1      8.1165862000000004      23.433936769999999     0.80182306000000003
   116   1             12.17555218      23.433996919999998     0.80156656000000004
   117   1             16.23465491      23.434040110000002     0.80170828999999999
   118   1      20.294481409999999      23.434040110000002     0.80170828999999999
   119   1      24.353584130000002      23.433996919999998     0.80156656000000004
   120   1      28.412550110000002      23.433936769999999     0.80182306000000003
   121   1      2.0293964600000001      26.949875330000001              0.80297246
   122   1      6.0858208300000003      26.950066320000001              0.80215291
   123   1             10.14598146      26.949241430000001     0.80165810000000004
   124   1             14.20520604      26.948673230000001     0.80131923999999999
   125   1             18.26456816             26.94858318     0.80108193999999999
   126   1      22.323930279999999      26.948673230000001     0.80131923999999999
   127   1      26.383154860000001      26.949241430000001     0.80165810000000004
   128   1             30.44331549      26.950066320000001              0.80215291
   129   1    0.083457799999999999              -0.0053387      1.4415342600000001
   130   1      4.1848602499999998             -0.05782147      1.5254796799999999
   131   1      8.1039642300000008              0.01226814      1.4336830300000001
   132   1      12.148871379999999    0.018219989999999998      1.5491213800000001
   133   1      16.221000320000002      28.108811169999999      1.5481368799999999
   134   1      20.182390229999999    0.010547839999999999               1.5309549
   135   1      24.335369960000001    0.032860069999999998      1.5830399900000001
   136   1             28.47649492      28.076396290000002      1.4680912800000001
   137   1              1.96997164      3.5500090399999999      1.5477021399999999
   138   1              6.15052018              3.52621034      1.5217910699999999
   139   1      10.248515899999999              3.51555134              1.38457765
   140   1      14.218950189999999      3.5522049999999998               1.3543341
   141   1      18.390421929999999      3.5560234999999998              1.54457321
   142   1      22.339383860000002      3.5105420999999999      1.4774712800000001
   143   1      26.376968009999999      3.4354315099999999      1.4658437499999999
   144   1      30.479614819999998      3.5008631399999999              1.42303242
   145   1             32.48501735      7.0006767999999999              1.46960596
   146   1      4.0476495000000003      7.0216677000000001      1.4361462700000001
   147   1      8.1389800999999995      6.9752925699999997              1.56749385
   148   1              12.2345842              7.07030285              1.49635264
   149   1             16.14934285      7.0700553299999997      1.3942515200000001
   150   1      20.221798020000001      7.0610901300000002      1.5327375700000001
   151   1      24.364187449999999      7.0688551300000002      1.4427387700000001
   152   1      28.363161640000001      7.0451171500000003      1.4513993599999999
   153   1              1.97210435             10.50799692      1.5362430499999999
   154   1      6.1143816900000001             10.57456972               1.4966971
   155   1             10.15718202             10.51186736              1.46739062
   156   1      14.166356370000001      10.593391349999999              1.42766072
   157   1      18.272165040000001      10.394351289999999      1.4185876399999999
   158   1      22.397919049999999             10.58746485      1.4550633799999999
   159   1             26.42462501             10.50104844              1.45807135
   160   1      30.482780959999999             10.55135278              1.46287912
   161   1      32.439681849999999      14.028423650000001      1.4917106899999999
   162   1      4.1086275900000002             14.03234082      1.4444530499999999
   163   1              8.08933167             14.03099675      1.4020981299999999
   164   1              12.1671938             14.06586315      1.2995240800000001
   165   1      16.254199790000001      14.047861960000001      1.4575462699999999
   166   1             20.42963035             14.05643392      1.5046271899999999
   167   1      24.393156430000001             14.06019498              1.50937218
   168   1      28.427116439999999      14.102057110000001      1.4953740600000001
   169   1      2.1074162200000002             17.62232972                1.451911
   170   1      5.9642625499999999      17.633235989999999      1.5294125999999999
   171   1      10.092763720000001      17.570651439999999              1.45614938
   172   1             14.29064314      17.561014440000001      1.3444554799999999
   173   1             18.26853088      17.545742300000001      1.3464287100000001
   174   1             22.28501666      17.734071610000001      1.3779634199999999
   175   1      26.413346780000001      17.604152249999999      1.4899292900000001
   176   1      30.433992920000001      17.684700660000001      1.4714128399999999
   177   1   -0.042994169999999998      21.036383870000002              1.45659469
   178   1      4.1304160100000002             21.12477183      1.4985728899999999
   179   1      8.1377219699999994      21.115854299999999               1.3993171
   180   1             12.24521728      21.169373419999999      1.4583606200000001
   181   1      16.172813680000001      20.991738219999998              1.45096672
   182   1             20.28320021      21.108587880000002      1.4507727800000001
   183   1      24.390529539999999      21.138902160000001      1.3971496699999999
   184   1      28.375573200000002             21.05720883              1.41088251
   185   1      2.1104172000000001      24.633844669999998              1.52701799
   186   1      6.0945403699999998      24.512168620000001              1.32142435
   187   1      10.136905459999999      24.652665219999999               1.5432785
   188   1             14.24299618             24.70226341      1.4769119500000001
   189   1      18.317078389999999      24.520926110000001      1.5627753200000001
   190   1      22.221260239999999      24.649722229999998      1.4640518499999999
   191   1      26.361242839999999      24.609012150000002              1.52548141
   192   1      30.447523060000002             24.59378598              1.53219872
   193   1              2.00862484      1.1761535299999999              2.31628737
   194   1      6.1469058800000003               1.1800275      2.4158856399999999
   195   1             10.13888897      1.1726867000000001      2.4137184700000001
   196   1             14.28904296              1.12765483      2.4214035599999999
   197   1             18.12621686      1.1900774599999999      2.3973809300000002
   198   1      22.221146999999998      1.2235086799999999              2.46177191
   199   1      26.378666559999999      1.0913867500000001      2.3247933999999999
   200   1      30.443853659999998      1.2460306299999999      2.4158184299999999
   201   1      32.377587779999999      4.6038164699999999      2.4157328900000001
   202   1      4.1104368899999999      4.6029653699999997      2.3664919200000001
   203   1      8.1924425900000006      4.6212554600000004      2.4856280599999998
   204   1              12.2311189      4.7641989699999998      2.3169326799999999
   205   1      16.291449759999999              4.77440116      2.4081660899999999
   206   1             20.27402184      4.7211363300000002      2.3507718299999998
   207   1             24.37058657      4.6993597999999999      2.5145453299999998
   208   1      28.413231809999999      4.6813044599999998      2.3890598700000001
   209   1      1.9943987000000001      8.2729964299999992      2.4379419800000002
   210   1      6.0425977099999999      8.2805339300000007      2.3605793899999998
   211   1             10.10712187      8.1993408799999994      2.4260752000000001
   212   1             14.23665327      8.2788060600000009              2.32383695
   213   1             18.19875395      8.2297377399999991      2.5046956100000002
   214   1      22.323831810000001      8.2445815200000006      2.4460901599999998
   215   1      26.368601399999999      8.2081082199999997      2.3311063500000002
   216   1      30.426721919999999      8.1589667099999996      2.4119964999999999
   217   1      32.509940059999998      11.785347850000001      2.4255105499999998
   218   1      4.0815680499999996               11.699309              2.44251621
   219   1      8.0698750300000004              11.7420046      2.4043948099999999
   220   1             12.17018182      11.829344989999999              2.33804604
   221   1             16.35010772             11.71551792      2.3844745399999998
   222   1             20.40219767             11.72577989      2.4306131600000001
   223   1      24.402689779999999      11.813474790000001      2.4114170399999999
   224   1             28.42200025              11.6857235      2.4363456499999998
   225   1      1.9866825299999999             15.16060998              2.42619732
   226   1      6.0744426000000002      15.285463760000001              2.33179962
   227   1             10.11494055      15.280574039999999      2.4227756999999999
   228   1      14.246085470000001             15.14841893      2.4693844399999998
   229   1      18.356549810000001      15.300253079999999      2.3639279700000002
   230   1      22.435144269999999      15.306277229999999      2.4010913999999999
   231   1      26.395507909999999             15.20002042      2.5380700599999999
   232   1      30.438315129999999             15.12595106              2.47936113
   233   1             32.45386602      18.659799060000001      2.5108843200000002
   234   1              3.99909347             18.73342925              2.49434369
   235   1      8.0583392699999994             18.80052555      2.3827126500000002
   236   1             12.19065142      18.772262000000001      2.3454729200000002
   237   1      16.163839540000001             18.66453928      2.5025126000000002
   238   1      20.349964079999999             18.76961597      2.4803453100000001
   239   1      24.393660650000001      18.719025989999999      2.4696477899999998
   240   1      28.469405689999999             18.81324064      2.3740059900000001
   241   1      2.0754955399999999      22.245196759999999      2.3391303200000002
   242   1      6.1085844500000004      22.138226970000002      2.4462776599999998
   243   1      10.153365969999999      22.318542040000001      2.3204419700000001
   244   1             14.27158803             22.32364789      2.3229357300000002
   245   1      18.382786830000001      22.324593749999998              2.39241174
   246   1      22.352101470000001      22.186055079999999      2.4045462500000001
   247   1      26.499475109999999      22.353884059999999      2.4196139900000002
   248   1      30.575984800000001      22.336636129999999      2.3848917599999999
   249   1    0.018474250000000001             25.80413536              2.34257764
   250   1      4.0934239899999998      25.714313260000001      2.3347487400000002
   251   1      8.1078641299999994             25.76792051      2.3988366800000001
   252   1             12.14652828               25.712163      2.3987420400000001
   253   1      16.161071199999999      25.697059629999998      2.5115589900000002
   254   1             20.39378902             25.74107094      2.3956244799999999
   255   1      24.305918630000001             25.85772601      2.3911271300000001
   256   1      28.328679860000001      25.744150179999998      2.5347237300000001
   257   1   -0.083755209999999997      2.3300553599999998      3.2191339800000001
   258   1      3.9819139899999998      2.3390686199999999      3.2001549300000001
   259   1      8.1392233699999998              2.25568977              3.36350886
   260   1      12.226194639999999      2.3652851799999999      3.2046802699999999
   261   1      16.184537880000001      2.3338229300000002              3.37139357
   262   1      20.275652340000001      2.4455963399999998      3.2437736699999999
   263   1              24.3034885      2.2095088700000001      3.3502651299999999
   264   1             28.31198556      2.2747975899999999      3.2778005600000002
   265   1      1.9943891899999999      5.8787501899999999      3.1898997699999998
   266   1      6.0265914799999996      5.8448571100000004      3.2028169000000002
   267   1             10.23355787      5.9959594300000001      3.2235030299999998
   268   1      14.241787029999999      5.8789376200000003      3.2241002000000001
   269   1             18.26829824      5.8865273800000004              3.19733314
   270   1      22.307988479999999      5.8855345999999997      3.2428510199999998
   271   1             26.48421686      5.9246930799999999      3.2249493400000002
   272   1      30.438140149999999      5.9129875600000004      3.2123261799999998
   273   1  -0.0063312000000000004      9.4800585700000006              3.22606086
   274   1      4.1176707400000003      9.3997815500000002      3.2634667999999998
   275   1      7.9835009499999998      9.3966947600000008      3.1934278900000002
   276   1      12.193231880000001      9.4584698899999999              3.19128904
   277   1      16.269479629999999      9.4275534499999996              3.21788695
   278   1      20.336692599999999      9.3777326999999993      3.2878914699999999
   279   1      24.397706169999999      9.3974988100000001      3.2204988499999998
   280   1      28.451297350000001      9.4450187099999994      3.2170061099999998
   281   1              1.98925847             12.92069813      3.2522855800000001
   282   1              6.11048277             12.97318531      3.1792407599999999
   283   1      10.083292269999999      13.002445010000001      3.2679515000000001
   284   1      14.321816180000001             12.84361082      3.2079192000000001
   285   1      18.240020529999999             13.00018637              3.15780255
   286   1      22.392623109999999             13.01836458      3.2207489499999999
   287   1             26.54966619             12.94677151      3.3295222899999999
   288   1             30.52014432      12.829412769999999      3.3742087600000001
   289   1   -0.052106510000000002      16.300236559999998              3.11419113
   290   1      4.0969351100000004      16.489747550000001      3.1564738299999999
   291   1      8.1541929700000004      16.458327709999999      3.1548391100000002
   292   1      12.293681980000001      16.231134319999999      3.2300992499999999
   293   1      16.204827680000001      16.317775959999999      3.2756892999999998
   294   1      20.465343470000001      16.409070620000001              3.26728854
   295   1              24.4540787      16.381545450000001      3.3606839000000002
   296   1      28.456118709999998      16.353829690000001              3.30139089
   297   1      2.0331353999999999      19.871138129999999      3.2475010800000002
   298   1      6.1211092899999997      19.847001909999999      3.2883046199999999
   299   1      10.074464450000001      19.839424829999999      3.1830270899999999
   300   1             14.16891425      19.881509130000001      3.3035508400000002
   301   1             18.16488975             19.87986575      3.0940594899999998
   302   1      22.366920560000001      19.771795950000001      3.2139851099999999
   303   1             26.40325941      20.002429889999998              3.20927732
   304   1      30.527533930000001      19.840523699999999      3.2750489900000002
   305   1      32.570647460000004             23.57735774      3.1843072100000001
   306   1      4.1064604600000001             23.25763019              3.27488438
   307   1              8.07849708             23.39986317              3.35635482
   308   1             12.21747412              23.4221565      3.2318171100000002
   309   1      16.206810189999999      23.426396820000001      3.2427332099999999
   310   1      20.426373810000001      23.426112710000002      3.3118829600000002
   311   1      24.267353400000001             23.36123048      3.3138233399999999
   312   1             28.52198087      23.361396880000001      3.4276872200000001
   313   1      1.9861276000000001      26.941560840000001      3.1972589400000002
   314   1      6.0806994599999999             26.87471566              3.29979281
   315   1             10.06988672      26.857451959999999      3.2277272899999998
   316   1      14.127045089999999      26.849485600000001      3.2946681899999999
   317   1      18.271696779999999             26.91850049              3.18364285
   318   1      22.251686119999999             27.09232347      3.3883182000000001
   319   1             26.30943422      26.940238050000001      3.2379333799999999
   320   1             30.47826186             26.99395204      3.2434217200000002
   321   1             32.40796306      28.160841949999998      4.0993543700000004
   322   1      4.0549504000000001      28.144702389999999      4.0497316899999998
   323   1      8.1023045699999994   -0.085866819999999996      4.1310204500000003
   324   1             12.04760053   -0.053857809999999999      4.1119081499999997
   325   1              16.1654631              0.00227955      4.0666704200000003
   326   1      20.315725149999999      28.255647759999999      4.1120366600000002
   327   1      24.237565490000001      28.092294899999999      4.1862425500000002
   328   1             28.24221051              0.11011019      4.0741297300000001
   329   1              1.99673802      3.3963513600000002      4.0522657200000003
   330   1      6.1308795600000003      3.4985141500000001              4.14432943
   331   1             10.21714925      3.5906931200000001      4.0366399199999998
   332   1      14.173956459999999      3.5499545100000001      3.9601866800000001
   333   1      18.271100820000001              3.51866368      4.1376944699999996
   334   1      22.268330450000001      3.5637713999999998              4.12389618
   335   1             26.25068357      3.4859146600000002      4.0751140100000001
   336   1             30.47804472      3.5578570799999998      4.0543072499999999
   337   1   -0.019379360000000002              7.07297171      3.9659369400000002
   338   1      4.0264916199999998      7.0384135600000004      4.0281745899999999
   339   1      8.1019557100000004              7.08150835      4.0570811899999999
   340   1             12.24445824      7.1709166099999999      4.0695104500000001
   341   1      16.342545489999999              7.03308087      4.0858272500000004
   342   1             20.28444227      7.0911034900000001      4.0771429299999999
   343   1             24.36444504      7.0236873600000003      4.0668342300000004
   344   1      28.514892209999999      7.1235724400000002      4.0804332199999997
   345   1      2.1566730700000001      10.536698100000001      4.1179104899999999
   346   1      6.1263386999999998             10.57986253      4.0714741800000001
   347   1      10.189077749999999             10.55616848      3.9802655800000002
   348   1             14.10987692      10.546043060000001      4.1227572199999996
   349   1             18.18498568             10.67633487              4.09621236
   350   1      22.357881729999999             10.64671742      4.0164890499999997
   351   1      26.445848300000002             10.48168087      4.1610257400000004
   352   1      30.487524109999999             10.63113727      4.0187952600000001
   353   1      32.427850790000001             13.99632147      4.1034766600000001
   354   1              4.05714693      14.100087780000001      3.9584774899999999
   355   1      8.1334654700000009             14.07952615      3.9493194599999999
   356   1             12.19726348      13.986758180000001      4.0266241300000001
   357   1             16.24895918             14.03226557      4.1525649199999997
   358   1      20.355044289999999             14.04202499      4.0095364599999996
   359   1             24.46569483      14.084047330000001      4.1059371599999999
   360   1      28.456082930000001      14.090996329999999      4.1187152200000003
   361   1              1.94941692      17.555024450000001      4.0205904800000001
   362   1      6.0778904200000001      17.582792730000001      4.0994167199999998
   363   1      10.145407799999999             17.52255414      3.9136269800000001
   364   1      14.162444170000001      17.546791760000001              4.04736151
   365   1      18.264639469999999      17.662691110000001              3.97882699
   366   1             22.52234743      17.552524470000002      4.1008637500000003
   367   1      26.429131989999998             17.57687778      4.0426025699999997
   368   1             30.48545657      17.559373619999999      4.1034250200000004
   369   1   -0.019289959999999998      21.128520259999998      4.0401580399999997
   370   1              4.17752517      20.994827560000001      4.1639368799999996
   371   1      8.0191520300000008              21.1191405      4.1288208400000004
   372   1             12.28143266              21.1311213      4.0760275500000001
   373   1             16.31023282             21.11611164      4.1322433700000003
   374   1             20.32468274      21.021007640000001      4.0851404000000002
   375   1      24.268876809999998      21.056463610000002      4.1670612900000004
   376   1      28.388197460000001      21.128380750000002      4.0904405099999996
   377   1      2.1266001399999999             24.60324791      3.9595241200000002
   378   1      6.1449264899999996      24.518946969999998      4.1538843400000003
   379   1             10.12391656      24.478513360000001      4.1484826200000002
   380   1             14.15891478      24.580476470000001      4.1073260999999999
   381   1      18.165905970000001      24.647656059999999      3.9696092599999999
   382   1      22.261424940000001      24.523157040000001      4.0738163700000003
   383   1             26.36382837      24.597591260000002              4.01321336
   384   1      30.467328869999999      24.637361129999999      4.0207053100000003
   385   1      2.0295519899999999              1.11426365      4.7934169200000003
   386   1              6.05731076              1.15602041      4.8984459300000003
   387   1             10.13077094              1.09381024      4.9895110699999998
   388   1             14.25355813      1.2335195000000001              5.01147557
   389   1      18.187697400000001              1.10094596      4.9244635199999998
   390   1      22.155554850000001      1.2912526200000001      4.8695295700000001
   391   1      26.279995920000001      1.2638830999999999      5.0258726400000002
   392   1             30.31081782              1.19755919      4.9969959399999997
   393   1   -0.048020269999999997      4.7238110100000004      4.8302925700000001
   394   1      3.9618786400000001      4.7213864799999996      4.9004151900000004
   395   1      8.1360880600000005      4.5922291800000004      4.9011477299999999
   396   1      12.281380889999999      4.8474425999999999      4.8930535500000003
   397   1             16.20900966      4.7004697599999998      5.0346612200000003
   398   1             20.15513099      4.7545921199999999              4.95457299
   399   1             24.34072471      4.7353217000000001      4.9754160799999996
   400   1      28.330140960000001      4.6939730199999996      4.8825910400000003
   401   1      2.1541591499999999      8.1878337499999994      4.9253641300000002
   402   1      6.1929335999999999      8.2399595800000007      4.9537061900000001
   403   1      10.219419950000001      8.1609678100000007      4.9568008499999996
   404   1             14.22613724      8.2870153500000008      4.9005282899999996
   405   1      18.183320689999999      8.1862976599999993      4.8633523800000003
   406   1      22.335465670000001      8.3105367599999997      4.9121995900000002
   407   1             26.35532697      8.1578991100000007              4.86992767
   408   1      30.543549540000001      8.2706168099999999              4.98345869
   409   1      32.538349789999998      11.696971850000001      4.9636738600000001
   410   1      4.0180280599999998             11.74447881      4.9858479999999998
   411   1      8.1444481199999998             11.66136258      4.8949075799999999
   412   1             12.05808663             11.71590546      4.8359542199999996
   413   1             16.13061269      11.663412360000001      4.8725317700000002
   414   1      20.315379230000001             11.84295532      4.9924029699999997
   415   1             24.44289873      11.731255920000001      4.9794492300000002
   416   1             28.54991274      11.798739039999999      5.0127228800000001
   417   1      2.1025385000000001             15.17303195               4.8917221
   418   1      6.1363268099999999      15.204062970000001              4.84293555
   419   1      10.150655479999999      15.206058179999999      4.8711848499999997
   420   1      14.238149870000001      15.142619180000001      4.8032791399999999
   421   1      18.317823189999999      15.244468790000001      4.8883994700000004
   422   1      22.361061459999998             15.19738362      4.8300010999999996
   423   1      26.504915199999999             15.22573757      4.8832438199999997
   424   1      30.465297249999999             15.17409548      4.9106522300000002
   425   1    0.042144929999999997      18.708399400000001      4.9267844700000003
   426   1      3.9978603499999998             18.69056028      4.9034653600000002
   427   1      8.1054812100000007      18.671542930000001      4.8806073100000003
   428   1      12.110624019999999             18.67763639      4.8497516000000003
   429   1      16.241246490000002      18.685160490000001              4.92741556
   430   1      20.429428850000001             18.63546754      4.8268404299999998
   431   1      24.375162570000001      18.825293970000001              4.88941626
   432   1      28.388673919999999      18.808142969999999      4.7855077000000001
   433   1      2.0802151499999999             22.23053664      4.7799314199999996
   434   1      6.0817413599999997      22.207670759999999      5.0432968999999996
   435   1             10.16685493      22.158255130000001      4.8919231400000003
   436   1      14.277757019999999             22.26299324      4.9594984699999998
   437   1      18.281405299999999      22.278956780000001      4.8831162499999996
   438   1             22.29862855      22.244610210000001      4.9895823300000002
   439   1      26.324924559999999      22.274018430000002      4.8682111299999997
   440   1      30.452972540000001      22.234679799999999              4.86021517
   441   1    0.042569320000000001      25.813181929999999      4.8914852599999996
   442   1      4.1102318999999996      25.708431470000001      4.8656802199999998
   443   1      8.1575280699999997      25.634183799999999      4.9980391500000003
   444   1             12.17030035             25.73458304               4.8772186
   445   1      16.124022889999999      25.750179710000001      5.0269993399999997
   446   1      20.184734120000002      25.820362710000001      5.0289714500000002
   447   1             24.22753917      25.751749870000001              4.87168358
   448   1      28.341773020000002      25.739917720000001      4.9744991900000004
   449   1   -0.035750730000000001      2.4306263800000001      5.7100456599999996
   450   1      3.9837235799999999      2.3832200000000001      5.7428599499999997
   451   1      8.0213066200000007      2.2654930800000002      5.8471537500000004
   452   1      12.121339280000001              2.39290029      5.6545483900000004
   453   1      16.169146720000001      2.3444183299999999              5.76591904
   454   1      20.150663510000001      2.4007984599999999      5.7425238299999997
   455   1             24.19516385      2.3650745999999998      5.7682447000000003
   456   1      28.329988830000001      2.3624821599999999      5.7488065700000002
   457   1      2.0183951800000002      5.7997182399999998      5.7073074200000002
   458   1      6.0473558399999998      5.9238308599999998      5.6162161700000004
   459   1      10.094163480000001              5.77034497      5.7237350300000003
   460   1             14.23989974      5.8462192000000002      5.7889573099999998
   461   1      18.203465000000001      5.8964460900000004      5.7523825899999999
   462   1      22.374917239999998      5.8694668600000002      5.7260695400000001
   463   1      26.362206690000001      5.8161534000000001      5.8663230799999999
   464   1      30.470500680000001      5.9131703699999996      5.6866925999999998
   465   1             32.57123541      9.4483679200000008      5.7401153999999996
   466   1      4.1377889000000003      9.3718257200000004      5.6943827799999998
   467   1      8.1787349700000007      9.3820185899999995      5.7269281300000001
   468   1      12.082176949999999      9.4170812599999998      5.6283046199999998
   469   1      16.188667850000002      9.4627109699999998      5.8019091100000004
   470   1             20.29360965      9.3647513599999996      5.6327675199999998
   471   1      24.322514940000001      9.4569132400000004      5.5799894999999999
   472   1      28.336015799999998      9.4377750299999992      5.8867777999999999
   473   1      1.9697766299999999      12.881466059999999              5.79833029
   474   1      6.1040403999999997             12.91417401      5.6972867100000002
   475   1      10.109925280000001      12.780816789999999      5.8480167400000003
   476   1             14.08209402      12.977333270000001      5.6815021999999997
   477   1      18.235931359999999             12.92791783      5.6062006899999997
   478   1             22.47878467      12.905513989999999      5.7400866600000002
   479   1      26.424467100000001             12.91572118              5.83336801
   480   1      30.476924329999999               12.961838      5.8736960800000002
   481   1    0.035641810000000003      16.326154819999999      5.6560596500000004
   482   1      4.0076503099999998      16.342980780000001      5.7288188199999999
   483   1      8.0761783699999992      16.319346169999999      5.7120047600000001
   484   1      12.235642410000001      16.349672200000001      5.7259556800000002
   485   1      16.287918900000001             16.35246587      5.7994598899999996
   486   1      20.239419699999999      16.407594490000001      5.8079269199999999
   487   1      24.432679319999998             16.33008598      5.8454722099999996
   488   1             28.42526492             16.39014066      5.7180595399999996
   489   1              1.90802768      19.968886959999999      5.8091965700000001
   490   1      6.1136977300000002              19.8685735      5.6793882800000004
   491   1              10.0780814      19.872789990000001      5.7641990200000004
   492   1      14.254650079999999             19.97371596      5.7944740100000001
   493   1             18.28869864      19.822168449999999      5.6553223399999997
   494   1      22.292003340000001      19.800246990000002      5.8231941899999997
   495   1      26.351350440000001             19.88085371      5.7148767600000001
   496   1      30.456414039999999             19.92304275      5.7699708300000001
   497   1    0.047702340000000003      23.479246029999999      5.7498153800000003
   498   1      4.1061427799999999      23.343812610000001      5.6856326399999997
   499   1      8.1348105799999999      23.296119489999999      5.7493095199999997
   500   1             12.11091768      23.418734570000002      5.6465338699999998
   501   1      16.243953680000001      23.376155650000001      5.7815037699999996
   502   1      20.296267719999999      23.506432230000001      5.8056654999999999
   503   1      24.399995860000001      23.452511919999999      5.7857649599999998
   504   1             28.22583719      23.327681160000001      5.7137167599999996
   505   1              2.09069672      26.952779020000001      5.6466722200000001
   506   1      6.0834762500000004      26.928430930000001      5.7244239200000004
   507   1              10.1655795      26.861135839999999      5.7313630699999996
   508   1              14.0521662      26.984509729999999      5.7148945199999996
   509   1      18.224199200000001             26.99722453      5.8738046700000002
   510   1      22.255603610000001      27.066559900000001      5.7297804399999999
   511   1      26.287164829999998             27.00589926      5.7026623399999998
   512   1      30.504301259999998      26.868523440000001      5.6880748800000003
   513   1      32.463248929999999  -0.0020660499999999998      6.4747890300000002
   514   1      4.0071200600000001      28.039063609999999      6.5192603800000004
   515   1      8.2498767199999996             28.05920746      6.5753232199999996
   516   1             12.08456412             28.11947211              6.63747065
   517   1      15.994586310000001      28.060441189999999      6.6552178900000003
   518   1             20.12313696             28.18043677      6.6474977800000001
   519   1             24.29369234      28.217294729999999              6.57772822
   520   1      28.397779610000001              28.1150378              6.56554795
   521   1      1.9795536499999999      3.5439052599999998      6.5983392199999997
   522   1      5.9646025600000003              3.57321299      6.5658543800000002
   523   1      10.045608939999999      3.4732163100000002      6.5860593999999999
   524   1      14.093390490000001      3.6069307099999999      6.4173896399999997
   525   1             18.16230681               3.4730121      6.6227336799999996
   526   1      22.204844420000001      3.4337612599999998      6.6789696799999998
   527   1      26.406245460000001      3.5887792900000002      6.4658874900000001
   528   1      30.321261839999998              3.61220607      6.5718006999999998
   529   1      32.441894519999998              7.08180619      6.4402748900000004
   530   1              4.02162299      6.9988814499999998      6.7200388899999997
   531   1      8.1714442799999993      7.0184705599999999      6.5167253599999997
   532   1             12.27392517      7.0454633800000002      6.5728208600000002
   533   1      16.242651240000001      7.0499671299999997      6.6938862099999996
   534   1             20.25530363      7.0305715199999996      6.6075113999999999
   535   1      24.361744720000001              7.07235149      6.4927560299999998
   536   1             28.53172352      7.0188613399999999      6.5726590500000004
   537   1      2.0678875900000002             10.50585193      6.5773845299999998
   538   1      6.1343887800000001             10.45323653      6.6520221199999998
   539   1             10.20435915             10.58278267      6.6831952000000001
   540   1      14.078530049999999             10.60753147      6.5953190800000003
   541   1      18.305474820000001      10.748867629999999              6.58717781
   542   1      22.288178070000001              10.5784023              6.53087178
   543   1      26.325941159999999      10.542654819999999      6.5625128200000002
   544   1      30.408608730000001      10.447550189999999      6.4817831899999998
   545   1              -0.0250137      14.103865170000001              6.53906776
   546   1      4.0920989099999998      14.049403590000001      6.5572090300000001
   547   1      8.1465937400000001      14.027186540000001      6.6015718799999998
   548   1             12.08619096      14.071241499999999      6.4813835600000003
   549   1      16.263064230000001              14.0346704              6.60013951
   550   1      20.353771250000001      14.090545649999999      6.4543748299999999
   551   1             24.52709685      14.045400130000001              6.51563493
   552   1      28.380886350000001      14.118402509999999      6.6805936600000004
   553   1      2.0355431500000001      17.602274869999999      6.4533474000000002
   554   1      6.0573038600000002             17.57519568      6.5308249199999997
   555   1             10.15825869      17.536751049999999      6.6037237600000003
   556   1             14.18013974             17.50429385              6.67268566
   557   1      18.197055559999999             17.53377399      6.5676624400000003
   558   1             22.29541682      17.545578920000001      6.5251179199999996
   559   1             26.42435545             17.62911867      6.5613277500000002
   560   1      30.459055150000001      17.568561200000001      6.5586409100000003
   561   1      32.330393020000002      21.153225299999999      6.5740400599999997
   562   1      4.0293866200000004      21.089613539999998      6.5979732599999998
   563   1      8.0363407700000007      21.114856880000001      6.7386267000000002
   564   1             12.17106418      20.996042790000001      6.5666473500000002
   565   1      16.355261389999999      20.975529779999999      6.4850132800000004
   566   1      20.297102290000002      21.017631380000001      6.5431915700000003
   567   1             24.27144766             21.13113057      6.4601734300000002
   568   1      28.413808190000001      21.142008059999998      6.6592496700000003
   569   1              2.00724898      24.611307400000001      6.5260091100000004
   570   1      6.1817960100000002             24.70953609      6.5601832099999999
   571   1      10.132236069999999      24.607893149999999      6.5721772200000004
   572   1      14.279152399999999      24.568668250000002      6.6893099999999999
   573   1             18.20441653             24.69180497      6.6274476199999999
   574   1      22.310845369999999      24.715364860000001      6.4482954000000001
   575   1      26.323693479999999              24.5904107      6.6159932799999996
   576   1      30.334402300000001      24.571805359999999      6.4433192200000002
   577   1              1.98088182      1.2313697800000001      7.4354796199999997
   578   1      6.1528355799999996               1.1482804      7.6004548999999999
   579   1             10.04977098              1.17748338      7.6176898800000004
   580   1      14.058063000000001              1.31195145      7.5919272400000004
   581   1      18.205433429999999      1.1612057600000001      7.6153589300000002
   582   1      22.133350140000001      1.1722898799999999      7.4911414900000004
   583   1      26.430595950000001      1.1936215699999999              7.52378167
   584   1      30.332572930000001                1.206288      7.4926661899999996
   585   1   -0.072099579999999996      4.7121817899999998      7.3740144000000001
   586   1      3.8832517499999999      4.7205019799999999      7.6043912499999999
   587   1      8.0375311400000005      4.6443441600000002              7.53191203
   588   1             12.11652346      4.6018770699999996              7.36240323
   589   1      16.235243969999999      4.6438167000000004      7.6744271199999998
   590   1      20.160654170000001      4.6218121600000002      7.4958917999999999
   591   1      24.406341990000001      4.6256280500000004      7.5285272599999997
   592   1      28.272955790000001              4.61330872      7.5600708000000001
   593   1              1.97824146      8.2523426900000008      7.5823082199999998
   594   1      6.2447699500000002      8.2410209600000002      7.5721470399999999
   595   1      10.101442609999999              8.15276216      7.4530312500000004
   596   1             14.26219251              8.25700082      7.6629525699999999
   597   1      18.236261339999999      8.2326324900000003      7.5469977000000004
   598   1      22.302149780000001      8.2068143500000001      7.3509082299999999
   599   1      26.390890540000001      8.1742389200000005      7.4665235000000001
   600   1      30.421721940000001      8.2087460300000004      7.4172938799999999
   601   1      32.361501939999997      11.770640609999999      7.5205227700000004
   602   1      4.0928978000000003      11.667823930000001      7.4983384199999996
   603   1      8.1199240199999991              11.7612437      7.5348471999999997
   604   1             12.14030767      11.750030779999999              7.71017039
   605   1      16.083546479999999             11.84835064      7.4910471699999999
   606   1      20.427330940000001             11.82652949              7.46563088
   607   1              24.2920722             11.77173402      7.5402132899999996
   608   1      28.289725170000001             11.62280531      7.5468982200000001
   609   1      2.0179605600000001      15.148904849999999      7.3175397699999998
   610   1      6.1248517600000003      15.156282579999999      7.4813068999999999
   611   1      10.039145169999999      15.145431029999999      7.7105967299999998
   612   1             14.31869032             15.18269102      7.5234699100000002
   613   1      18.261115279999999             15.22363084      7.3946643099999996
   614   1             22.49440706             15.27202329      7.3154707700000001
   615   1      26.525740240000001             15.27529739      7.5819513699999996
   616   1      30.498602030000001      15.388358090000001      7.4943021500000002
   617   1      32.497083750000002      18.854144940000001      7.4852252100000003
   618   1      3.9836893400000002      18.728577390000002      7.5231107899999996
   619   1      8.0909078099999991      18.763710939999999              7.47385184
   620   1      12.266086189999999      18.635807159999999              7.48872217
   621   1      16.148797829999999      18.713265530000001      7.4570592700000002
   622   1             20.26326461      18.660304060000001      7.4572694500000001
   623   1             24.32644865      18.705117619999999      7.5411288299999999
   624   1      28.415166259999999      18.802303500000001      7.5107792900000003
   625   1      1.9924709700000001      22.322790940000001      7.4428926100000004
   626   1              6.10341427      22.255026300000001      7.6094393199999999
   627   1             10.24759398      22.221728370000001              7.55216478
   628   1      14.259178609999999             22.29581284      7.5831136399999997
   629   1      18.213394650000001              22.2984641              7.46662771
   630   1      22.266487300000001      22.470519660000001      7.6537711599999998
   631   1      26.364711530000001             22.22649693      7.5536521199999997
   632   1      30.497388180000002      22.267338890000001      7.3729688500000004
   633   1   -0.056704150000000002             25.94432239      7.3748686899999996
   634   1      4.1558906999999996      25.716838169999999      7.4470439099999997
   635   1      8.1417144500000003             25.74570039      7.5131993699999997
   636   1      12.139256290000001      25.694587179999999      7.5679029299999998
   637   1      16.248994079999999      25.688663699999999      7.6276627799999996
   638   1      20.210295080000002      25.742331310000001      7.5996897399999996
   639   1      24.186538769999999             25.82842969      7.1076931999999999
   640   1      28.385605739999999             25.75180426      7.5955526600000001
   641   1    -0.10082054999999999      2.3908086700000002      8.1171473899999995
   642   1      3.9831128900000001      2.2596473700000002      8.2414796999999993
   643   1      7.9550675899999996              2.27139706      8.3669002799999994
   644   1             12.05087696      2.3580983400000002      8.2052712200000002
   645   1             16.18229264              2.42315017      8.0093480400000008
   646   1             20.09426582              2.26218516      8.4951879199999993
   647   1             24.32507055      2.3192187899999999      8.2434650999999999
   648   1      28.363957620000001      2.2601251599999999      8.1941397299999998
   649   1              2.00628063      5.8413770999999999      8.0470118399999997
   650   1      6.0307938999999999      5.8044611100000001              8.12975387
   651   1             10.06967627      5.8139514999999999      8.2218229300000001
   652   1      14.135859740000001              6.04264007      8.1687240899999995
   653   1      18.258278489999999      5.8204210500000002      8.2278575400000005
   654   1      22.377535760000001              5.83115614      8.0597585200000008
   655   1      26.258866909999998      5.8141238099999999      8.3092360200000002
   656   1      30.321348969999999      5.9323301800000001      8.1385103399999998
   657   1      32.326464880000003      9.4156692799999995      8.2763163500000001
   658   1      4.1405459200000001      9.3757843800000007      8.1374642900000005
   659   1      8.2432808699999995      9.4004372699999994      8.2253940199999995
   660   1             12.14126838      9.3192241199999994      8.1825827800000006
   661   1      16.427022170000001      9.4666762799999997      8.2180538799999994
   662   1              20.2712483      9.3540483000000005      8.0951460300000004
   663   1             24.35535904      9.3117216999999997      8.0243038500000008
   664   1              28.4318794      9.4304985299999995      8.2557161800000003
   665   1      2.1282975500000001      12.771047640000001      8.1382279000000004
   666   1      6.1010341800000001             12.80486569      8.1596215900000004
   667   1             10.08536769      12.860820929999999      8.3946656599999994
   668   1      14.187523089999999             13.02830442      8.3758272100000006
   669   1      18.234542179999998             12.92401182      8.0076365200000001
   670   1              22.4461935      13.050450469999999      8.2397720999999997
   671   1      26.332621939999999      12.960738190000001      8.1344062600000004
   672   1      30.400462409999999      13.036384569999999      8.2469949499999995
   673   1    0.043471360000000001      16.496920630000002      8.1174101600000004
   674   1      4.0441334900000001      16.314938489999999      8.0961847000000002
   675   1      8.1820007599999993             16.45766072      8.0994669199999993
   676   1             12.17746182      16.335055109999999      8.1277123099999997
   677   1             16.28064573             16.43749248      8.2187428300000001
   678   1             20.22797602      16.187410880000002      8.2422009000000003
   679   1             24.20334647             16.52625913      8.3000918200000005
   680   1      28.488169079999999      16.459799619999998      8.1295395799999994
   681   1      2.1363886000000001      19.951837600000001      8.2835590200000002
   682   1      6.1056162499999997      19.807336190000001      8.1754037799999999
   683   1             10.20565283      19.836896809999999      8.1886323099999991
   684   1      14.288741720000001      19.934882810000001      8.2339674400000007
   685   1      18.405526290000001      19.858698740000001      8.0130219500000006
   686   1      22.204438849999999             19.93626497      8.1361138400000002
   687   1      26.191438649999998      19.873472240000002      8.1239646600000004
   688   1      30.483003350000001             20.01470475      8.2757947499999993
   689   1      32.460277740000002      23.413293060000001      8.2555156099999998
   690   1      4.0885893500000003      23.403632609999999      8.1532236400000002
   691   1      8.1968336799999992      23.397822519999998      8.2608522499999992
   692   1      12.233030790000001      23.362859830000001      8.2664334799999999
   693   1             16.37497222      23.362704140000002      8.2831093199999994
   694   1      20.235744929999999      23.507693840000002      8.4141897399999994
   695   1             24.38596265      23.596365420000001      8.2301107800000004
   696   1      28.575220389999998             23.38062592      8.0594115500000001
   697   1      1.9164187399999999             26.97387252              8.09785529
   698   1      6.0984359100000001      26.916523829999999      8.2607086499999998
   699   1      10.181045900000001      26.872228109999998      8.2304998600000001
   700   1      14.098362079999999              26.9427436      8.2477431800000005
   701   1      18.247628649999999      26.857220430000002      8.2443437700000004
   702   1      22.214070759999998             27.07164178      8.0473385200000003
   703   1      26.203093590000002      26.933302650000002      8.3318958399999996
   704   1      30.418735359999999      26.927221230000001      8.2581037500000001
   705   1             -0.12421177      28.273661619999999      8.8709005399999992
   706   1      4.0819503700000004      27.990103779999998      9.0331690200000008
   707   1              8.15792055      28.075406529999999      9.1173462300000008
   708   1             11.94622128      28.052258219999999      9.0992716900000001
   709   1      16.157758139999999             28.19052954      8.9145247699999999
   710   1      20.273634130000001      28.036520110000001      9.0896202699999993
   711   1      24.133307080000002      28.186285259999998      8.9894497900000001
   712   1             28.32204265      28.010011179999999      8.9594981400000009
   713   1      1.8337268600000001      3.5031865600000001      8.9478601100000006
   714   1                5.743055      3.4872352100000001      8.9305160800000003
   715   1              10.0082331      3.5984967000000001      9.0330493900000004
   716   1      14.195677249999999      3.5761142000000001      8.6753151099999997
   717   1      18.090978660000001      3.3499351800000001      9.1274818300000007
   718   1      22.157389429999998      3.5823352100000001      8.9324399900000007
   719   1      26.202748759999999      3.4119468500000001      9.0057305200000002
   720   1      30.327014210000002      3.6098815000000002      8.8789817299999996
   721   1    0.090852240000000001      7.0789390699999997      8.8849572200000004
   722   1      4.0329929599999996      6.9553847299999996      9.0484801000000008
   723   1      8.1317208599999997      7.0756647900000003      9.0309154100000004
   724   1             12.11209833              7.06243379      8.9092718499999997
   725   1      16.318561559999999      7.1781667599999999      9.0239160599999995
   726   1             20.39876405      6.9945525699999997      8.9441464400000008
   727   1             24.21632232      6.9812010600000001      8.8912459100000003
   728   1      28.256059390000001      7.2498694199999996      9.0116164199999993
   729   1              2.08604002             10.55004486      9.0307527800000003
   730   1              6.00046634             10.40083046      9.0508982600000003
   731   1      10.327734749999999             10.56129565      9.1173837300000002
   732   1      14.146148930000001             10.53461094              9.03270163
   733   1      18.338295290000001             10.74193788      8.9200847700000008
   734   1      22.262157630000001             10.50723283      8.8970674899999995
   735   1             26.31166069             10.60767776      8.9054916599999991
   736   1      30.496843429999998              10.8384822      8.9701856099999997
   737   1      32.514519919999998      14.142859079999999      8.8166114800000006
   738   1      4.2425586199999996      13.999461930000001      9.0109148099999992
   739   1      7.9692502300000001      14.080273350000001      8.9562343099999993
   740   1             11.99859698      14.083704539999999      8.9446149100000003
   741   1      16.255653169999999             14.02672374      8.9914524900000004
   742   1      20.251843239999999             13.81301431      8.9377525000000002
   743   1      24.410852479999999             14.21155839      8.9892391800000002
   744   1             28.37092045      14.194861169999999      8.9604253000000007
   745   1      2.1113827500000002      17.602485229999999      8.8079446400000005
   746   1      6.1166817900000003             17.60198389      8.9730892400000002
   747   1             10.23473431      17.513512089999999      8.9598216599999994
   748   1             14.11801938      17.570742719999998      9.0820266000000007
   749   1             18.34660534             17.83766657      9.1545582700000008
   750   1      21.988306000000001              17.5523071      8.9336786900000007
   751   1      26.579881830000001             17.41845953      8.9782706300000008
   752   1      30.411361110000001              17.4764701      8.9338873499999991
   753   1    0.063488219999999998             21.11830891      9.0396633600000005
   754   1      4.3139256000000001      21.088259730000001      8.9274113100000001
   755   1      8.0588964199999999      21.146160429999998      9.0855150200000008
   756   1      12.319874159999999      20.994782919999999      8.9386314999999996
   757   1      16.509137209999999      20.941657750000001      8.8560369399999992
   758   1             20.14786423      20.967204550000002      8.9111481500000007
   759   1      24.198791400000001      21.174235620000001      9.0223159800000001
   760   1      28.242833709999999             21.25702115      9.0540348700000006
   761   1      2.0410651400000002      24.500312009999998      8.8028145999999996
   762   1              6.06395661      24.655630760000001      8.9686688700000001
   763   1             10.14488498              24.4924046              9.05389804
   764   1             14.17893022      24.614177730000002      8.9239232400000006
   765   1             18.16278372      24.692424249999998      9.0635710500000002
   766   1      22.206699530000002      24.744684190000001      8.9440479199999992
   767   1      26.699223329999999      24.462079930000002      9.1657528999999993
   768   1      30.460659639999999      24.698976720000001      8.8468439700000001
   769   2             23.47770405      26.355641380000002      8.9528807700000002
   770   2      24.987406579999998             25.48214849      8.7014471400000009
