N2-dn2-coord-10bar/300K/snapshots/frame-58498/run-000/../data.lammps (written by ASE) 

770 	 atoms 
2  atom types
0.0      32.470343392086264  xlo xhi
0.0      28.120142247150884  ylo yhi
0.0      31.213473999158239  zlo zhi


Atoms 

     1   1      2.0293964600000001      1.1716090800000001    0.023552650000000001
     2   1      6.0880008999999999              1.17168918              0.02556874
     3   1      10.146952280000001              1.17170328    0.025416459999999998
     4   1      14.205754900000001      1.1716496700000001              0.02501565
     5   1             18.26456816              1.17166478              0.02504435
     6   1             22.32338141      1.1716496700000001              0.02501565
     7   1      26.382184030000001              1.17170328    0.025416459999999998
     8   1      30.441135410000001              1.17168918              0.02556874
     9   1  9.1780000000000006e-05      4.6866847900000002    0.025581599999999999
    10   1      4.0587011400000002      4.6866847900000002    0.025581599999999999
    11   1      8.1174961000000003      4.6866290399999997    0.025584639999999999
    12   1             12.17638011      4.6866852999999997              0.02491202
    13   1             16.23517979      4.6866942700000003    0.025006210000000001
    14   1      20.293956519999998      4.6866942700000003    0.025006210000000001
    15   1      24.352756209999999      4.6866852999999997              0.02491202
    16   1      28.411640219999999      4.6866290399999997    0.025584639999999999
    17   1      2.0293964600000001      8.2016395800000002    0.026613040000000001
    18   1      6.0881071599999999      8.2016314300000008              0.02543782
    19   1             10.14701835               8.2017045    0.025156850000000001
    20   1      14.205766049999999      8.2017080900000003    0.024990459999999999
    21   1             18.26456816      8.2017077599999997    0.025091249999999999
    22   1      22.323370260000001      8.2017080900000003    0.024990459999999999
    23   1      26.382117969999999               8.2017045    0.025156850000000001
    24   1      30.441029149999999      8.2016314300000008              0.02543782
    25   1  9.2789999999999998e-05             11.71671873    0.025573410000000001
    26   1              4.05870014             11.71671873    0.025573410000000001
    27   1      8.1176017700000003             11.71668698              0.02497914
    28   1             12.17637068             11.71673069    0.025001590000000001
    29   1      16.235177310000001      11.716730249999999    0.025074039999999999
    30   1      20.293959009999998      11.716730249999999    0.025074039999999999
    31   1      24.352765640000001             11.71673069    0.025001590000000001
    32   1      28.411534549999999             11.71668698              0.02497914
    33   1      2.0293964600000001             15.23167155              0.02525285
    34   1      6.0881728300000004      15.231678799999999    0.025062859999999999
    35   1             10.14698486      15.231762639999999               0.0250786
    36   1             14.20578841             15.23176782    0.025201990000000001
    37   1             18.26456816              15.2317707    0.025149979999999999
    38   1      22.323347900000002             15.23176782    0.025201990000000001
    39   1      26.382151459999999      15.231762639999999               0.0250786
    40   1      30.440963480000001      15.231678799999999    0.025062859999999999
    41   1      32.470327990000001      18.746748629999999    0.024951939999999999
    42   1      4.0588083299999997      18.746748629999999    0.024951939999999999
    43   1      8.1175770200000006      18.746803499999999    0.025222040000000001
    44   1             12.17637459      18.746799750000001    0.025428470000000002
    45   1      16.235159400000001      18.746805200000001    0.025487360000000001
    46   1      20.293976919999999      18.746805200000001    0.025487360000000001
    47   1      24.352761730000001      18.746799750000001    0.025428470000000002
    48   1             28.41155929      18.746803499999999    0.025222040000000001
    49   1      2.0293964600000001      22.261939099999999    0.025844880000000001
    50   1      6.0881419299999999      22.261841799999999    0.025489439999999999
    51   1             10.14692954             22.26176895              0.02551757
    52   1             14.20573559      22.261804690000002    0.025639160000000001
    53   1             18.26456816             22.26178625    0.025640119999999999
    54   1      22.323400729999999      22.261804690000002    0.025639160000000001
    55   1      26.382206780000001             22.26176895              0.02551757
    56   1             30.44099439      22.261841799999999    0.025489439999999999
    57   1  5.6450000000000003e-05      25.776936450000001              0.02613327
    58   1      4.0587364700000004      25.776936450000001              0.02613327
    59   1      8.1175325399999991              25.7767713    0.024734180000000001
    60   1      12.176376469999999      25.776831090000002              0.02545323
    61   1      16.235145939999999      25.776775220000001    0.025273360000000002
    62   1             20.29399038      25.776775220000001    0.025273360000000002
    63   1      24.352759840000001      25.776831090000002              0.02545323
    64   1      28.411603769999999              25.7767713    0.024734180000000001
    65   1  0.00024266000000000001              2.34304215     0.80166565000000001
    66   1      4.0585502699999996              2.34304215     0.80166565000000001
    67   1      8.1157394600000003              2.34454954     0.80169402000000001
    68   1             12.17601256      2.3433829099999999     0.80116898000000003
    69   1      16.235258170000002      2.3433209100000001     0.80090046999999998
    70   1      20.293878150000001      2.3433209100000001     0.80090046999999998
    71   1      24.353123750000002      2.3433829099999999     0.80116898000000003
    72   1      28.413396859999999              2.34454954     0.80169402000000001
    73   1      2.0293964600000001      5.8582218700000004     0.80119762000000005
    74   1      6.0870566899999998      5.8583336700000004              0.80194851
    75   1             10.14649655              5.85853131     0.80121584000000001
    76   1             14.20597894      5.8582938599999999     0.80086840999999998
    77   1             18.26456816      5.8583798500000004               0.8010794
    78   1      22.323157380000001      5.8582938599999999     0.80086840999999998
    79   1             26.38263976              5.85853131     0.80121584000000001
    80   1      30.442079629999999      5.8583336700000004              0.80194851
    81   1  0.00019438999999999999      9.3717771800000005     0.80082061000000004
    82   1      4.0585985400000002      9.3717771800000005     0.80082061000000004
    83   1      8.1175070500000004      9.3725002699999997     0.80149060999999999
    84   1      12.176590020000001      9.3733583399999993     0.80088261999999999
    85   1             16.23512199      9.3733789200000004              0.80106506
    86   1             20.29401433      9.3733789200000004              0.80106506
    87   1      24.352546289999999      9.3733583399999993     0.80088261999999999
    88   1      28.411629269999999      9.3725002699999997     0.80149060999999999
    89   1      2.0293964600000001             12.88692854     0.80220621000000003
    90   1      6.0883212999999996             12.88743848     0.80138414999999996
    91   1      10.147128609999999             12.88859852     0.80085256000000005
    92   1             14.20571782      12.888558189999999     0.80113791000000001
    93   1             18.26456816      12.888409899999999     0.80109381000000002
    94   1      22.323418490000002      12.888558189999999     0.80113791000000001
    95   1             26.38200771             12.88859852     0.80085256000000005
    96   1      30.440815019999999             12.88743848     0.80138414999999996
    97   1              0.00012365      16.403222639999999     0.80145666999999998
    98   1      4.0586692700000002      16.403222639999999     0.80145666999999998
    99   1      8.1174337899999998      16.403825260000001     0.80097196999999998
   100   1              12.1761021             16.40390721     0.80133072000000005
   101   1             16.23503496      16.403861750000001     0.80140014999999998
   102   1      20.294101359999999      16.403861750000001     0.80140014999999998
   103   1      24.353034220000001             16.40390721     0.80133072000000005
   104   1      28.411702529999999      16.403825260000001     0.80097196999999998
   105   1      2.0293964600000001      19.919205120000001     0.80066369999999998
   106   1              6.08752564             19.91894023     0.80122479000000002
   107   1      10.146078839999999             19.91919038     0.80159137999999996
   108   1      14.204993419999999              19.9192584     0.80178742000000003
   109   1             18.26456816      19.919377350000001     0.80194975999999996
   110   1      22.324142899999998              19.9192584     0.80178742000000003
   111   1      26.383057470000001             19.91919038     0.80159137999999996
   112   1      30.441610669999999             19.91894023     0.80122479000000002
   113   1              0.00142012      23.434536609999999     0.80178442000000005
   114   1      4.0573728100000004      23.434536609999999     0.80178442000000005
   115   1      8.1165862000000004      23.433936769999999     0.80182306000000003
   116   1             12.17555218      23.433996919999998     0.80156656000000004
   117   1             16.23465491      23.434040110000002     0.80170828999999999
   118   1      20.294481409999999      23.434040110000002     0.80170828999999999
   119   1      24.353584130000002      23.433996919999998     0.80156656000000004
   120   1      28.412550110000002      23.433936769999999     0.80182306000000003
   121   1      2.0293964600000001      26.949875330000001              0.80297246
   122   1      6.0858208300000003      26.950066320000001              0.80215291
   123   1             10.14598146      26.949241430000001     0.80165810000000004
   124   1             14.20520604      26.948673230000001     0.80131923999999999
   125   1             18.26456816             26.94858318     0.80108193999999999
   126   1      22.323930279999999      26.948673230000001     0.80131923999999999
   127   1      26.383154860000001      26.949241430000001     0.80165810000000004
   128   1             30.44331549      26.950066320000001              0.80215291
   129   1             32.43659194               -0.186393      1.4790806599999999
   130   1      3.9858677500000002      28.068005549999999              1.45805081
   131   1      8.1418385999999998   -0.022603789999999999              1.54631801
   132   1      12.210234549999999    0.024364750000000001              1.48292807
   133   1             16.17031128      28.194859019999999               1.5285312
   134   1      20.390595380000001      28.126679849999999              1.43085404
   135   1             24.30434812     0.18266723000000001      1.4916850500000001
   136   1      28.299157040000001    0.071458240000000006              1.53245484
   137   1      2.0137926300000002      3.5455979700000002      1.4903266500000001
   138   1      6.0714526199999996      3.4330251199999999              1.55308406
   139   1             10.18244617      3.4978125699999998      1.4482938299999999
   140   1              14.1713624               3.5497212      1.5310196599999999
   141   1              18.2306098      3.5062711499999999      1.4413285199999999
   142   1      22.282903789999999              3.50824895      1.4384840800000001
   143   1              26.3605257      3.5027708500000001              1.44670806
   144   1             30.42210545              3.56855506              1.55691964
   145   1      32.348392179999998      6.9457466200000004      1.4628639800000001
   146   1              3.95522127      7.0479184799999999      1.4865559399999999
   147   1      8.0037005099999998      7.0877841300000002      1.4477776200000001
   148   1             12.12738661      7.0592400700000004      1.4144799299999999
   149   1      16.289248149999999      6.9889490099999998      1.5302873800000001
   150   1      20.376576929999999      7.0165083800000003      1.5263708199999999
   151   1             24.37140428      7.0244246700000001              1.53420373
   152   1             28.42526127      7.0650144099999999              1.47588696
   153   1      2.0486398800000001      10.620574599999999              1.38311732
   154   1      6.0991545900000004             10.59292203      1.4711198000000001
   155   1             10.13539321             10.57551572      1.4299366499999999
   156   1             14.26555576      10.601215699999999              1.52375123
   157   1      18.196009549999999             10.53048813              1.40167734
   158   1      22.334669730000002              10.5011551               1.3464597
   159   1      26.311040680000001      10.431183900000001      1.3908857800000001
   160   1      30.416095139999999              10.4104098      1.5558210400000001
   161   1      32.455467239999997             14.01771366      1.4448259699999999
   162   1      3.9133428800000001             14.14356194      1.6224694200000001
   163   1      8.2242230799999998      14.023711090000001      1.5641570300000001
   164   1      12.270204590000001             13.95305611      1.6045852599999999
   165   1      16.160212569999999             14.09893546              1.51006365
   166   1             20.40096956             14.02069614              1.47173759
   167   1      24.270963389999999      14.038722229999999              1.44231664
   168   1      28.406808059999999      14.038481539999999      1.4030487899999999
   169   1      2.0611425799999998      17.543600340000001              1.48258088
   170   1      6.0359226799999997      17.547846079999999              1.49687064
   171   1      10.124946080000001             17.60622416      1.3933513799999999
   172   1      14.111653240000001      17.572335410000001              1.41669497
   173   1      18.177692820000001      17.585574739999998      1.5955520400000001
   174   1             22.28303232      17.568545790000002      1.6264037899999999
   175   1      26.358216379999998      17.644153330000002              1.46268029
   176   1      30.480567180000001      17.558665520000002              1.44225151
   177   1    0.052048169999999998      21.049412830000001      1.4540195499999999
   178   1      4.0487746400000004             20.99701318      1.4941931500000001
   179   1      8.1319985700000004      21.168463209999999      1.5071828700000001
   180   1             12.25332671      21.063820799999998      1.6030502200000001
   181   1             16.29855427      21.083679159999999              1.35510712
   182   1      20.300937739999998      21.080112369999998      1.5703620700000001
   183   1      24.339884949999998             21.07279398      1.4432767099999999
   184   1             28.40290122      21.055896359999998      1.3676401600000001
   185   1      1.9422340199999999      24.662998340000001      1.5382341900000001
   186   1      6.1113483799999999      24.679258090000001      1.4735142699999999
   187   1              10.1731623      24.521375370000001      1.4886141500000001
   188   1      14.257393710000001      24.631389810000002               1.4729336
   189   1      18.228572920000001      24.721085290000001      1.4769867400000001
   190   1      22.265700209999999      24.638675169999999      1.4086369000000001
   191   1      26.406248179999999      24.611262740000001      1.2449594799999999
   192   1      30.477779479999999      24.681984960000001              1.55000001
   193   1      2.0140672199999998      1.2550709900000001      2.3172556000000002
   194   1      6.0827425599999998      1.1201079899999999      2.4807944499999999
   195   1      10.198379750000001      1.1671440500000001              2.36846837
   196   1      14.152160520000001              1.15075127      2.4865114400000001
   197   1      18.261159630000002      1.1716822499999999      2.5047817999999999
   198   1      22.403994019999999              1.24170146      2.3661982099999999
   199   1             26.26833938              1.25891262      2.4671654799999998
   200   1             30.49240906              1.23494489      2.4019486400000001
   201   1      32.347233080000002      4.7043444799999996      2.4232296299999998
   202   1      4.0071682900000001              4.71558688      2.4420789799999998
   203   1      8.0873111499999997      4.6426155500000004      2.2548790900000002
   204   1             12.01074841      4.5646186799999997              2.40185213
   205   1      16.236071720000002      4.6065569799999997      2.4267319999999999
   206   1      20.136172380000001      4.6373224000000004              2.38613717
   207   1      24.406490130000002              4.72060792      2.3969292200000001
   208   1      28.305002739999999              4.80110525              2.44995085
   209   1      1.8771728299999999      8.2167075500000006      2.3667173400000001
   210   1      5.9890488499999996      8.1794887000000003      2.5056972200000001
   211   1              10.0956261      8.1963141099999994      2.4144543199999999
   212   1             14.21971709      8.2061385300000005      2.4644657599999999
   213   1             18.32545464      8.1357593999999995              2.37567846
   214   1      22.250416770000001      8.0959506099999992      2.4402286900000001
   215   1      26.338683679999999      8.1820992399999994              2.39086226
   216   1      30.301889389999999      8.1122828800000004      2.4616622000000001
   217   1      32.441964769999998      11.686106430000001      2.3577591400000002
   218   1      4.1308515999999997      11.771880510000001      2.4288643799999998
   219   1      8.1509774299999993      11.675650299999999      2.4813138499999998
   220   1      12.155499150000001             11.66007475              2.42992169
   221   1      16.288120899999999      11.727464919999999      2.3834703500000001
   222   1             20.30489781      11.750375330000001      2.3832317299999999
   223   1      24.372140739999999             11.63157344      2.3198739599999998
   224   1      28.223961509999999             11.64319001      2.4346690199999999
   225   1      1.9507190400000001      15.306614359999999      2.4399321600000001
   226   1      5.9696611600000002      15.264651150000001      2.3984243200000002
   227   1              10.1612112             15.29847242      2.4230248900000002
   228   1             14.30826719             15.28372165      2.4347243299999999
   229   1      18.263568759999998      15.187893069999999      2.3926765099999998
   230   1             22.19084067      15.236850990000001      2.3880789899999999
   231   1      26.279912629999998             15.22102482              2.32155624
   232   1      30.408023440000001              15.3232654              2.33813922
   233   1      32.350412980000002      18.756921940000002      2.3954587900000002
   234   1      4.0198255200000004      18.788299779999999      2.4404728699999998
   235   1      8.0198607899999992      18.610866690000002      2.4279127800000002
   236   1      12.155224520000001      18.737283120000001      2.4268244800000001
   237   1             16.26905726      18.821959440000001      2.4175993400000002
   238   1      20.193764099999999              18.7079567      2.4670591599999998
   239   1      24.215421129999999             18.76344731      2.3693495200000001
   240   1      28.310122679999999      18.814973030000001      2.4119855399999999
   241   1      1.9698281900000001      22.278998139999999      2.3925703899999999
   242   1      6.2096513099999999      22.307390529999999              2.40614675
   243   1      10.190157689999999      22.164226840000001      2.4713256399999999
   244   1      14.202315430000001      22.287453589999998      2.3620526100000001
   245   1      18.288227679999999      22.272682589999999      2.4069412899999998
   246   1      22.287431869999999      22.356081419999999              2.40268652
   247   1      26.452887740000001      22.224390360000001      2.3627391700000002
   248   1      30.535667270000001      22.262819319999998      2.3689652300000001
   249   1   -0.073546440000000005             25.80317733      2.5877614900000001
   250   1      4.0854733999999997             25.77223644      2.3942876499999999
   251   1      8.1403956399999995      25.727243430000001      2.3989773200000002
   252   1             12.26234399      25.798349819999999      2.3417480300000002
   253   1      16.132067370000001      25.844814079999999              2.34944146
   254   1      20.271296249999999      25.806089709999998      2.4106070800000001
   255   1      24.284039589999999              25.6965991      2.3861373000000001
   256   1      28.266125049999999      25.837160740000002      2.3778655500000001
   257   1     0.14225033000000001      2.3922557499999999      3.2845828799999999
   258   1      4.0841469999999997      2.3316859399999998      3.2327554699999999
   259   1      8.1391563399999995      2.2908651299999998      3.2557951200000002
   260   1      12.118744879999999              2.18312916      3.4048638100000002
   261   1      16.175924169999998      2.2783892699999999      3.2923590300000001
   262   1      20.281219249999999              2.32625591      3.3059764299999999
   263   1      24.242378599999999              2.37223549              3.21534677
   264   1      28.352211440000001      2.4648645999999999      3.2155812099999999
   265   1              2.03204304      5.9326544999999999      3.2329177100000002
   266   1      5.9803798300000004              5.81600129              3.17410821
   267   1             10.09591021      5.8105893399999999      3.3197970200000002
   268   1      14.057690490000001      5.7933414699999997      3.2972498899999998
   269   1      18.121251839999999      5.9131772399999996      3.2754298099999999
   270   1      22.182819720000001      5.8480404000000004      3.2254501599999998
   271   1      26.163783769999998      5.8954971799999996      3.1563807000000002
   272   1      30.400051779999998      5.7999896800000004      3.2029451500000001
   273   1    -0.24288325999999999      9.2926744400000008      3.2140120699999999
   274   1      4.0018893000000002      9.3497867200000009      3.1976237799999998
   275   1      8.0559592799999997      9.4059643899999994              3.21967917
   276   1      12.073796249999999      9.2406458400000009      3.1577346799999999
   277   1             16.23689031      9.4401058399999993      3.2622507199999999
   278   1      20.349522950000001      9.4477155400000008              3.21782185
   279   1      24.368443500000001      9.3835913899999994      3.1059409499999999
   280   1      28.237548960000002      9.2434664000000009      3.2817205299999999
   281   1              1.98603679             12.89796612      3.1725941600000001
   282   1      6.0744460399999998             12.87456781      3.2847441700000002
   283   1      10.270700100000001      12.935779459999999              3.32319078
   284   1      14.212176940000001      12.946930679999999      3.3729476100000002
   285   1      18.364387220000001             12.88051604              3.24106308
   286   1      22.374552229999999      12.787606630000001      3.2305454500000002
   287   1             26.23972423             12.93435337      3.1699255000000002
   288   1             30.51452802             12.89322827      3.2206281699999999
   289   1      32.421133019999999             16.45998741      3.2259517899999999
   290   1      3.9273125100000001      16.396766490000001      3.2903198599999999
   291   1      8.0907374999999995      16.378768569999998      3.1723251700000001
   292   1             12.30140316              16.2531453              3.26558386
   293   1      16.255408890000002      16.419788369999999      3.2807037299999999
   294   1      20.266819779999999      16.371869350000001      3.3398265299999998
   295   1             24.36157833             16.41177235      3.2342621500000002
   296   1      28.302881719999998      16.416827619999999      3.2311333699999998
   297   1              1.99096104      19.927532670000002      3.2621932600000001
   298   1      6.0872772299999998      19.866970429999999      3.2771207000000002
   299   1             10.18454979      19.860991550000001      3.3023747399999999
   300   1             14.24300217      19.937430670000001      3.2319969799999999
   301   1      18.345010070000001      19.818295639999999      3.3860645100000002
   302   1             22.21892338      19.925626560000001      3.2900088900000002
   303   1      26.201471000000002      19.953414380000002              3.17300681
   304   1             30.28507097      19.870302169999999      3.2724910899999999
   305   1  -0.0074971999999999999      23.493941700000001      3.3431210099999999
   306   1      4.1247696400000002             23.37461673      3.1827848699999999
   307   1      8.0536110000000001      23.419810550000001      3.3358789199999999
   308   1             12.17192633      23.365953900000001      3.2927065799999999
   309   1      16.156745189999999      23.446085700000001      3.1884093899999999
   310   1      20.145505799999999      23.475568240000001      3.2432850100000001
   311   1      24.278603570000001             23.49990678      3.2251055100000001
   312   1      28.496979459999999      23.256015999999999      3.2231737200000001
   313   1                1.924399      26.922444259999999      3.2070748099999999
   314   1      6.0627414499999999             26.97145664      3.2984979999999999
   315   1      10.319381440000001      26.921268130000001      3.2764863599999998
   316   1             14.22003686      26.978794650000001      3.2178463100000001
   317   1      18.262217069999998      26.963667569999998      3.2067029699999998
   318   1      22.232012749999999      27.029782650000001      3.2122645900000002
   319   1      26.312130830000001      26.905482249999999              3.36676756
   320   1      30.359423339999999             26.94355856              3.23861899
   321   1    0.089919120000000005      28.107812240000001      4.1179820899999999
   322   1      4.1338209900000003      28.080345130000001      4.0816894899999996
   323   1      8.1637510800000008      27.995637850000001      4.2585165500000004
   324   1             12.22931421      28.034922080000001      4.0404024200000004
   325   1      16.217222840000002  -0.0066457799999999996      4.0773034499999996
   326   1             20.27066288             28.05557636      4.0398062299999999
   327   1      24.269963359999998    0.074151449999999994      4.0872926600000001
   328   1      28.420457599999999      28.103770999999998      4.0622435100000001
   329   1      2.0242931099999999      3.5437506000000001      4.0475304300000001
   330   1      6.1034208899999998              3.41091641              4.06094328
   331   1      10.209638180000001              3.56137353      4.1037458899999999
   332   1      14.112088010000001      3.4987863300000002      4.0552662399999999
   333   1      18.308181380000001              3.50756932              4.06294165
   334   1             22.28844848              3.52541533      4.0086598200000001
   335   1      26.383756330000001      3.6513820799999999      4.1297390600000004
   336   1             30.42752574      3.5718750400000001      4.1218553599999996
   337   1   -0.072350300000000006      7.1084035300000004      4.0079410600000003
   338   1              3.93353975      7.0537738699999997      4.0591125200000002
   339   1      8.0689387900000007      7.0219076100000004      4.0438645700000002
   340   1             12.06595884      7.0358647000000003      4.1581501300000001
   341   1             16.13014909               7.0558318      4.0541917999999999
   342   1      20.222398439999999      6.9382523000000003      4.0444872900000002
   343   1              24.2538822      7.0698619000000003      4.1092175900000001
   344   1      28.373981149999999      6.9102999599999997      4.0298709199999996
   345   1      1.9141363899999999             10.44626332      4.0200082500000001
   346   1      5.9888215599999999             10.43784935      4.1522149199999996
   347   1             10.08970974      10.445883269999999      4.0330019999999998
   348   1             14.32821319             10.60234155      4.0782170999999998
   349   1      18.258867209999998             10.47843042      4.0161382400000001
   350   1             22.33589607      10.500024310000001              3.94171951
   351   1             26.29362587             10.53564008      3.9294998699999999
   352   1      30.199240580000001             10.50634288      4.0648369600000001
   353   1      32.528461890000003      14.065736210000001      4.0442561599999998
   354   1      3.9702785500000002             14.00512958      4.0902081900000002
   355   1      8.0200279099999996      14.013676650000001              4.03761832
   356   1      12.262411719999999             14.07510757      4.2300794000000002
   357   1      16.371809070000001      14.022908879999999      4.0790176599999999
   358   1             20.34403292      14.082846310000001      3.9728928099999998
   359   1      24.324339299999998             14.01264806              4.08336057
   360   1      28.355310979999999             14.07906921      4.0562913700000003
   361   1              1.95649242      17.622531710000001      3.9980192699999999
   362   1      6.0363791400000002      17.545207829999999              3.95621372
   363   1             10.25357421             17.44718456      4.0929391600000002
   364   1             14.29283337      17.571649740000002      4.0408507599999997
   365   1             18.16883691      17.533097959999999      4.2111623600000003
   366   1      22.271853019999998      17.661594040000001      4.0770121100000001
   367   1      26.289753399999999      17.679239160000002      3.9873969200000001
   368   1      30.338421409999999             17.55678047      4.0534945599999999
   369   1      32.307438939999997      21.148940700000001      4.0438977100000004
   370   1      4.0541329499999996      21.149690029999999      4.0218031600000002
   371   1      8.2219704999999994      20.925136290000001      4.0296879600000004
   372   1      12.176792109999999             20.96439969      3.9723388700000002
   373   1      16.247232029999999      21.157132799999999      4.0986147500000003
   374   1             20.29405251      21.076594780000001      4.2280025600000002
   375   1      24.222426410000001      21.130908099999999              4.08670066
   376   1      28.398523489999999      21.085885040000001      4.1089598799999996
   377   1      2.0439172700000001             24.65531782      4.0950351899999999
   378   1      6.1055164499999997             24.58258923      4.1972666299999997
   379   1      10.206086539999999             24.52417655      4.1491254099999999
   380   1             14.18556723      24.618350240000002      4.0887223300000004
   381   1             18.15443964      24.694249679999999      4.0585655000000003
   382   1      22.405068530000001      24.744555309999999      4.1026431700000003
   383   1      26.399666079999999      24.508883640000001      3.9741754600000001
   384   1      30.343420330000001             24.64658953      4.0999840399999998
   385   1      2.2268071200000001      1.2242717999999999      4.8900551200000004
   386   1      6.2236202499999997      1.1994013400000001      5.0015721199999996
   387   1             10.17805446      1.1350998299999999      5.0490532699999999
   388   1             14.21241098              1.19597595      5.0021454800000003
   389   1      18.373186159999999              1.19521363      5.0697647899999998
   390   1      22.373798650000001              1.11324073      4.8850899099999996
   391   1      26.284631659999999      1.1052221099999999      4.9252472999999997
   392   1             30.54783669              1.19006108      4.8970568500000002
   393   1             32.55317823              4.60117493      4.9546602799999997
   394   1      4.0617900200000001      4.6835629699999997      4.8796091800000001
   395   1      8.0511962300000004      4.6595685600000003      4.8895789900000004
   396   1             12.11886086      4.7606079899999996      5.0476846200000001
   397   1      16.133312910000001      4.6033481700000003      4.9393047000000001
   398   1      20.333905359999999      4.6751569799999997      4.8796330599999997
   399   1      24.279213810000002      4.7363253900000002      4.9936473599999998
   400   1             28.40492008      4.7814278100000003      5.0152687199999999
   401   1              1.95530191      8.2992720200000001      4.8509591199999997
   402   1      5.9245847300000003      8.1980793300000006      4.7971985799999999
   403   1              10.0846561      8.1929715499999993      4.9200049999999997
   404   1      14.234969169999999      8.1518026500000005      5.0499097099999997
   405   1      18.306210020000002      8.1349100700000001      5.0390168099999997
   406   1      22.375496869999999      8.1553778300000008      4.8557915200000004
   407   1      26.326054259999999              8.20465847      5.0589926900000002
   408   1      30.296971790000001      8.1926326399999994      4.8681362899999998
   409   1   -0.088197479999999995      11.735431820000001      4.9274221799999998
   410   1      3.9729418500000002             11.63682536      4.9537618999999999
   411   1              8.12931998      11.723994060000001      5.0213540200000004
   412   1              12.2631432      11.723836739999999      4.9272838400000003
   413   1      16.386815680000002             11.67018829      4.8834366300000003
   414   1      20.320901559999999             11.70930121      4.9273287400000001
   415   1             24.37770171             11.70130505      4.8514011699999999
   416   1             28.37110925             11.80860395      4.8881902699999999
   417   1      2.0156291999999998      15.295604040000001      5.0017203300000004
   418   1      6.0434353600000001             15.21318675      4.9161288000000001
   419   1      10.128763989999999      15.094460310000001      5.0918976499999999
   420   1              14.2881167             15.22144127      4.9770337700000002
   421   1      18.387212989999998      15.218502839999999              4.95498482
   422   1      22.327191299999999      15.280423239999999      4.9156875600000003
   423   1             26.35634598             15.26153253      4.8817864200000001
   424   1      30.328531890000001      15.198832469999999      4.9040317599999996
   425   1    -0.17686705999999999      18.756721930000001      4.7486382899999997
   426   1      4.1514665500000003      18.752403350000002      4.9107193200000001
   427   1      8.2330361300000003      18.731997799999998      4.9732823899999996
   428   1             12.28659266      18.648352259999999      4.9843066800000004
   429   1      16.300195039999998      18.671065779999999      5.0646436799999996
   430   1             20.27539573      18.773677119999999      4.9245932300000002
   431   1      24.182581190000001      18.896359409999999      4.9866658599999996
   432   1      28.338850770000001             18.77214601      4.9829038800000003
   433   1              2.08706323             22.15591444      4.8300385700000001
   434   1      6.1190491900000001      22.130895110000001      4.9789796700000002
   435   1      10.150735470000001      22.044281170000001      4.9635528600000001
   436   1      14.148454559999999      22.233296580000001      4.8354034600000002
   437   1      18.294403710000001      22.383214420000002      4.8561788699999999
   438   1             22.24914794             22.33357457      4.9210133599999999
   439   1      26.403056549999999      22.315755630000002              4.85799161
   440   1      30.394303470000001             22.29733135      5.1159401500000001
   441   1             -0.12407047      25.724390509999999      5.1707827799999997
   442   1      4.1184760799999998      25.583516840000001      5.0131851799999998
   443   1      8.2008607799999993      25.684436689999998      5.0141157099999996
   444   1      12.201529989999999             25.60797328      4.9740565400000003
   445   1             16.17881904             25.84021173      4.9299468700000002
   446   1      20.283985149999999      25.695280690000001      4.8719963100000001
   447   1      24.404273409999998      25.657961310000001      5.0016998900000003
   448   1      28.331933849999999             25.70818753              5.00873335
   449   1              0.14021369              2.41160511      5.6819312799999997
   450   1      4.1196991699999996              2.34180543      5.8608764100000004
   451   1      8.1841220299999993      2.2356026099999999      5.7720065099999998
   452   1             12.27738428              2.32578365      5.8971130299999999
   453   1             16.25589501      2.3124555899999999      5.8470550899999996
   454   1      20.355830900000001      2.3624845799999998      5.6996186900000003
   455   1      24.319765069999999      2.2376762499999998      5.7463261399999999
   456   1      28.526263190000002      2.3455716899999999      5.7651063000000002
   457   1               2.1347155              5.87948308      5.7574425400000004
   458   1      6.0212707099999996      5.9258371299999997      5.6431821199999996
   459   1      10.066111790000001      5.8902443099999999      5.7703778799999998
   460   1             14.19370144      5.8062025300000002      5.6910019099999998
   461   1      18.218624460000001      5.7461436700000004      5.6471732299999999
   462   1      22.281869480000001      5.9228174400000002      5.7097463199999998
   463   1      26.395623610000001      5.9853269500000001      5.7917976400000004
   464   1      30.532879399999999      5.8764948199999996      5.6947842199999998
   465   1   -0.074250259999999998      9.3533918000000007      5.6169563800000004
   466   1      3.8160415799999998      9.4190060599999992      5.6687543900000001
   467   1      7.9356777599999999      9.3493252200000008      5.8157867899999998
   468   1              12.0818829      9.3673035200000001      5.7928659900000001
   469   1      16.218765529999999      9.4224034499999991      5.8113015099999998
   470   1      20.343394360000001      9.5268976999999992      5.8117833299999999
   471   1      24.321723349999999      9.2966745300000007      5.6869249699999997
   472   1      28.403939520000002      9.3586255499999993      5.8260804300000002
   473   1      2.0048371899999999      12.931778680000001      5.8022577799999997
   474   1      6.0027393900000003             12.91630505              5.72089464
   475   1             10.24579819      12.838180360000001      5.7286957100000002
   476   1      14.273938169999999      12.993846960000001      5.8058620000000003
   477   1      18.367782829999999      12.899385990000001      5.7206231299999999
   478   1      22.331285470000001             12.87828326      5.6214605400000002
   479   1      26.357973430000001              12.8617609      5.6991177999999998
   480   1      30.357211700000001             12.82445538      5.6603395499999998
   481   1      32.274506389999999      16.455899110000001      5.6997107099999997
   482   1      4.0355306999999998             16.47085564      5.6801952800000004
   483   1      8.1342120700000002      16.377096259999998      5.6954788499999998
   484   1      12.191682589999999      16.317447300000001      5.8448273300000002
   485   1      16.356994459999999      16.359247029999999      5.8358058799999997
   486   1             20.37292188              16.4679228      5.7065031800000003
   487   1      24.441609580000002      16.582956079999999      5.7179127699999999
   488   1      28.378733799999999             16.42259894              5.66823298
   489   1      2.0478231099999999      19.833595119999998      5.6793219199999996
   490   1              6.18162609      19.937789259999999      5.7889020699999998
   491   1             10.18214102             19.78410203      5.7625601599999996
   492   1             14.29049884             19.94367669      5.8203866399999997
   493   1      18.314794200000001             20.04447657               5.8610954
   494   1      22.293833459999998      20.101661960000001      5.7275711100000004
   495   1             26.41148424      19.851596820000001      5.7056371199999996
   496   1      30.318789710000001      19.845362909999999      5.7766034299999998
   497   1             32.42595644             23.50950271      5.8042192000000004
   498   1      4.0652505699999999      23.384528679999999      5.8730803299999996
   499   1      8.1276489499999993      23.295991440000002      5.7338325899999996
   500   1              12.2643529      23.373667860000001      5.7828183199999996
   501   1      16.211933569999999      23.462328360000001      5.7391191900000003
   502   1      20.324848859999999      23.536112030000002      5.7951950800000001
   503   1      24.356605120000001      23.358840799999999      5.7182208799999996
   504   1      28.319694510000001             23.29916163      5.7621417399999997
   505   1      2.1110589000000002      26.948811729999999              5.73675289
   506   1      6.1566124000000002      26.896268360000001      5.7722970299999998
   507   1             10.27911714      26.836355600000001      5.7310951000000001
   508   1             14.13503601             26.99357578      5.7571579399999999
   509   1      18.240472459999999      26.982499650000001      5.7204083499999996
   510   1             22.35396093      26.911443290000001      5.7390277699999999
   511   1             26.41627373      26.830963950000001      5.7506835599999997
   512   1      30.294990210000002      26.952738230000001              5.75125726
   513   1    0.034397369999999997  -0.0010427699999999999              6.53138226
   514   1      4.2934387999999997   -0.092174069999999997      6.5670545899999997
   515   1      8.2409615200000008    -0.20387056000000001      6.8218384099999998
   516   1      12.265296080000001    0.060774790000000002      6.7360262400000002
   517   1             16.19104046      28.189396299999999      6.5848921200000001
   518   1      20.302358730000002  -0.0071442700000000003      6.6161695299999996
   519   1             24.24827732      28.080820060000001      6.5266141299999996
   520   1      28.326359159999999      28.002285019999999      6.6256770400000002
   521   1      2.1184968199999998              3.54646163      6.7137844199999996
   522   1      6.1337052099999996      3.5677711599999999      6.6530987000000001
   523   1      10.214832189999999      3.3659172499999999      6.6078147999999999
   524   1             14.29707732      3.5485001600000001      6.6671951500000004
   525   1             18.23764869              3.53764229              6.62641437
   526   1             22.33717626      3.5797949099999999      6.5555648499999997
   527   1      26.430568820000001      3.4154965900000001              6.52188357
   528   1      30.610152509999999      3.4914716499999998      6.5753074299999996
   529   1    0.086153240000000006      7.0707287499999998      6.4115101900000004
   530   1      4.0426043500000004      6.9642491299999998      6.5667293400000002
   531   1      8.1988107100000001      6.9965589899999996      6.7019116399999996
   532   1             12.15183476      7.0054942899999997      6.6647556899999998
   533   1      16.198222900000001      6.8723845800000003      6.6540888200000001
   534   1      20.170706509999999      7.0962576899999998      6.5722758299999997
   535   1      24.382941420000002      7.1019622099999999      6.5732802699999997
   536   1      28.433382819999999      7.1060787999999997              6.55877233
   537   1              1.94698818             10.65174204              6.61069672
   538   1      5.9031838099999998             10.55355977      6.6431850800000003
   539   1             10.13875432              10.5274505      6.5997354000000001
   540   1             14.19929671             10.59597005      6.7296847599999996
   541   1             18.25949031      10.555243109999999      6.6354137800000004
   542   1             22.40990378      10.590686720000001      6.4889309199999996
   543   1      26.351079810000002      10.577250530000001      6.5702023799999996
   544   1             30.37892798             10.55175362      6.5003486099999996
   545   1      32.407626880000002      14.137004299999999      6.6017984399999996
   546   1      3.9768368199999999             14.18018333      6.6315638400000001
   547   1      8.1148542900000002      14.073309139999999      6.5938448000000003
   548   1             12.27892447      13.964674260000001      6.6408169399999997
   549   1      16.334174839999999             14.02090533              6.61135685
   550   1      20.458428999999999      13.971018430000001               6.5306343
   551   1      24.392802339999999      14.210816400000001      6.5513492400000004
   552   1             28.32491482             14.10845439      6.5586795699999998
   553   1              1.96406393      17.481347289999999      6.4595313499999998
   554   1      6.1261365400000001      17.539719040000001      6.6605813600000001
   555   1             10.21070565             17.46355943      6.7010179000000001
   556   1      14.246947130000001             17.60404282      6.6618505700000004
   557   1              18.4063649      17.682771880000001              6.68948111
   558   1      22.464665750000002             17.49907735      6.5657269200000004
   559   1      26.410811939999999      17.622830889999999      6.6098501900000004
   560   1      30.397999240000001             17.60899998      6.6075533999999996
   561   1     0.11836712000000001             20.96006259      6.4066739000000004
   562   1      3.9844393999999999      21.077714910000001              6.59187206
   563   1      8.2383719800000001      20.998827940000002      6.6625489399999998
   564   1             12.14897238      21.122200020000001      6.5557350200000002
   565   1      16.281123829999999      21.096023559999999      6.7348552499999998
   566   1      20.333952830000001             21.24137618      6.7466952500000001
   567   1      24.448000889999999      21.145752529999999      6.4978348099999996
   568   1      28.448541710000001             21.04749223              6.55829796
   569   1               2.1224159      24.664415760000001      6.6762893400000003
   570   1      6.0679154200000003      24.632114600000001      6.7264886500000003
   571   1             10.21160218      24.524516460000001      6.5492026499999998
   572   1      14.250467199999999             24.60794314      6.5728407799999999
   573   1      18.348807669999999             24.66477059      6.6809553099999999
   574   1             22.25398135      24.616350730000001      6.5888339900000004
   575   1      26.297161719999998      24.610991070000001      6.5729811199999997
   576   1             30.51661314      24.639057380000001      6.5554609700000004
   577   1              2.19454532              1.25643039      7.5202334100000003
   578   1      6.2326462899999999      1.1905496099999999      7.4822497600000002
   579   1              10.2047797              1.17569473      7.6889363900000003
   580   1             14.31686773              1.17934943      7.6489255399999996
   581   1      18.400690999999998              1.19645103              7.46861292
   582   1      22.301364849999999      1.3046088499999999      7.4781478699999999
   583   1      26.330382870000001      1.1070161700000001      7.4893995200000001
   584   1      30.503301090000001      1.1268923799999999      7.4348050600000004
   585   1              0.10211853      4.7442787800000001      7.5701559500000002
   586   1      4.0796678799999997      4.6080018599999999      7.6589745100000002
   587   1      8.2115699200000005      4.6057880600000001      7.5445458199999997
   588   1             12.22679226              4.63597883      7.5531216499999996
   589   1      16.228480340000001      4.5790123700000001      7.5848827999999999
   590   1             20.34222389      4.7770062199999996      7.5280975200000002
   591   1      24.486286079999999      4.7330466400000004      7.4801157099999998
   592   1      28.475502819999999      4.6972259599999999      7.4035764899999998
   593   1      1.9357128299999999      8.1153240800000006      7.4874994700000004
   594   1      6.0446850100000002      8.1584011099999998      7.5188774399999998
   595   1             10.06369492      8.2123463799999996      7.5092070399999997
   596   1      14.286547929999999      8.1844090999999999      7.7007681400000001
   597   1      18.196471039999999      8.1605819799999999      7.6462120799999997
   598   1      22.360731090000002      8.2864384199999996      7.5410951300000004
   599   1      26.399766440000001              8.13268536      7.5605841600000003
   600   1      30.462563530000001      8.1393366999999994      7.5530138899999999
   601   1      32.399636889999996             11.72350262      7.4008485500000001
   602   1      3.9243946200000002             11.79615372      7.4622645399999996
   603   1      8.0277672800000008      11.788621109999999      7.6199497699999998
   604   1             12.15940516      11.609274340000001      7.5750201500000003
   605   1             16.19962636      11.698666729999999      7.5417391199999999
   606   1      20.323025229999999      11.770818050000001      7.4931054399999999
   607   1      24.392653410000001      11.681236719999999      7.4731182299999999
   608   1             28.33357496      11.773417970000001      7.3607491200000004
   609   1              1.81988565      15.295002330000001      7.5663560500000004
   610   1      6.0922392299999997      15.183927300000001      7.4341091199999996
   611   1             10.16707474             15.19385202      7.5318814400000003
   612   1             14.33599197      15.148383089999999      7.6264473600000002
   613   1             18.41989105             15.24426987      7.5544653000000004
   614   1             22.29931573             15.15204037              7.46132566
   615   1             26.29061325             15.30850558      7.4471848899999999
   616   1             30.29792496      15.217466119999999      7.5106654400000004
   617   1              0.01119204             18.65796272               7.4486241
   618   1      4.0269658899999996      18.659787829999999      7.4268255200000004
   619   1      8.1337670499999994      18.692858229999999      7.6610499799999996
   620   1      12.275238460000001      18.744298149999999      7.7056761199999997
   621   1             16.31105745             18.67337259      7.6906351700000002
   622   1      20.375635429999999             18.70328615      7.4830169599999996
   623   1             24.29400442      18.843387480000001      7.7041651199999999
   624   1             28.29010061      18.758241699999999      7.3873838699999999
   625   1      2.1075461500000001      22.302501500000002      7.4449748400000004
   626   1      6.0698986100000001             22.09619837      7.5870390700000003
   627   1             10.15634648      22.127545869999999      7.5296717400000004
   628   1      14.133223279999999             22.35992731      7.3832608500000001
   629   1      18.259673509999999             22.40387024      7.6509744599999996
   630   1      22.373407610000001      22.403012239999999      7.6052781500000002
   631   1      26.363967410000001             22.24920929      7.4796731799999998
   632   1      30.537117479999999      22.356052269999999      7.5948508300000004
   633   1    0.065853739999999994      25.814556679999999      7.7526933700000003
   634   1      4.2302899099999998             25.71947424      7.7446039100000004
   635   1      8.2892263800000006      25.610083400000001               7.4184025
   636   1             12.16489734             25.73299965      7.5321494500000004
   637   1      16.187054759999999      25.745544299999999      7.5272396500000003
   638   1      20.312826189999999      25.805657140000001      7.5965360500000001
   639   1      24.258750190000001             25.79614746      7.5147287299999999
   640   1             28.44457895      25.640223880000001      7.5069905400000003
   641   1    0.067510509999999996      2.3206147600000002      8.0901609299999997
   642   1      4.1351033800000003              2.44640017      8.3952504599999997
   643   1      8.0752790799999996      2.2444738000000002      8.3595781900000006
   644   1             12.21992726      2.3676657400000001      8.3656461499999999
   645   1      16.367678439999999      2.3379571299999999      8.3321770900000001
   646   1             20.41697667      2.3329114099999999      8.1609244600000004
   647   1      24.359561039999999      2.3834984000000001      8.1494513800000004
   648   1      28.398774469999999              2.31606091      8.2165263799999995
   649   1      2.0480035000000001      5.8514551299999997      8.2881207499999991
   650   1      6.2177652300000004              5.88438456      8.1434148700000009
   651   1      10.141545669999999      5.8577967400000004      8.2209086899999999
   652   1             14.25330402      5.8579738800000003      8.1752013800000007
   653   1      18.197595620000001      5.8262029399999999      8.1566829900000002
   654   1      22.442194669999999      5.8784104499999996      8.0617241800000006
   655   1      26.519200909999999      5.8904769699999999      8.2768726299999997
   656   1      30.404818850000002      5.8860673400000003              8.12494768
   657   1    0.086317660000000004      9.4512976099999992      8.0405405099999996
   658   1      3.9468317700000002      9.2600108399999996      8.1709190700000001
   659   1      7.9963720399999998      9.3143351899999995      8.2147643099999996
   660   1             12.10177019      9.3370284800000007      8.2889597399999992
   661   1             16.29620096      9.3009657400000005      8.1506988899999993
   662   1      20.219880490000001      9.4538257600000009              8.30151532
   663   1      24.289636699999999      9.2752287500000001      8.2294677600000004
   664   1      28.358444089999999      9.3536836799999996      8.2361880700000007
   665   1      1.9434886600000001             12.88213311      8.1481612800000001
   666   1      5.9541404900000003      12.901117899999999      8.1110375000000001
   667   1             10.17440274      12.812597220000001      8.1403838499999992
   668   1             14.12983693             12.72349226      8.3578592999999994
   669   1      18.241618469999999      12.992750729999999      8.0053125699999992
   670   1      22.319816360000001             12.79107681      8.2076630300000009
   671   1      26.293075730000002      12.999194019999999      8.1354656199999997
   672   1             30.41994029      12.872105210000001      8.0769412099999993
   673   1    -0.21872211999999999      16.392158739999999      8.3252643499999994
   674   1      3.9599795900000001      16.273285869999999              8.29816924
   675   1      8.1476382600000008      16.299857769999999      8.2254022899999999
   676   1             12.23725016      16.358088009999999      8.3365516700000004
   677   1      16.404944400000002             16.42576961      8.2551605099999996
   678   1      20.471119470000001             16.55959657      8.2840548500000004
   679   1              24.4304597      16.468094820000001      8.0953124600000006
   680   1      28.373288169999999             16.34358301      8.1222899000000002
   681   1      2.0496097799999999      19.839871209999998      8.0530151799999992
   682   1      6.1334615499999998      19.839905470000001      8.3341101399999999
   683   1             10.23171046      19.921492870000002      8.2720948199999995
   684   1      14.316436749999999      19.940148820000001              8.09332852
   685   1      18.303412680000001      19.947280769999999      8.2236473100000005
   686   1      22.396132340000001      20.046184440000001      8.0543463000000006
   687   1      26.417810630000002             19.91779167      8.1683274800000003
   688   1             30.58207389      20.053984230000001      8.1205059199999994
   689   1     0.13123185000000001      23.459971929999998      8.2467096000000009
   690   1      4.0715452699999997             23.32554493      8.3828976900000001
   691   1      8.0935880200000003      23.384033970000001      8.2726323599999994
   692   1             12.20716144      23.315237110000002      8.1910754600000004
   693   1      16.177245379999999      23.434563829999998      8.2108690899999992
   694   1      20.254332779999999      23.492941590000001      8.1975058399999998
   695   1      24.336361549999999             23.53935504      8.2364451200000008
   696   1      28.352228019999998      23.384613229999999      8.2012073000000001
   697   1               2.1752761      27.097443699999999      8.1897107699999996
   698   1      6.2374236300000003             26.80359962      8.3070817399999992
   699   1             10.28437504      26.905373319999999      8.3195017900000003
   700   1             14.20030277      26.815607409999998      8.2718806800000007
   701   1      18.223264629999999      26.976162309999999      8.2874203699999995
   702   1      22.366356530000001      26.999154870000002      8.2033039900000002
   703   1      26.301102419999999             26.96817489      8.1118367800000009
   704   1              30.4779597      27.024460940000001      8.3874619900000003
   705   1      32.524097939999997      28.085091630000001      9.0529134599999992
   706   1      4.3760571600000002             28.18656051      8.9159938400000005
   707   1      8.1868629199999994   -0.074750109999999995      9.1388131000000001
   708   1             12.07260292    0.035371809999999997      9.0495077300000002
   709   1      16.161747470000002             -0.05965765      8.9678927000000002
   710   1             20.24645443              0.06960537      9.0102010099999994
   711   1      24.430362089999999             28.26804323      8.8863464200000006
   712   1      28.158702600000002             -0.11495613      9.0021077599999995
   713   1               1.9781734              3.47056254      9.1777959599999992
   714   1      6.1652107699999998              3.64015019      9.0649761200000007
   715   1             10.17197878      3.4869200899999999      9.0794754799999993
   716   1      14.335644589999999      3.5850667899999999      9.0656709800000002
   717   1             18.56247389      3.6455685400000002      9.0868820299999999
   718   1      22.423019320000002              3.72041903      8.9683102600000009
   719   1             26.37115992      3.4120462699999998      8.9919566199999998
   720   1             30.48393003      3.5986824500000001      8.9260694600000008
   721   1             -0.12735906      7.2116365499999997      8.9404990200000007
   722   1      4.1677326600000004      7.1156388899999996      8.8457547900000009
   723   1      8.1338680500000002      7.1318847200000004              9.18420536
   724   1      12.226906420000001      6.9396491600000001      9.0777599000000002
   725   1      16.122173539999999      7.0588792600000003      9.0880472399999999
   726   1      20.382534450000001      7.0076428699999997      8.9479973699999995
   727   1      24.387575340000001      6.9379960799999996      8.9870335600000004
   728   1      28.411072789999999              6.99773011      9.0205419899999999
   729   1              2.11065681      10.509550409999999      8.7938803500000002
   730   1      5.8410552200000003             10.76429209      9.0242508000000008
   731   1      9.9481362900000008             10.47429114      8.9727241299999996
   732   1      14.287743559999999      10.292132990000001      9.1065610400000008
   733   1      18.249060499999999             10.71109927      9.0596802099999998
   734   1             22.25002782      10.609523169999999      8.9144521300000008
   735   1      26.420379449999999             10.60573544      8.9917841200000002
   736   1             30.36772242      10.432924590000001      8.7939353199999992
   737   1             32.28155048             14.12314259      8.9058631300000002
   738   1      4.1294082599999999             13.86952406              9.00782624
   739   1      8.1223463599999999              13.9891015      8.9523980699999992
   740   1      12.157189300000001             14.15963313      9.1129113700000008
   741   1             16.27112164             14.01970974      8.9921564499999995
   742   1      20.301786159999999      14.076886699999999      8.9300397799999995
   743   1              24.2429816      14.307362619999999      8.9926010499999993
   744   1      28.555253069999999             14.05503684      8.9534981400000007
   745   1      1.8663526500000001      17.477801849999999      8.9339309700000005
   746   1      6.1219218499999997      17.483722740000001      8.9379366499999993
   747   1      10.156363369999999      17.466710639999999              9.03865579
   748   1      14.330350810000001      17.429850089999999      9.1200863400000003
   749   1      18.394036199999999      17.542443779999999      8.9804737400000008
   750   1             22.53644817      17.856099669999999      8.9799439599999999
   751   1             26.33638303      17.573672760000001      9.0272258300000008
   752   1      30.292477300000002      17.662083089999999      9.0863953500000001
   753   1      32.755147039999997      21.090003469999999      8.9009614799999994
   754   1      4.1281268999999998             20.89788811      8.9856795799999993
   755   1      8.2835936100000005             20.91236881      9.0270417399999996
   756   1             12.30967027      21.002636420000002      8.9760163899999998
   757   1      16.221248599999999      21.124343459999999      9.0835524299999992
   758   1      20.494856290000001      21.259737520000002      9.2132134600000004
   759   1      24.401963009999999      21.226159580000001      8.8966118200000004
   760   1      28.309598680000001      21.077277089999999      8.9462123600000005
   761   1      2.0125730599999998             24.84487438      9.0744833899999993
   762   1      6.0602449099999998             24.47774437      9.1823128999999994
   763   1              10.2549662      24.428217579999998      8.8942289300000006
   764   1             14.25504598      24.422392039999998      8.9809280499999993
   765   1             18.22051686      24.725399830000001      9.0197572800000003
   766   1             22.08344306      24.510640299999999      9.0517669400000003
   767   1      26.491864759999999              24.6114836      8.9541096499999995
   768   1             30.46382303      24.648629159999999      8.8497121799999992
   769   2      29.067244280000001             19.32360517      8.9800541000000003
   770   2      28.219864019999999             17.86515691      9.2807831600000004
