N2-dn2-coord-10bar/300K/snapshots/frame-81423/run-000/../data.lammps (written by ASE) 

770 	 atoms 
2  atom types
0.0      32.470343392086264  xlo xhi
0.0      28.120142247150884  ylo yhi
0.0      31.213473999158239  zlo zhi


Atoms 

     1   1      2.0293964600000001      1.1716090800000001    0.023552650000000001
     2   1      6.0880008999999999              1.17168918              0.02556874
     3   1      10.146952280000001              1.17170328    0.025416459999999998
     4   1      14.205754900000001      1.1716496700000001              0.02501565
     5   1             18.26456816              1.17166478              0.02504435
     6   1             22.32338141      1.1716496700000001              0.02501565
     7   1      26.382184030000001              1.17170328    0.025416459999999998
     8   1      30.441135410000001              1.17168918              0.02556874
     9   1  9.1780000000000006e-05      4.6866847900000002    0.025581599999999999
    10   1      4.0587011400000002      4.6866847900000002    0.025581599999999999
    11   1      8.1174961000000003      4.6866290399999997    0.025584639999999999
    12   1             12.17638011      4.6866852999999997              0.02491202
    13   1             16.23517979      4.6866942700000003    0.025006210000000001
    14   1      20.293956519999998      4.6866942700000003    0.025006210000000001
    15   1      24.352756209999999      4.6866852999999997              0.02491202
    16   1      28.411640219999999      4.6866290399999997    0.025584639999999999
    17   1      2.0293964600000001      8.2016395800000002    0.026613040000000001
    18   1      6.0881071599999999      8.2016314300000008              0.02543782
    19   1             10.14701835               8.2017045    0.025156850000000001
    20   1      14.205766049999999      8.2017080900000003    0.024990459999999999
    21   1             18.26456816      8.2017077599999997    0.025091249999999999
    22   1      22.323370260000001      8.2017080900000003    0.024990459999999999
    23   1      26.382117969999999               8.2017045    0.025156850000000001
    24   1      30.441029149999999      8.2016314300000008              0.02543782
    25   1  9.2789999999999998e-05             11.71671873    0.025573410000000001
    26   1              4.05870014             11.71671873    0.025573410000000001
    27   1      8.1176017700000003             11.71668698              0.02497914
    28   1             12.17637068             11.71673069    0.025001590000000001
    29   1      16.235177310000001      11.716730249999999    0.025074039999999999
    30   1      20.293959009999998      11.716730249999999    0.025074039999999999
    31   1      24.352765640000001             11.71673069    0.025001590000000001
    32   1      28.411534549999999             11.71668698              0.02497914
    33   1      2.0293964600000001             15.23167155              0.02525285
    34   1      6.0881728300000004      15.231678799999999    0.025062859999999999
    35   1             10.14698486      15.231762639999999               0.0250786
    36   1             14.20578841             15.23176782    0.025201990000000001
    37   1             18.26456816              15.2317707    0.025149979999999999
    38   1      22.323347900000002             15.23176782    0.025201990000000001
    39   1      26.382151459999999      15.231762639999999               0.0250786
    40   1      30.440963480000001      15.231678799999999    0.025062859999999999
    41   1      32.470327990000001      18.746748629999999    0.024951939999999999
    42   1      4.0588083299999997      18.746748629999999    0.024951939999999999
    43   1      8.1175770200000006      18.746803499999999    0.025222040000000001
    44   1             12.17637459      18.746799750000001    0.025428470000000002
    45   1      16.235159400000001      18.746805200000001    0.025487360000000001
    46   1      20.293976919999999      18.746805200000001    0.025487360000000001
    47   1      24.352761730000001      18.746799750000001    0.025428470000000002
    48   1             28.41155929      18.746803499999999    0.025222040000000001
    49   1      2.0293964600000001      22.261939099999999    0.025844880000000001
    50   1      6.0881419299999999      22.261841799999999    0.025489439999999999
    51   1             10.14692954             22.26176895              0.02551757
    52   1             14.20573559      22.261804690000002    0.025639160000000001
    53   1             18.26456816             22.26178625    0.025640119999999999
    54   1      22.323400729999999      22.261804690000002    0.025639160000000001
    55   1      26.382206780000001             22.26176895              0.02551757
    56   1             30.44099439      22.261841799999999    0.025489439999999999
    57   1  5.6450000000000003e-05      25.776936450000001              0.02613327
    58   1      4.0587364700000004      25.776936450000001              0.02613327
    59   1      8.1175325399999991              25.7767713    0.024734180000000001
    60   1      12.176376469999999      25.776831090000002              0.02545323
    61   1      16.235145939999999      25.776775220000001    0.025273360000000002
    62   1             20.29399038      25.776775220000001    0.025273360000000002
    63   1      24.352759840000001      25.776831090000002              0.02545323
    64   1      28.411603769999999              25.7767713    0.024734180000000001
    65   1  0.00024266000000000001              2.34304215     0.80166565000000001
    66   1      4.0585502699999996              2.34304215     0.80166565000000001
    67   1      8.1157394600000003              2.34454954     0.80169402000000001
    68   1             12.17601256      2.3433829099999999     0.80116898000000003
    69   1      16.235258170000002      2.3433209100000001     0.80090046999999998
    70   1      20.293878150000001      2.3433209100000001     0.80090046999999998
    71   1      24.353123750000002      2.3433829099999999     0.80116898000000003
    72   1      28.413396859999999              2.34454954     0.80169402000000001
    73   1      2.0293964600000001      5.8582218700000004     0.80119762000000005
    74   1      6.0870566899999998      5.8583336700000004              0.80194851
    75   1             10.14649655              5.85853131     0.80121584000000001
    76   1             14.20597894      5.8582938599999999     0.80086840999999998
    77   1             18.26456816      5.8583798500000004               0.8010794
    78   1      22.323157380000001      5.8582938599999999     0.80086840999999998
    79   1             26.38263976              5.85853131     0.80121584000000001
    80   1      30.442079629999999      5.8583336700000004              0.80194851
    81   1  0.00019438999999999999      9.3717771800000005     0.80082061000000004
    82   1      4.0585985400000002      9.3717771800000005     0.80082061000000004
    83   1      8.1175070500000004      9.3725002699999997     0.80149060999999999
    84   1      12.176590020000001      9.3733583399999993     0.80088261999999999
    85   1             16.23512199      9.3733789200000004              0.80106506
    86   1             20.29401433      9.3733789200000004              0.80106506
    87   1      24.352546289999999      9.3733583399999993     0.80088261999999999
    88   1      28.411629269999999      9.3725002699999997     0.80149060999999999
    89   1      2.0293964600000001             12.88692854     0.80220621000000003
    90   1      6.0883212999999996             12.88743848     0.80138414999999996
    91   1      10.147128609999999             12.88859852     0.80085256000000005
    92   1             14.20571782      12.888558189999999     0.80113791000000001
    93   1             18.26456816      12.888409899999999     0.80109381000000002
    94   1      22.323418490000002      12.888558189999999     0.80113791000000001
    95   1             26.38200771             12.88859852     0.80085256000000005
    96   1      30.440815019999999             12.88743848     0.80138414999999996
    97   1              0.00012365      16.403222639999999     0.80145666999999998
    98   1      4.0586692700000002      16.403222639999999     0.80145666999999998
    99   1      8.1174337899999998      16.403825260000001     0.80097196999999998
   100   1              12.1761021             16.40390721     0.80133072000000005
   101   1             16.23503496      16.403861750000001     0.80140014999999998
   102   1      20.294101359999999      16.403861750000001     0.80140014999999998
   103   1      24.353034220000001             16.40390721     0.80133072000000005
   104   1      28.411702529999999      16.403825260000001     0.80097196999999998
   105   1      2.0293964600000001      19.919205120000001     0.80066369999999998
   106   1              6.08752564             19.91894023     0.80122479000000002
   107   1      10.146078839999999             19.91919038     0.80159137999999996
   108   1      14.204993419999999              19.9192584     0.80178742000000003
   109   1             18.26456816      19.919377350000001     0.80194975999999996
   110   1      22.324142899999998              19.9192584     0.80178742000000003
   111   1      26.383057470000001             19.91919038     0.80159137999999996
   112   1      30.441610669999999             19.91894023     0.80122479000000002
   113   1              0.00142012      23.434536609999999     0.80178442000000005
   114   1      4.0573728100000004      23.434536609999999     0.80178442000000005
   115   1      8.1165862000000004      23.433936769999999     0.80182306000000003
   116   1             12.17555218      23.433996919999998     0.80156656000000004
   117   1             16.23465491      23.434040110000002     0.80170828999999999
   118   1      20.294481409999999      23.434040110000002     0.80170828999999999
   119   1      24.353584130000002      23.433996919999998     0.80156656000000004
   120   1      28.412550110000002      23.433936769999999     0.80182306000000003
   121   1      2.0293964600000001      26.949875330000001              0.80297246
   122   1      6.0858208300000003      26.950066320000001              0.80215291
   123   1             10.14598146      26.949241430000001     0.80165810000000004
   124   1             14.20520604      26.948673230000001     0.80131923999999999
   125   1             18.26456816             26.94858318     0.80108193999999999
   126   1      22.323930279999999      26.948673230000001     0.80131923999999999
   127   1      26.383154860000001      26.949241430000001     0.80165810000000004
   128   1             30.44331549      26.950066320000001              0.80215291
   129   1    0.092451690000000003   -0.065986649999999994              1.46495921
   130   1      4.0757962599999997   -0.029712450000000001      1.4886690300000001
   131   1      8.1541561300000005      28.107174910000001      1.4705285100000001
   132   1      12.238847120000001      28.132434159999999               1.4951523
   133   1             16.15311994    0.046770140000000002              1.53077281
   134   1             20.31350668      28.184157249999998              1.43109164
   135   1      24.407973649999999   -0.094550599999999999      1.4299178800000001
   136   1      28.418520019999999   -0.059618579999999997      1.4603816000000001
   137   1      2.0253191300000002      3.5074497299999998      1.5167881599999999
   138   1      6.0098739600000002      3.4485698899999999      1.3719499900000001
   139   1      10.183966059999999      3.5690647900000001      1.5176578000000001
   140   1             14.15666135      3.6225915299999998      1.5316203900000001
   141   1      18.203966869999999      3.4472491199999999      1.3582492100000001
   142   1      22.347860900000001      3.5071118499999998      1.5993798400000001
   143   1      26.280853430000001              3.55074581      1.3619751200000001
   144   1      30.452206570000001               3.3644607      1.5306843699999999
   145   1  -0.0091683000000000008              7.00024581      1.5993173300000001
   146   1      4.0484988299999998      7.0274367599999996              1.48001155
   147   1      8.0806709899999998              7.01888106              1.53342106
   148   1              12.2124495      7.1139755899999999      1.5620415599999999
   149   1      16.208523929999998      6.9408434699999999              1.48002195
   150   1      20.195314679999999      7.0592689000000002              1.51130067
   151   1      24.157708159999999      7.0234994400000001              1.57593344
   152   1      28.358366440000001      7.0404420600000002              1.51670511
   153   1      2.0459145300000001      10.578102980000001              1.57420121
   154   1      6.0283742499999997      10.574441630000001              1.44523376
   155   1      10.164869299999999      10.538154840000001              1.57949005
   156   1              14.1478486      10.599609020000001      1.4068066400000001
   157   1      18.220456080000002             10.52641936                1.447133
   158   1      22.320392600000002             10.57667022              1.33795602
   159   1      26.272858930000002      10.554254179999999              1.58539615
   160   1      30.377843349999999      10.589005849999999              1.40552956
   161   1    0.089438790000000004             14.17237152              1.44891181
   162   1      4.0083493399999996      14.044861539999999              1.58777821
   163   1      8.1047556499999995             14.06269876              1.30789303
   164   1             12.12496762             14.04722963              1.58623341
   165   1      16.320393060000001             14.00969196              1.54874098
   166   1             20.28378893             14.03985276              1.45655964
   167   1      24.448399930000001      14.104287599999999              1.43131699
   168   1             28.44397455              14.1370948      1.4805453399999999
   169   1      2.0829429500000001             17.55080757      1.4386997100000001
   170   1               6.0161935      17.550445920000001              1.51576705
   171   1              10.0932973      17.631751999999999      1.3299398600000001
   172   1             14.16105806      17.677939909999999      1.4091377199999999
   173   1             18.31102194      17.509306339999998              1.69518978
   174   1      22.353319209999999             17.59242137      1.5383304600000001
   175   1      26.397801810000001             17.64305538      1.4070152499999999
   176   1      30.514247810000001      17.643773620000001      1.5264242699999999
   177   1      32.522203300000001      21.102755569999999              1.53237512
   178   1      4.0418224299999999      21.051620280000002      1.3927338600000001
   179   1      8.1898821099999992      20.983892099999998      1.4797282899999999
   180   1             12.19829661      21.217838109999999      1.4890996700000001
   181   1             16.29016086      21.115203709999999              1.50138215
   182   1              20.3575321      21.099699040000001              1.48271362
   183   1      24.308380809999999      20.943663780000001      1.4909329099999999
   184   1      28.401556889999998      21.064070940000001              1.59456653
   185   1               2.0150603      24.588179790000002      1.5493426400000001
   186   1      6.1541695900000004              24.5062867              1.40988662
   187   1      10.169686560000001      24.625136059999999      1.4245909299999999
   188   1      14.190183920000001      24.564241769999999      1.3976383400000001
   189   1      18.279795360000001      24.572156700000001               1.4684397
   190   1      22.335127809999999             24.56216079      1.6027118600000001
   191   1      26.351271100000002      24.554599230000001              1.29988405
   192   1      30.474220710000001      24.596178040000002              1.64318527
   193   1      2.0528162299999999              1.17005983              2.41952926
   194   1      6.1210622900000002      1.1791548300000001      2.4023065799999999
   195   1      10.246394370000001      1.1971123800000001              2.50778816
   196   1      14.244166359999999      1.1844550700000001              2.43930041
   197   1      18.246894820000001      1.1891398399999999      2.3923631400000001
   198   1      22.355033710000001              1.04836522      2.4401519999999999
   199   1             26.47673116      1.1496286499999999      2.3208012899999999
   200   1      30.531145899999999              1.10000462      2.4062271399999999
   201   1   -0.041415100000000003      4.6306317899999998      2.3715736299999999
   202   1      4.0425223299999997                4.674245      2.4152728899999998
   203   1      8.2037106200000007      4.6828317799999999              2.42449256
   204   1      12.315488849999999      4.7246915300000003      2.4521147299999999
   205   1      16.312358289999999      4.5654594199999998      2.4580932999999998
   206   1      20.240291840000001      4.7143956300000003      2.4394018599999998
   207   1      24.237581890000001      4.6996064500000001      2.4504231500000002
   208   1      28.333784789999999      4.5837487599999998      2.4026448500000002
   209   1      2.0312704899999998      8.1403099399999999      2.2994371400000002
   210   1              6.13223742      8.2535098199999997      2.4712805499999999
   211   1             10.17049566      8.2052423099999992      2.4538658400000002
   212   1             14.26172706      8.2002121799999994      2.3229849800000002
   213   1      18.244998330000001      8.1999850199999997               2.3532924
   214   1             22.21532165      8.2667586400000008               2.3935119
   215   1      26.238697599999998      8.1898850999999997      2.3876508300000001
   216   1      30.467351270000002      8.1888292600000003      2.3743725200000001
   217   1    0.049072070000000002             11.70447212      2.3542603999999998
   218   1      4.0039733100000001             11.73714695              2.43482982
   219   1      8.0672795399999995             11.72471342      2.4258870899999998
   220   1      12.203779340000001             11.60237646      2.4842919800000001
   221   1      16.172211780000001      11.629719400000001      2.5052811799999999
   222   1      20.360246679999999      11.733881269999999      2.4801449600000001
   223   1      24.323290629999999             11.69451216      2.4352196199999998
   224   1             28.37801692      11.769101129999999      2.3961973599999999
   225   1      2.0796683800000002             15.24943223              2.41708006
   226   1              6.06321361             15.22436407               2.4296959
   227   1             10.17918809               15.347051      2.3462815799999999
   228   1      14.173358800000001      15.215445320000001      2.4814053899999999
   229   1      18.282741980000001      15.187079150000001      2.4376647299999998
   230   1      22.317843199999999             15.24708405      2.3618900699999998
   231   1      26.342294649999999             15.18196491      2.4134432000000001
   232   1             30.47681012              15.1583819      2.3814409900000002
   233   1      32.532786850000001      18.706871549999999      2.4351237700000001
   234   1      4.0645383700000002      18.749787349999998      2.4624388700000002
   235   1      8.1699317400000009             18.70235709      2.3943863699999999
   236   1             12.13692348      18.888624140000001      2.3482476999999999
   237   1      16.294449100000001      18.663067699999999      2.4306783200000002
   238   1              20.3730075      18.787580890000001              2.50784663
   239   1      24.407479800000001      18.716972630000001              2.43623886
   240   1      28.462678270000001              18.8402706      2.4737604399999999
   241   1              2.01727189      22.197591060000001      2.4196429799999999
   242   1              6.06290671      22.211452120000001      2.3378617899999998
   243   1             10.05136735      22.325455259999998               2.5277148
   244   1             14.26799091      22.200394729999999      2.5491904299999999
   245   1      18.237842879999999             22.27438111      2.3755078300000001
   246   1      22.312626179999999      22.239524639999999      2.4038318200000002
   247   1      26.328868969999998      22.260026889999999      2.4843301000000002
   248   1      30.406780359999999      22.239540080000001      2.3122694500000001
   249   1    0.011317239999999999      25.808611989999999      2.4960479599999998
   250   1      4.0623825800000004             25.72668273      2.2894940400000001
   251   1      8.1760530399999993      25.830092579999999      2.4187774800000001
   252   1      12.129681509999999      25.889376739999999      2.4546284300000001
   253   1      16.181582670000001             25.84785282      2.3354480500000001
   254   1             20.22670634      25.824785850000001      2.2910303500000002
   255   1              24.2881477      25.754032070000001      2.4015321300000001
   256   1      28.366767939999999      25.727419309999998      2.4085126300000002
   257   1   -0.043620140000000002      2.2865022000000002      3.2711069099999999
   258   1      4.1038638499999998              2.27074088      3.3051003799999998
   259   1      8.1424006099999993      2.2857835099999999      3.2807640600000001
   260   1      12.190902550000001      2.3506085300000001              3.17305546
   261   1      16.193153200000001              2.24163895      3.2463235500000001
   262   1      20.291841699999999      2.3277789699999998      3.1228436300000002
   263   1             24.33972799      2.2319353400000002      3.2257802400000002
   264   1      28.363252230000001      2.1111730899999999               3.1737126
   265   1      2.0553841799999999      5.8055742700000001      3.2320064799999999
   266   1              6.13657042              5.80192554      3.3405922800000001
   267   1             10.14320659      5.8413098000000003              3.22068463
   268   1      14.228930119999999      5.8095533899999996              3.24231676
   269   1      18.237965469999999      5.9374053900000003      3.2148411600000002
   270   1      22.367554460000001      5.9879284000000004      3.2723657400000001
   271   1      26.425037020000001      5.8109346200000003      3.2476613200000002
   272   1      30.435295409999998      5.8066938500000003      3.2017106200000001
   273   1             32.55609965      9.3654870399999997      3.1950275399999999
   274   1      4.0042127399999998      9.3595514099999999      3.2076652000000001
   275   1      8.1965779199999993      9.3721217800000005      3.2741956600000002
   276   1             12.31104554      9.2859621299999997      3.2602270199999999
   277   1      16.199292750000001      9.3872919100000001              3.18456128
   278   1      20.206062249999999      9.3954667100000009      3.3753488800000002
   279   1      24.319128630000002      9.3236627300000006              3.25307441
   280   1             28.34154826      9.3982259300000006      3.2034963300000001
   281   1      2.0494914299999998             12.93171386              3.24583033
   282   1      6.1457796800000004      12.863454450000001      3.2375795599999999
   283   1             10.16432734             12.88980254      3.2060266099999999
   284   1             14.18584866      12.697939249999999              3.32748211
   285   1      18.225870130000001      12.892197619999999      3.2241504399999998
   286   1      22.357153180000001             12.81996189      3.2476148999999999
   287   1             26.40537234      12.849417770000001      3.2445131200000001
   288   1      30.435010930000001             12.87407696      3.2281588800000001
   289   1    0.019642340000000001             16.36219221      3.2286625299999998
   290   1      3.9691823500000001      16.385051000000001      3.1586320699999999
   291   1      8.2395986800000003      16.344795990000001      3.1469677100000002
   292   1             12.16344473             16.47389373      3.2317484200000002
   293   1      16.188861620000001             16.37011936      3.2687399699999999
   294   1      20.289533039999998      16.429307909999999              3.31295457
   295   1      24.407764889999999      16.456104239999998      3.2210715300000001
   296   1      28.441017980000002      16.472366780000002      3.2911323700000001
   297   1              1.95702983      19.811135570000001      3.2979080000000001
   298   1      6.1560461399999999      19.922431150000001      3.2512846099999999
   299   1             10.20353598      19.840034039999999               3.3035695
   300   1      14.296633890000001             19.87758504              3.24533279
   301   1      18.315624570000001      19.895113460000001      3.2246204600000001
   302   1             22.25721252      19.847259090000001      3.3236106900000002
   303   1      26.303726919999999      20.006476769999999      3.2954996200000002
   304   1      30.485807260000001             19.81681077              3.32738859
   305   1      32.486380619999998      23.364470409999999              3.24665194
   306   1      4.0255955400000003      23.457963169999999      3.1227517300000001
   307   1      8.0401231299999996             23.41678379      3.2538749299999998
   308   1             12.24007527      23.438400900000001      3.2415068300000001
   309   1             16.21356625      23.399321010000001              3.34902897
   310   1             20.28480089             23.46701612      3.2568007200000002
   311   1             24.25678461      23.371739999999999      3.2497492100000001
   312   1             28.38080725      23.338554569999999              3.27328098
   313   1      2.0924415199999999             26.90680008              3.30988434
   314   1      6.1604270200000002      27.004772920000001      3.2519628900000002
   315   1             10.19147609             26.94289728      3.2858377700000001
   316   1             14.23435608             26.90085126      3.3467008800000002
   317   1             18.07902309      27.032564919999999              3.21392933
   318   1      22.353873159999999      27.015882990000001      3.2945441400000002
   319   1             26.35526166      26.885395580000001      3.1349415999999999
   320   1      30.405932490000001      26.817678690000001      3.2052889900000001
   321   1             32.47962845    -0.10029772000000001      4.0359425099999999
   322   1      4.1663736800000004      27.994481669999999      4.0873562699999999
   323   1      8.2157386300000006             28.01691447      4.0386507399999996
   324   1      12.170532250000001   0.0029604100000000001      4.1318104199999999
   325   1             16.26449543      28.156459739999999      4.2073752999999998
   326   1      20.375642840000001    0.053105760000000002      4.0838304499999998
   327   1             24.46944169      28.110328039999999      3.9933987900000001
   328   1      28.308758619999999    -0.14088595000000001      3.9759075899999998
   329   1      2.0037241300000002              3.56107503      4.0090058400000004
   330   1      6.1275544699999998              3.46659812      4.0911921299999996
   331   1             10.26515876      3.5772978900000001      3.9855895399999999
   332   1             14.15595673      3.5231830199999998      3.9651624299999999
   333   1      18.247999419999999      3.5499878100000002      3.9474505899999999
   334   1      22.336403090000001      3.4915759099999999      4.0834153200000003
   335   1             26.29937331              3.43346046      4.0243810800000004
   336   1             30.36745123              3.36357836      4.0431632999999998
   337   1      32.508995820000003      7.0088902500000003      3.9882769800000002
   338   1      4.2005400799999997      6.9970066700000002              3.99307451
   339   1      8.2417233000000003      6.9834737799999997      4.0902434799999998
   340   1      12.204323179999999      7.0419390799999997      4.1934372800000004
   341   1      16.137224759999999      7.0852451500000004      4.0273316000000001
   342   1             20.28174314      6.9828626299999996              3.98585536
   343   1               24.398937      6.9989467000000003      4.1098890299999997
   344   1      28.352328050000001      7.0176703299999996      4.0515112499999999
   345   1      1.9901233199999999             10.51734177      4.0272716800000001
   346   1      5.9815169499999996      10.532010570000001      4.0101886799999997
   347   1      10.256829639999999      10.528349179999999      4.0408222800000004
   348   1             14.24058743             10.53078474              4.15190664
   349   1      18.306403899999999              10.4766821      4.0884568400000001
   350   1      22.327293040000001             10.50472061      4.1091065200000001
   351   1      26.321822279999999             10.55163076      4.1046016200000004
   352   1      30.468322359999998             10.62671357      4.0095701999999998
   353   1   -0.035263259999999998             14.02037902              3.98066035
   354   1      3.9850011300000001             14.02141355               4.0665581
   355   1      8.1334507299999999              13.9610866      4.0808427199999997
   356   1      12.306889890000001      13.961524349999999              4.09669112
   357   1      16.291869299999998             14.06553647      4.0725927799999999
   358   1              20.3781739      14.031361220000001              3.96691226
   359   1              24.3658672             14.08245859      4.0511971000000004
   360   1             28.47968895             13.99352509      4.0465171900000003
   361   1      1.9556762599999999      17.536026960000001      4.0705940700000003
   362   1      6.1155576099999998      17.431149959999999      4.0492198200000002
   363   1      10.069338760000001      17.521619229999999      4.1397609199999996
   364   1             14.19435182      17.537205920000002      4.0571384999999998
   365   1      18.225379440000001      17.541889130000001      4.1090159599999998
   366   1      22.414349519999998      17.591277389999998      4.1210997000000003
   367   1             26.36340817      17.558082469999999      4.1697320299999996
   368   1      30.398416730000001      17.479271669999999              4.14451927
   369   1      32.568228810000001             21.10419452      4.0235606800000001
   370   1      4.1113720200000001      21.055363679999999              4.04329888
   371   1      8.1603409399999993      21.099424590000002      4.0376919300000003
   372   1             12.27116476             21.04880665      4.0823862000000002
   373   1             16.24184326             21.08976569      4.1801867399999999
   374   1      20.224286849999999      21.096556209999999      4.0776141900000002
   375   1             24.31109185      21.116582279999999      4.0520934200000003
   376   1      28.393311600000001      21.056700459999998              4.22784256
   377   1              2.01606569             24.46577499      4.0532061500000003
   378   1      5.9862495500000001             24.62113738      3.9410311199999999
   379   1      10.100525080000001      24.598609400000001      3.9973629700000002
   380   1      14.164063840000001      24.562314709999999      4.0892653399999999
   381   1      18.320112120000001      24.585012679999998      4.1386237599999998
   382   1      22.310748220000001      24.570484140000001      4.1359334399999996
   383   1      26.369965990000001             24.45074073      4.0445618899999998
   384   1      30.310666439999999      24.542811369999999      4.0602108799999996
   385   1              1.91338969      1.1605430400000001              4.87432468
   386   1              6.04142738              1.10712755      5.0068216200000002
   387   1             10.18261957               1.1596092      4.9996013399999999
   388   1             14.20309363      1.0831649400000001      4.8816396600000003
   389   1      18.228751509999999      1.2465931800000001      4.7623637900000002
   390   1      22.423148489999999              1.18193086      4.9486631900000004
   391   1      26.379221600000001     0.97905562000000002      4.9156034499999999
   392   1      30.516129129999999      1.0332885300000001      4.9302559700000002
   393   1      32.424934620000002      4.7139375299999999      5.0127893400000003
   394   1      4.1682144299999999      4.6674700600000003      4.9258495699999996
   395   1      8.0736516300000005      4.6202542700000002      5.0921356199999996
   396   1             12.16583325              4.68823598      4.8659425000000001
   397   1      16.205112079999999      4.7155749299999998      4.9305790299999996
   398   1             20.26086145      4.6828682300000004      4.8952448100000003
   399   1             24.30202268      4.7428771999999997      4.9577843399999999
   400   1      28.179215360000001      4.4598573100000003      4.9778163700000002
   401   1      2.0940385099999999      8.1627230999999991              4.80396658
   402   1      6.2328866600000001      8.0783045500000004      4.8376387599999999
   403   1      10.248658880000001      8.2352092999999993      5.0125492899999999
   404   1      14.259789140000001      8.2261693499999993      4.8833515600000004
   405   1      18.220647960000001      8.0970272199999993      4.9292614600000002
   406   1      22.371743930000001      8.1593321900000007      4.9330060400000004
   407   1      26.445906860000001      8.1026776500000004      5.0141694599999997
   408   1             30.36285359      8.2036041999999991      4.8472479699999997
   409   1    0.061581160000000003             11.70133721      4.8789946799999999
   410   1      4.0371719500000003             11.73921736      4.8307504999999997
   411   1      8.0707487899999997      11.593438709999999              4.78444951
   412   1             12.23375469             11.61709634              5.04332051
   413   1      16.304227940000001             11.60522448      4.9291857200000004
   414   1      20.378870089999999      11.714273929999999      5.0170457800000001
   415   1      24.331383519999999              11.7292723      4.9457953300000002
   416   1      28.472582299999999             11.73838104      4.8514279499999997
   417   1              1.97942426      15.193228530000001      4.9994090800000004
   418   1      6.0672186699999999      15.078343159999999      4.8453401999999999
   419   1      10.198783690000001             15.10780821      4.9772113600000001
   420   1             14.14288138      15.217034419999999              4.98148459
   421   1      18.241200760000002      15.296358700000001              4.89830919
   422   1             22.41375236             15.29346069      4.7661079099999997
   423   1      26.487804879999999              15.3091686      4.9153123699999997
   424   1             30.48305204             15.22416136      4.8852918799999996
   425   1      32.404622379999999      18.685817950000001      4.8406955900000002
   426   1      4.1035959000000002      18.589557060000001      5.0056831300000004
   427   1      8.0956022900000004             18.75275564      4.8734107099999999
   428   1      12.147403000000001      18.729897019999999      4.8640624299999997
   429   1      16.323893460000001      18.783634129999999      4.9801716000000003
   430   1      20.240989809999999      18.772332460000001      4.8633081300000001
   431   1      24.400546739999999      18.840684670000002      4.8760096900000001
   432   1      28.337993149999999      18.694877170000002              4.87647282
   433   1      2.0549597999999998      22.153096349999998      4.9944923299999999
   434   1      6.0523411200000004      22.297380780000001      4.8927954800000002
   435   1             10.26534273      22.192852179999999      5.0169121099999998
   436   1      14.193602240000001      22.268354030000001      4.9036114599999996
   437   1      18.260795420000001      22.289972680000002      4.8336093299999998
   438   1      22.303419340000001      22.217060050000001      4.9269025299999996
   439   1      26.310267840000002      22.188664070000002              4.85956118
   440   1             30.55803521      22.202264320000001      4.8559476000000004
   441   1      32.552791540000001             25.65311925      4.9553427000000001
   442   1      4.0225605900000003             25.74954855      4.8876100899999999
   443   1      8.0987613700000001             25.70899769      4.8054594599999998
   444   1      12.216263619999999      25.773422480000001      4.9059136299999997
   445   1      16.156814789999999      25.768438620000001      4.9567397900000003
   446   1      20.233197539999999      25.826681929999999      5.0789777300000001
   447   1      24.320086929999999             25.66398551      4.8608513899999997
   448   1      28.416946530000001             25.64468982      4.9657762400000003
   449   1      32.424095459999997      2.4084972599999999      5.7465792799999997
   450   1      3.8310341800000001              2.22536844      5.8214214200000001
   451   1      8.0432127700000002      2.2311614899999999      5.7523578200000003
   452   1             12.26740324              2.24710565              5.70830649
   453   1             16.28295928      2.3206397700000001      5.6556538400000003
   454   1      20.279973720000001              2.32457293      5.7274115200000004
   455   1      24.368784380000001      2.3377796900000001      5.8317535200000004
   456   1      28.470010349999999      2.1547588499999999      5.7476380799999998
   457   1      2.0030895499999999      5.8411110600000002      5.8533289699999997
   458   1      6.0870407999999996      5.8035476800000003      5.7867123200000004
   459   1             10.19930963      5.7816620399999996      5.6469539500000003
   460   1             14.12926691      5.8773925900000004      5.7374198600000001
   461   1      18.252321909999999      5.8857410899999998              5.71414943
   462   1      22.314923149999998      5.8881227699999998      5.6960764800000003
   463   1      26.299221459999998      5.8087628799999997      5.8164303500000001
   464   1      30.310350440000001      5.7460297100000002              5.83487095
   465   1   -0.043904209999999999      9.3681701299999993      5.7650436300000001
   466   1      4.0005608700000002      9.2545763900000004      5.6364115300000002
   467   1      8.1827175600000004      9.3171355200000008      5.7065434799999997
   468   1             12.19833596      9.2895017200000005      5.8619643100000003
   469   1             16.25439746      9.3830579600000004      5.6850668400000002
   470   1             20.33552126      9.4140418199999996      5.7709066900000003
   471   1      24.356690709999999      9.2570412900000001      5.8474082699999999
   472   1      28.425866670000001      9.3367750699999998      5.7495506299999999
   473   1              1.96533567      12.871264180000001      5.6858537399999998
   474   1      6.1082415399999999      12.895538050000001      5.8081010800000001
   475   1      10.191432969999999              12.6962259      5.8178206899999996
   476   1             14.17524918             12.86366632              5.78862218
   477   1             18.32952774              12.9343165      5.6375954999999998
   478   1             22.39074037      12.888484800000001      5.8187561600000004
   479   1      26.412875830000001             12.94981018      5.6485411900000004
   480   1      30.399801119999999      12.838202430000001      5.7493518999999997
   481   1    0.023708199999999999      16.561248890000002      5.6744989400000003
   482   1      4.0390132599999999             16.24996136      5.7440424300000004
   483   1      8.0739652500000005      16.358996189999999      5.5960130000000001
   484   1             12.10638835      16.306873599999999      5.7431092599999998
   485   1      16.122806570000002      16.446604950000001      5.8351083199999998
   486   1      20.308491549999999      16.491824950000002              5.74264493
   487   1      24.370031610000002      16.364066909999998      5.7744547700000002
   488   1             28.34556791              16.4480304      5.7864113699999997
   489   1      2.0180536299999998      19.748575989999999      5.8118794600000001
   490   1      6.1334650699999997      19.841959639999999      5.6396872900000004
   491   1      10.248901630000001      19.768019540000001      5.7371766199999996
   492   1             14.21848102      19.879938630000002      5.6741331500000003
   493   1      18.266396749999998      19.928527500000001      5.6489143799999999
   494   1      22.361317440000001      19.908907660000001      5.6644381700000004
   495   1      26.402832109999999      19.847517669999998      5.7358127000000003
   496   1             30.41924071      19.766142769999998      5.7312485400000002
   497   1   -0.021179489999999999      23.329953400000001      5.7705205599999996
   498   1               4.0160304      23.354534709999999              5.64710483
   499   1      8.1523710600000001      23.383027219999999              5.61435101
   500   1      12.227984060000001      23.494444340000001      5.7277132799999997
   501   1      16.175716179999998             23.41888754      5.8214675900000001
   502   1      20.327455369999999      23.465647260000001      5.7988220200000002
   503   1      24.330100160000001             23.34456569      5.6810828100000004
   504   1      28.422059600000001      23.315125349999999      5.7379933599999999
   505   1              1.99070937      26.864426120000001      5.6525436500000001
   506   1      6.0967917099999998      26.908113520000001      5.7411808600000001
   507   1             10.13615375      26.882369560000001              5.66380923
   508   1             14.16880591      26.831870540000001      5.7129447000000004
   509   1      18.162821310000002      26.958116390000001      5.7314038500000004
   510   1      22.398959550000001      26.944605330000002      5.8542160599999997
   511   1             26.38403366      26.735828359999999      5.5949845500000004
   512   1               30.568334      26.741596449999999      5.7259831700000001
   513   1      32.515442720000003   -0.026915600000000001      6.4068151100000001
   514   1      3.8916661299999999    0.047387510000000001      6.6527167199999999
   515   1      8.1280236800000001      28.118370469999999      6.5503707899999997
   516   1      12.088907580000001             27.99399983      6.6212600999999998
   517   1             16.08068651   -0.043504939999999999      6.5796789899999997
   518   1      20.235674899999999      28.130193479999999              6.48499844
   519   1      24.335343630000001      27.986537009999999      6.5692208000000001
   520   1      28.460310400000001      27.890645330000002      6.4556845899999997
   521   1      1.9046090499999999      3.5217466900000001      6.4825071000000003
   522   1      5.9133443200000002              3.44134473              6.55381123
   523   1      10.205774119999999      3.3995286999999998      6.4150176500000002
   524   1              14.2440286      3.5489085500000002      6.4486815499999999
   525   1      18.177498499999999      3.5801325300000002      6.4605063200000004
   526   1             22.29397737      3.6355146899999999      6.5181134399999996
   527   1             26.34290743      3.3938253199999999      6.5157655200000004
   528   1      30.336672589999999      3.3754794000000001      6.4626871399999999
   529   1   -0.045547610000000002      6.9015580099999996      6.5952401500000004
   530   1      4.1527277399999996      6.9179191400000004              6.51364856
   531   1      8.1867533300000002      6.8591491099999997      6.5752210800000004
   532   1      12.248248609999999      6.9657968099999996      6.7290380699999996
   533   1      16.316648180000001      7.0774847899999997      6.6545642899999997
   534   1             20.40296163      7.0502122199999997      6.5379290399999999
   535   1             24.36161787              7.14480497      6.7226809100000002
   536   1      28.381952299999998      7.0733758199999999      6.5746356800000001
   537   1      2.0382917200000001      10.548847329999999      6.4852044600000003
   538   1      6.0606647200000001      10.509658249999999      6.5632975399999998
   539   1             10.13348863      10.407841980000001      6.6920903899999997
   540   1             14.32984403             10.51698478      6.5740701799999997
   541   1             18.22861438      10.493034420000001      6.6308629400000001
   542   1             22.42836093      10.621592919999999      6.7147035600000002
   543   1             26.33727141             10.54128659      6.5487874000000001
   544   1      30.496500699999999             10.52056262      6.4662814700000002
   545   1      32.443205919999997             14.00600436      6.6263064600000003
   546   1      3.9968573599999999             14.03216724      6.6210774399999996
   547   1      8.1061910099999999             14.03661913      6.5870953999999999
   548   1             12.17031991             14.07280338      6.6550854199999998
   549   1      16.222947470000001      14.064855379999999      6.6243144200000001
   550   1      20.275024699999999      14.132706020000001      6.4727923699999996
   551   1      24.428421180000001             14.15671811      6.6406589399999998
   552   1      28.331103880000001             13.96546517      6.5557533699999997
   553   1              1.95928492      17.503681270000001      6.6341350500000003
   554   1      6.1441200299999998             17.48697301      6.5152809999999999
   555   1             10.14508829      17.511901340000001      6.6689992199999999
   556   1              14.2228438      17.497204570000001      6.4949599999999998
   557   1             18.23416813      17.632273940000001      6.5846253399999997
   558   1      22.324346389999999      17.620951649999999      6.6669577100000001
   559   1      26.251798220000001      17.544135059999999              6.61739941
   560   1      30.397635869999998      17.523530019999999      6.5987904300000002
   561   1    0.018321799999999999      20.990780310000002      6.5561457599999997
   562   1      4.0589620200000001      20.976893530000002      6.5381179500000002
   563   1      8.0926115799999998             21.07415941      6.5350097099999997
   564   1             12.21695532      21.082233469999998              6.50701704
   565   1             16.24958985      21.000264720000001      6.7409889200000004
   566   1      20.303471049999999      21.085001720000001      6.5387989900000001
   567   1      24.377376460000001      21.127550589999998              6.68134373
   568   1      28.553490969999999             20.97320757      6.6860187299999998
   569   1      2.0310218600000001      24.525630589999999      6.6370783400000004
   570   1      5.9979781499999998      24.572987510000001              6.51811367
   571   1      10.187595460000001             24.46396884      6.5692265699999997
   572   1             14.07671985      24.542354370000002      6.6862299600000004
   573   1      18.252952489999998      24.702565620000001      6.5474984200000002
   574   1      22.355320460000002             24.57551385      6.5158927200000001
   575   1      26.414922690000001      24.427253879999999      6.7024198100000003
   576   1      30.486435069999999      24.439450189999999      6.5279432999999996
   577   1              1.90990539      1.2482535800000001      7.4940534300000001
   578   1      5.9187766399999999              1.21944575      7.5051481899999999
   579   1      9.9892176300000006              1.13471583      7.5377167500000004
   580   1             14.14275887              1.18866436      7.4858624899999997
   581   1      18.262759020000001              1.17113296      7.4791027699999999
   582   1      22.305059580000002      1.1907505199999999      7.5597377000000003
   583   1      26.481679580000002      1.0675800799999999      7.6100408699999997
   584   1             30.46926182     0.99230247000000005      7.4195383499999998
   585   1      32.455559549999997      4.6148962999999998      7.4483105700000003
   586   1              3.95730666      4.6664889199999999      7.5109248300000004
   587   1      8.1929734599999993      4.5653992800000003      7.5423435999999997
   588   1      12.109145740000001      4.6197662199999998              7.40120121
   589   1      16.193809259999998      4.7484093700000001      7.5891801499999998
   590   1             20.26271629              4.68425505              7.40346014
   591   1             24.38814232      4.6514768599999998               7.6368871
   592   1      28.471389859999999      4.6729741999999996      7.4679858000000001
   593   1      2.0241448000000002      8.0698591000000004      7.4489838300000004
   594   1      6.1824289300000004      8.0893515499999999      7.3806284700000004
   595   1              10.1302433      8.1871722400000007      7.5525359600000002
   596   1             14.31606041      8.2359295800000005      7.5347781700000001
   597   1      18.413006299999999      8.2468257400000002      7.4626563800000003
   598   1      22.380318219999999      8.2546563899999992      7.4653207999999998
   599   1      26.340896239999999      8.1150759499999996      7.7051983899999996
   600   1      30.531794269999999      8.1729358300000001      7.3672132000000001
   601   1    0.070856169999999996             11.63458748      7.3648500600000002
   602   1      4.0011507599999998             11.74920227      7.2714529800000003
   603   1      8.0565417499999992      11.563368199999999      7.5475354699999997
   604   1      12.142855580000001      11.572938819999999              7.65785713
   605   1      16.275913859999999             11.67567955      7.3409281499999999
   606   1      20.364924309999999              11.8362283      7.5240559600000001
   607   1             24.40689532             11.79285447      7.5734870599999997
   608   1      28.478323920000001             11.62116675      7.4258601999999998
   609   1      2.0363618300000002      15.144151709999999      7.5324630900000002
   610   1              6.07516415      15.195857889999999      7.4758739199999997
   611   1             10.17262023      15.143637200000001      7.4481593000000004
   612   1             14.10078446             15.28698516      7.5213913699999999
   613   1      18.295260410000001             15.16839377      7.4827064700000001
   614   1             22.33110885      15.267395580000001      7.4455668399999997
   615   1      26.388945570000001              15.3335159      7.6872275200000004
   616   1      30.397607820000001             15.12707715      7.5258934999999996
   617   1   -0.059432939999999997      18.710857149999999              7.57330959
   618   1      4.0691531200000002             18.64331911      7.4942153899999999
   619   1      8.1796959600000001      18.633277589999999      7.4440014999999997
   620   1             12.13432413             18.67467838              7.49355496
   621   1              16.1820974      18.756944270000002      7.3834585800000001
   622   1      20.259017310000001             18.66780533              7.57706313
   623   1      24.362170840000001      18.837666389999999      7.5911241599999997
   624   1      28.374448260000001      18.767159660000001      7.5964660400000001
   625   1              1.99691223      22.227031830000001      7.5468237499999997
   626   1      6.0443738600000003      22.167037990000001      7.3637351500000001
   627   1      10.206211590000001      22.135457500000001      7.5719228899999997
   628   1      14.178989319999999             22.10849524      7.6008373799999998
   629   1             18.27335489      22.313739949999999      7.5326586000000004
   630   1      22.326843920000002      22.296542550000002      7.4492675500000001
   631   1             26.45193446      22.055735110000001      7.4444421199999997
   632   1      30.521563090000001      22.127260119999999              7.54129469
   633   1              -1.022e-05             25.71420161              7.45048815
   634   1      4.0946244500000004      25.747406309999999      7.5119774699999997
   635   1      8.1260740299999998      25.726430990000001      7.4339331700000004
   636   1      12.172526619999999             25.64460699      7.5220360199999998
   637   1      16.313030980000001             25.75353144      7.4696055699999997
   638   1      20.415725370000001      25.771032430000002      7.6361900399999998
   639   1      24.319044999999999             25.65745935      7.5700498100000004
   640   1      28.385914469999999      25.626127719999999      7.5027700099999999
   641   1             32.47082752              2.29828995      8.1593647300000001
   642   1              3.94616246      2.3338634800000002      8.3832600300000006
   643   1      7.9638330599999998      2.3254401499999999      8.1826423899999998
   644   1             12.05706125      2.2102606499999999      8.2187916899999998
   645   1      16.191393439999999      2.3087223200000002      8.0509899199999992
   646   1              20.3012938      2.3366798900000001      8.1033993399999993
   647   1             24.40844177      2.3877777999999998      8.1295260200000001
   648   1      28.561341049999999      2.3339622599999998      8.0876252999999991
   649   1      2.0560341700000002      5.7750251600000002      8.2414344100000001
   650   1      6.0506581300000004              5.85098026      8.3233995800000002
   651   1             10.18562741      5.7754492300000004      8.0838072299999997
   652   1             14.13178675      5.9514065699999996      8.3060809800000008
   653   1      18.359905080000001      5.9153222999999997      8.1807393899999994
   654   1      22.261069209999999      5.8109859799999999      8.0789424299999997
   655   1      26.516266399999999      5.6985036400000002      8.2656176699999993
   656   1      30.417023709999999              5.94046729      8.2352800500000001
   657   1      32.626924189999997      9.3368823699999997      8.1637713499999993
   658   1      4.0726321399999996      9.2685691600000002      7.8912673599999996
   659   1              8.10341779      9.2041368800000001      8.2253422500000006
   660   1      12.169779950000001      9.3539400700000002      8.4091827699999993
   661   1      16.298705049999999              9.25975371      8.1817560999999994
   662   1      20.412841199999999      9.5040353399999997      8.2292612500000004
   663   1      24.403874269999999      9.4033783300000007      8.2325661599999993
   664   1                28.37058              9.30312144      8.1931370900000005
   665   1      2.0691071700000001      12.812762040000001      8.1488545999999999
   666   1      6.1298740299999999             12.90785793      8.1520758699999991
   667   1             10.05339567      12.801286579999999      8.2592837100000001
   668   1             14.06345979             12.87989305      8.0679277099999993
   669   1      18.303604799999999      12.878791720000001      8.0544025300000008
   670   1      22.348239110000002             13.03201174      8.2413407500000009
   671   1      26.344305869999999             12.86095394      8.1982373099999997
   672   1      30.430116250000001             12.86174669      8.1572140199999996
   673   1             32.55698297      16.424422669999998      8.1292845600000003
   674   1      4.0805606399999999      16.204611400000001              8.27451604
   675   1      8.1137065699999997             16.33208514      8.1325305399999994
   676   1             12.12692156      16.386577760000002      8.2283757699999995
   677   1      16.316804869999999      16.265317159999999      8.2833309800000006
   678   1      20.340077539999999      16.318694430000001      8.1064994400000003
   679   1      24.304143360000001      16.413349849999999      8.1426362000000001
   680   1      28.377123780000002      16.426615630000001      8.0845455899999994
   681   1      2.0688781399999998             19.86519521      8.3954927300000008
   682   1      6.1158352000000002      19.807365990000001      8.0499060799999995
   683   1             10.15117772             19.84036188      8.2095983100000005
   684   1      14.146669429999999              19.7717016      8.1710187399999992
   685   1      18.212347869999999      19.834072160000002      8.1771002399999997
   686   1      22.380272489999999      19.966911629999998      8.1307122199999995
   687   1             26.45635248      19.836823800000001      8.1567706199999996
   688   1      30.419648590000001             19.81214563      8.2303594699999998
   689   1      32.553328030000003      23.490287599999998      8.2839636599999995
   690   1      4.0780431999999998      23.324416729999999      8.3077974300000008
   691   1      8.1589781600000002      23.389091260000001      8.0091251900000007
   692   1             12.19198577      23.429775280000001      8.3607003300000002
   693   1             16.21513281      23.365066509999998      8.2824198199999994
   694   1             20.30649665             23.46394866      8.0966603399999997
   695   1      24.467445600000001              23.3439516      8.1815831299999999
   696   1      28.445553910000001      23.152664080000001      8.2029345500000002
   697   1      2.0198287599999998      27.001157880000001      8.0678653600000008
   698   1      6.0781031299999997      26.930296930000001      8.1514705500000009
   699   1             10.14075079      26.865734239999998      8.1598427000000004
   700   1             14.13282386             26.91475539      8.1434439600000008
   701   1             18.24110035      26.816900400000002      8.2731008300000006
   702   1      22.461351929999999      26.941192910000002      8.2750919100000004
   703   1             26.55147071             26.75508907      8.2420903699999997
   704   1      30.521134579999998             26.80429728      8.0055907099999999
   705   1      32.517561870000002             27.95863224      8.8302962699999998
   706   1              4.03797826             -0.16672866      8.9331969499999992
   707   1      8.0548513899999996      27.901035069999999      8.9727701799999995
   708   1             12.32773414   -0.072663679999999994      9.1414193800000003
   709   1      16.194059759999998      28.109405120000002      8.9395707699999996
   710   1      20.265888350000001      28.058783510000001      8.7720678799999998
   711   1      24.542512640000002      28.094828249999999              8.96292796
   712   1             28.36736655             -0.16967029      8.9645445400000003
   713   1      2.0076006999999998              3.49785295      8.9600954300000009
   714   1      5.9078089299999998              3.54828527      9.0474444900000002
   715   1             10.14922825      3.4004964200000001      8.7966628500000006
   716   1      14.204852089999999      3.4524062600000001      8.7518067399999993
   717   1      18.156934110000002              3.30957459      8.7859449000000005
   718   1      22.310328569999999      3.4891645100000002      8.9295803899999999
   719   1      26.499783529999998      3.4388014299999998      8.9225680799999996
   720   1      30.333730549999999      3.6740140000000001      8.9812086900000008
   721   1      32.654518320000001      7.0058857100000003      9.0324593499999999
   722   1      4.0829270700000002      7.0254557599999998      8.9165309799999992
   723   1      8.1452038200000008               6.7156962      8.9196165799999996
   724   1             11.99485606      7.0893770600000003      9.0665767800000001
   725   1             16.40174485      6.8842446300000004      9.0002802400000004
   726   1      20.490654060000001      7.0552085099999999      8.9175277299999998
   727   1      24.385808130000001              6.90578191      9.0073320999999993
   728   1             28.35775589      7.1003205200000004      9.0751269499999996
   729   1              2.31080379      10.547432049999999      8.8434704199999992
   730   1      5.9782528800000003      10.452009179999999      8.9143041499999995
   731   1             10.02971533             10.34868799      9.0974586800000008
   732   1      14.270438649999999             10.53930076      8.9394025999999993
   733   1      18.241872699999998      10.600708279999999      9.1007847099999992
   734   1      22.423794139999998      10.707068570000001              9.04767528
   735   1             26.44583398      10.588132829999999      9.0273514200000005
   736   1      30.441594139999999      10.318644129999999      8.9016753200000007
   737   1      32.533188619999997              14.0261534      8.8770052699999997
   738   1      4.1329389000000001      13.683167709999999      9.0443946200000003
   739   1      8.1660495399999995      14.059571439999999      9.0437576499999999
   740   1      12.028635019999999             14.05373116      8.9333232799999998
   741   1              16.3800059             13.85883158      9.0896375099999993
   742   1      20.271468479999999             14.07857924      8.9588561500000008
   743   1             24.29137308      14.081687840000001      9.0387955699999996
   744   1      28.467307949999999             14.16083132      8.9611238699999998
   745   1      2.0667611699999999             17.40495885      8.8931825399999997
   746   1      6.0410260300000003             17.47579915      9.0448966500000001
   747   1      10.200814490000001      17.575897779999998      9.1612031999999992
   748   1             14.38891888             17.39869139      9.0342833000000002
   749   1      18.350299849999999      17.555698809999999      8.9737728699999995
   750   1      22.394640469999999             17.68382192      9.0169588800000007
   751   1             26.32671607      17.702463460000001      9.0448110400000008
   752   1      30.367657260000001             17.46064234               8.9121188
   753   1  0.00038986000000000001      21.016811830000002      8.7979434699999999
   754   1      4.1091165600000004      21.033340710000001      9.0164120800000003
   755   1      8.1119648299999998             20.95299365      8.8861286199999991
   756   1      12.195573380000001      21.084945470000001      8.9487266999999999
   757   1      16.163199240000001             20.97963476      9.0307816800000005
   758   1      20.291095070000001      21.120930749999999      9.0590855599999998
   759   1      24.378904510000002      20.918839250000001              8.95232575
   760   1      28.342320350000001             20.81583972      9.1519584700000003
   761   1      2.1820634499999998      24.660613850000001      8.9776544699999992
   762   1      5.8519836400000003             24.64367537      8.8917805899999998
   763   1      10.075368810000001      24.695702099999998      8.9433571500000006
   764   1             14.28954665      24.515519130000001      8.9992244299999999
   765   1      18.275739420000001      24.553289970000002      8.9713213599999992
   766   1      22.540976839999999      24.619331209999999      8.9284911200000003
   767   1      26.588597020000002      24.372994429999999      9.0676474999999996
   768   1      30.344162520000001             24.56577368      8.9070290199999995
   769   2      15.444646069999999      12.171598749999999              9.09600571
   770   2             16.24795868             10.65270986      9.2842135599999995
