N2-dn2-coord-10bar/700K/snapshots/frame-97110/run-000/../data.lammps (written by ASE) 

770 	 atoms 
2  atom types
0.0      32.470343392086264  xlo xhi
0.0      28.120142247150884  ylo yhi
0.0      31.213473999158239  zlo zhi


Atoms 

     1   1      2.0293964600000001      1.1716090800000001    0.023552650000000001
     2   1      6.0880008999999999              1.17168918              0.02556874
     3   1      10.146952280000001              1.17170328    0.025416459999999998
     4   1      14.205754900000001      1.1716496700000001              0.02501565
     5   1             18.26456816              1.17166478              0.02504435
     6   1             22.32338141      1.1716496700000001              0.02501565
     7   1      26.382184030000001              1.17170328    0.025416459999999998
     8   1      30.441135410000001              1.17168918              0.02556874
     9   1  9.1780000000000006e-05      4.6866847900000002    0.025581599999999999
    10   1      4.0587011400000002      4.6866847900000002    0.025581599999999999
    11   1      8.1174961000000003      4.6866290399999997    0.025584639999999999
    12   1             12.17638011      4.6866852999999997              0.02491202
    13   1             16.23517979      4.6866942700000003    0.025006210000000001
    14   1      20.293956519999998      4.6866942700000003    0.025006210000000001
    15   1      24.352756209999999      4.6866852999999997              0.02491202
    16   1      28.411640219999999      4.6866290399999997    0.025584639999999999
    17   1      2.0293964600000001      8.2016395800000002    0.026613040000000001
    18   1      6.0881071599999999      8.2016314300000008              0.02543782
    19   1             10.14701835               8.2017045    0.025156850000000001
    20   1      14.205766049999999      8.2017080900000003    0.024990459999999999
    21   1             18.26456816      8.2017077599999997    0.025091249999999999
    22   1      22.323370260000001      8.2017080900000003    0.024990459999999999
    23   1      26.382117969999999               8.2017045    0.025156850000000001
    24   1      30.441029149999999      8.2016314300000008              0.02543782
    25   1  9.2789999999999998e-05             11.71671873    0.025573410000000001
    26   1              4.05870014             11.71671873    0.025573410000000001
    27   1      8.1176017700000003             11.71668698              0.02497914
    28   1             12.17637068             11.71673069    0.025001590000000001
    29   1      16.235177310000001      11.716730249999999    0.025074039999999999
    30   1      20.293959009999998      11.716730249999999    0.025074039999999999
    31   1      24.352765640000001             11.71673069    0.025001590000000001
    32   1      28.411534549999999             11.71668698              0.02497914
    33   1      2.0293964600000001             15.23167155              0.02525285
    34   1      6.0881728300000004      15.231678799999999    0.025062859999999999
    35   1             10.14698486      15.231762639999999               0.0250786
    36   1             14.20578841             15.23176782    0.025201990000000001
    37   1             18.26456816              15.2317707    0.025149979999999999
    38   1      22.323347900000002             15.23176782    0.025201990000000001
    39   1      26.382151459999999      15.231762639999999               0.0250786
    40   1      30.440963480000001      15.231678799999999    0.025062859999999999
    41   1      32.470327990000001      18.746748629999999    0.024951939999999999
    42   1      4.0588083299999997      18.746748629999999    0.024951939999999999
    43   1      8.1175770200000006      18.746803499999999    0.025222040000000001
    44   1             12.17637459      18.746799750000001    0.025428470000000002
    45   1      16.235159400000001      18.746805200000001    0.025487360000000001
    46   1      20.293976919999999      18.746805200000001    0.025487360000000001
    47   1      24.352761730000001      18.746799750000001    0.025428470000000002
    48   1             28.41155929      18.746803499999999    0.025222040000000001
    49   1      2.0293964600000001      22.261939099999999    0.025844880000000001
    50   1      6.0881419299999999      22.261841799999999    0.025489439999999999
    51   1             10.14692954             22.26176895              0.02551757
    52   1             14.20573559      22.261804690000002    0.025639160000000001
    53   1             18.26456816             22.26178625    0.025640119999999999
    54   1      22.323400729999999      22.261804690000002    0.025639160000000001
    55   1      26.382206780000001             22.26176895              0.02551757
    56   1             30.44099439      22.261841799999999    0.025489439999999999
    57   1  5.6450000000000003e-05      25.776936450000001              0.02613327
    58   1      4.0587364700000004      25.776936450000001              0.02613327
    59   1      8.1175325399999991              25.7767713    0.024734180000000001
    60   1      12.176376469999999      25.776831090000002              0.02545323
    61   1      16.235145939999999      25.776775220000001    0.025273360000000002
    62   1             20.29399038      25.776775220000001    0.025273360000000002
    63   1      24.352759840000001      25.776831090000002              0.02545323
    64   1      28.411603769999999              25.7767713    0.024734180000000001
    65   1  0.00024266000000000001              2.34304215     0.80166565000000001
    66   1      4.0585502699999996              2.34304215     0.80166565000000001
    67   1      8.1157394600000003              2.34454954     0.80169402000000001
    68   1             12.17601256      2.3433829099999999     0.80116898000000003
    69   1      16.235258170000002      2.3433209100000001     0.80090046999999998
    70   1      20.293878150000001      2.3433209100000001     0.80090046999999998
    71   1      24.353123750000002      2.3433829099999999     0.80116898000000003
    72   1      28.413396859999999              2.34454954     0.80169402000000001
    73   1      2.0293964600000001      5.8582218700000004     0.80119762000000005
    74   1      6.0870566899999998      5.8583336700000004              0.80194851
    75   1             10.14649655              5.85853131     0.80121584000000001
    76   1             14.20597894      5.8582938599999999     0.80086840999999998
    77   1             18.26456816      5.8583798500000004               0.8010794
    78   1      22.323157380000001      5.8582938599999999     0.80086840999999998
    79   1             26.38263976              5.85853131     0.80121584000000001
    80   1      30.442079629999999      5.8583336700000004              0.80194851
    81   1  0.00019438999999999999      9.3717771800000005     0.80082061000000004
    82   1      4.0585985400000002      9.3717771800000005     0.80082061000000004
    83   1      8.1175070500000004      9.3725002699999997     0.80149060999999999
    84   1      12.176590020000001      9.3733583399999993     0.80088261999999999
    85   1             16.23512199      9.3733789200000004              0.80106506
    86   1             20.29401433      9.3733789200000004              0.80106506
    87   1      24.352546289999999      9.3733583399999993     0.80088261999999999
    88   1      28.411629269999999      9.3725002699999997     0.80149060999999999
    89   1      2.0293964600000001             12.88692854     0.80220621000000003
    90   1      6.0883212999999996             12.88743848     0.80138414999999996
    91   1      10.147128609999999             12.88859852     0.80085256000000005
    92   1             14.20571782      12.888558189999999     0.80113791000000001
    93   1             18.26456816      12.888409899999999     0.80109381000000002
    94   1      22.323418490000002      12.888558189999999     0.80113791000000001
    95   1             26.38200771             12.88859852     0.80085256000000005
    96   1      30.440815019999999             12.88743848     0.80138414999999996
    97   1              0.00012365      16.403222639999999     0.80145666999999998
    98   1      4.0586692700000002      16.403222639999999     0.80145666999999998
    99   1      8.1174337899999998      16.403825260000001     0.80097196999999998
   100   1              12.1761021             16.40390721     0.80133072000000005
   101   1             16.23503496      16.403861750000001     0.80140014999999998
   102   1      20.294101359999999      16.403861750000001     0.80140014999999998
   103   1      24.353034220000001             16.40390721     0.80133072000000005
   104   1      28.411702529999999      16.403825260000001     0.80097196999999998
   105   1      2.0293964600000001      19.919205120000001     0.80066369999999998
   106   1              6.08752564             19.91894023     0.80122479000000002
   107   1      10.146078839999999             19.91919038     0.80159137999999996
   108   1      14.204993419999999              19.9192584     0.80178742000000003
   109   1             18.26456816      19.919377350000001     0.80194975999999996
   110   1      22.324142899999998              19.9192584     0.80178742000000003
   111   1      26.383057470000001             19.91919038     0.80159137999999996
   112   1      30.441610669999999             19.91894023     0.80122479000000002
   113   1              0.00142012      23.434536609999999     0.80178442000000005
   114   1      4.0573728100000004      23.434536609999999     0.80178442000000005
   115   1      8.1165862000000004      23.433936769999999     0.80182306000000003
   116   1             12.17555218      23.433996919999998     0.80156656000000004
   117   1             16.23465491      23.434040110000002     0.80170828999999999
   118   1      20.294481409999999      23.434040110000002     0.80170828999999999
   119   1      24.353584130000002      23.433996919999998     0.80156656000000004
   120   1      28.412550110000002      23.433936769999999     0.80182306000000003
   121   1      2.0293964600000001      26.949875330000001              0.80297246
   122   1      6.0858208300000003      26.950066320000001              0.80215291
   123   1             10.14598146      26.949241430000001     0.80165810000000004
   124   1             14.20520604      26.948673230000001     0.80131923999999999
   125   1             18.26456816             26.94858318     0.80108193999999999
   126   1      22.323930279999999      26.948673230000001     0.80131923999999999
   127   1      26.383154860000001      26.949241430000001     0.80165810000000004
   128   1             30.44331549      26.950066320000001              0.80215291
   129   1    0.043646999999999998      28.048286010000002              1.40930618
   130   1      3.9296632900000001      28.001416620000001      1.4289607799999999
   131   1      8.1476646200000005             27.99562817              1.55357623
   132   1             12.21772795             28.10429624      1.4452147200000001
   133   1      16.292543179999999      28.083747120000002              1.42584851
   134   1      20.376422789999999    0.049667099999999999              1.70139891
   135   1             24.36731314      27.989213889999998      1.5471877300000001
   136   1      28.217133090000001      27.957670159999999      1.4152845700000001
   137   1      2.0859136899999999      3.6536354200000001      1.3175495800000001
   138   1      6.1124472599999997      3.5195752300000001      1.4542471800000001
   139   1             10.25996741      3.5443814200000001      1.6265006200000001
   140   1             14.33599959              3.53484935      1.5109362399999999
   141   1      18.431612869999999      3.5670514799999999              1.44704561
   142   1             22.25819122              3.57418317               1.6242036
   143   1      26.377711300000001      3.5500966200000001      1.4791647000000001
   144   1      30.466902180000002      3.4761259099999999      1.3738956899999999
   145   1             32.32569282      7.0683925199999997      1.5083779100000001
   146   1      3.9716333599999998      6.9065601900000004      1.5213385100000001
   147   1      7.8579242699999998      7.0975436299999997              1.52338138
   148   1      12.207991939999999      6.9690284900000004      1.3976473899999999
   149   1      16.207025569999999               7.1137074      1.5580846500000001
   150   1      20.422202519999999      7.0947571800000002      1.2740185900000001
   151   1      24.338170989999998      6.9647354699999999      1.5118923099999999
   152   1      28.435792559999999      7.0284111899999999      1.6014841500000001
   153   1               2.0108006             10.70860948      1.3116708800000001
   154   1      6.1411628399999998             10.66347247      1.4983773899999999
   155   1      10.055549640000001      10.542723649999999      1.4380984999999999
   156   1      14.216992599999999             10.49386061              1.59538285
   157   1             18.18496888             10.50231488              1.42733606
   158   1              22.2617464             10.46537661              1.52700298
   159   1      26.307642699999999      10.587023889999999              1.30800435
   160   1      30.270425190000001             10.71094652              1.28481019
   161   1      32.398665819999998      14.079943869999999      1.4471481100000001
   162   1              3.99459038             14.10334639      1.3904917699999999
   163   1      8.0012537100000003             14.11515923      1.5307839599999999
   164   1             12.14497497      14.092246100000001      1.2726563099999999
   165   1      16.330155049999998      14.034094169999999              1.77055615
   166   1      20.171041330000001      13.998624769999999      1.3543310500000001
   167   1      24.247927409999999             14.05910536              1.73412042
   168   1      28.383357100000001             14.05097741               1.5104415
   169   1      2.1189189599999998      17.466559490000002      1.5663677499999999
   170   1      6.0002233299999999      17.562335520000001              1.51654022
   171   1             10.38746282             17.60467508      1.4788178300000001
   172   1             14.18445129             17.50227735      1.4237497100000001
   173   1      18.205291389999999      17.575213399999999      1.6301759600000001
   174   1      22.311045669999999      17.721854789999998              1.41520219
   175   1             26.39751892      17.581117729999999      1.6803228299999999
   176   1      30.433093249999999             17.78364693               1.6708459
   177   1              0.01471914      20.979692669999999      1.5169282500000001
   178   1      3.9772852799999998      21.206266790000001               1.4758125
   179   1      8.0359357300000003             21.18706675      1.5799768300000001
   180   1      12.148076570000001      21.014495780000001      1.7212508799999999
   181   1      16.233069990000001      20.987045980000001      1.4029576699999999
   182   1      20.198871029999999      21.166652450000001              1.58475571
   183   1             24.28263222      21.215391969999999      1.4365876900000001
   184   1      28.477675770000001              21.0290505              1.35492378
   185   1              1.96125094      24.692047209999998      1.3416941200000001
   186   1      6.1657544099999999      24.573555339999999      1.6849301299999999
   187   1      10.050810820000001      24.715674700000001      1.6253767299999999
   188   1      14.212466190000001      24.683711809999998              1.40000126
   189   1      18.120340639999998      24.600886450000001      1.6885942599999999
   190   1             22.29531961             24.63248652      1.3635029400000001
   191   1      26.414805260000001             24.71957746      1.6882268300000001
   192   1      30.424481249999999      24.560957930000001              1.59422208
   193   1      2.0244095500000001      1.2849293799999999      2.4106588599999998
   194   1      6.0166267800000002      1.0934597800000001              2.31310306
   195   1      10.245650080000001              1.09106382      2.4693529600000002
   196   1      14.319774860000001      1.1562725899999999      2.4179902000000002
   197   1      18.377363620000001      1.3991386299999999      2.6357126499999999
   198   1      22.304783570000001              1.20932763              2.25314791
   199   1      26.474645500000001              1.16742433              2.47319355
   200   1      30.524028090000002              1.13762162      2.3692983399999998
   201   1    0.058105289999999997      4.7331291000000002      2.3321863999999999
   202   1      4.0496510299999997      4.6822966900000003      2.3641215600000001
   203   1      8.1271486999999993      4.7133716200000002              2.38674491
   204   1             12.20673187      4.7400676700000002              2.45725433
   205   1      16.168548619999999      4.7766881999999997      2.4560392599999998
   206   1      20.285890340000002      4.8912782200000002              2.52903294
   207   1      24.406226960000001              4.57987141      2.4782808699999999
   208   1      28.364161719999998      4.8129170999999999      2.5244743299999999
   209   1              2.00333783      8.3113468099999999      2.2166574899999998
   210   1      5.9946955400000004      8.3494806599999993      2.4077270400000002
   211   1      10.077466940000001      8.0121472699999998              2.41245837
   212   1             14.20973805      8.1219206499999999              2.56764511
   213   1      18.318809229999999      8.2508063200000006      2.3388143100000001
   214   1             22.25027747      8.1859806899999992      2.4097726700000002
   215   1             26.35374019      8.3099054399999996      2.5301867499999999
   216   1      30.232931820000001      8.3101718299999998      2.4103292299999999
   217   1    0.068990099999999999      11.628441159999999      2.3751938799999999
   218   1      4.0873741499999996             11.86871371              2.38458156
   219   1      8.0893012300000002             11.86593757              2.37682379
   220   1             11.98877222             11.61795991      2.5019780200000001
   221   1             16.06134007      11.720928280000001      2.3804966099999998
   222   1      20.218420460000001      11.698106640000001      2.2218806799999999
   223   1      24.379438019999998      11.764241999999999      2.3314769900000001
   224   1             28.27702317      11.794580979999999      2.5592699300000001
   225   1      1.9159310199999999      15.149453299999999      2.3995679600000002
   226   1      5.8958038100000003             15.34620292      2.4332320300000001
   227   1      10.097586789999999             15.12456824      2.4415528800000001
   228   1      14.137184700000001             15.06665638              2.34505228
   229   1      18.219123580000002      15.300272359999999      2.4679881799999999
   230   1      22.247095269999999      15.274261190000001      2.5335099099999998
   231   1      26.443623989999999             15.22115595      2.4179508799999998
   232   1              30.4615954             15.31915856              2.37554299
   233   1    0.043197899999999997      18.624341489999999      2.3835765599999998
   234   1      4.1153108700000001             18.76137817      2.3821807800000001
   235   1      8.0617794800000002      18.681478250000001      2.4794563100000002
   236   1             12.28848458      18.879057150000001      2.4789957299999998
   237   1      16.285655219999999             18.67120482      2.3527926400000001
   238   1      20.211729760000001      18.754036039999999      2.6061736899999999
   239   1      24.259042969999999      18.901099429999999      2.4375844899999999
   240   1      28.397456470000002      18.938001069999999      2.5584886099999999
   241   1      2.0813267099999999      22.239871539999999      2.5039462499999998
   242   1      6.0826103900000001             22.26275102      2.4855170700000002
   243   1      10.188659619999999      22.310893849999999              2.52993903
   244   1             14.05220113      22.088906380000001      2.3123573400000001
   245   1      18.175516210000001      22.256496590000001      2.4180768700000002
   246   1             22.29035923              22.4887646      2.5024896000000001
   247   1      26.330576260000001      22.419096159999999              2.36312816
   248   1      30.335114229999999             22.21389271                2.475673
   249   1    0.055035529999999999      25.713564439999999      2.3999633899999999
   250   1      4.1078112899999999      25.805979010000001              2.40048576
   251   1      8.2028636000000006      25.832267529999999      2.6338885900000002
   252   1      12.242065930000001             25.79677856      2.6163826600000002
   253   1      16.184415900000001      25.775588509999999              2.42247229
   254   1      20.293631770000001              25.8152258              2.41726851
   255   1      24.274437339999999             25.91778979      2.5824288399999999
   256   1               28.494799      25.798506790000001      2.5437003800000002
   257   1    0.033265210000000003      2.3395301000000002      3.1171721400000001
   258   1      4.0909474599999998      2.4491890399999998      3.2187827000000002
   259   1      8.0918194900000007              2.35787535      3.1543315399999998
   260   1             12.30194648      2.3140960800000001      3.3009252299999998
   261   1      16.353722080000001      2.3302054800000001      3.3395218400000002
   262   1      20.166627649999999              2.54344532              3.30358441
   263   1      24.340008600000001      2.2245814799999999      3.3611352999999999
   264   1             28.42870941      2.2463400999999998      3.2855560499999998
   265   1      1.9447403599999999      5.8336014499999997      3.2204014399999998
   266   1      6.0573915600000001      5.9222189700000003              3.17294075
   267   1      10.168328410000001      5.8923356499999997               3.3790342
   268   1             14.25975274      5.9835889699999996      3.2588693800000001
   269   1      18.321271119999999      5.9680157100000004      3.1455835699999999
   270   1             22.32998104      6.0121407500000004      3.4063354000000001
   271   1             26.34797249      6.0324277000000004      3.1868885200000001
   272   1      30.430226359999999      5.9046946699999996      3.3271135699999999
   273   1             32.33659608      9.4562134400000009              3.26342708
   274   1              4.09607601      9.4038486500000005      3.2407924700000001
   275   1      8.0528752800000003      9.4393515099999998      3.2487953200000002
   276   1      12.077981210000001      9.3230114700000009      3.0765042899999999
   277   1      16.253386389999999      9.3193191300000002              3.15838646
   278   1      20.243298240000001      9.4351725599999998      3.2849097999999999
   279   1      24.328639320000001      9.4422321300000007      3.2991152399999999
   280   1      28.382981839999999      9.3726631400000002      3.4656904499999999
   281   1              2.08619639      12.880967099999999      3.2590253900000001
   282   1      5.9936172499999998      12.869035139999999      3.2239483600000001
   283   1      10.054373310000001      12.894376019999999              3.35549191
   284   1             13.99622126             12.94342174      3.1724222700000002
   285   1             18.35543333             12.94299694              3.21085033
   286   1             22.15764476             12.85236042      3.3577930299999998
   287   1             26.36201093             12.90836816      3.2237233600000001
   288   1      30.296879069999999              12.8882879      3.1443411600000002
   289   1      32.418617529999999      16.397468180000001      3.2557188899999998
   290   1              3.85964565      16.386765749999999      3.2175512500000001
   291   1      8.2066948199999992      16.486419170000001      3.3004748300000002
   292   1      12.143880040000001             16.32344123              3.28994857
   293   1      16.057288530000001              16.3211203      3.2389708399999999
   294   1      20.155723819999999      16.455716850000002      3.2090494899999999
   295   1      24.205954729999998              16.5492311      3.1854333499999998
   296   1      28.274176189999999      16.521357850000001              3.42304159
   297   1      1.9433289199999999      19.804121930000001      3.1724967899999998
   298   1      6.0772057999999998      19.874038240000001      3.4124536700000001
   299   1             10.17987158      20.036789550000002              3.38166177
   300   1             14.24796643      20.021569790000001      3.4215352499999998
   301   1      18.124534140000002             19.94494469      3.2436995999999998
   302   1      22.230190270000001      20.059671720000001      3.2598659099999998
   303   1      26.409709849999999             20.10464052      3.3187381600000001
   304   1      30.420976320000001      20.033894119999999      3.2984131400000001
   305   1      32.356620040000003      23.419570740000001              3.24030671
   306   1      4.1062889699999996      23.495628109999998      3.3597416899999999
   307   1      8.0770202599999994      23.424464910000001      3.4399662000000002
   308   1             12.31193092      23.456272179999999      3.2150702099999999
   309   1             16.09188237              23.3493587      3.2207761000000001
   310   1      20.160918479999999             23.42568292              3.14488725
   311   1      24.326538880000001      23.608553870000001              3.33410707
   312   1             28.40134703             23.63666791      3.3818668000000001
   313   1      2.1184478599999998             27.08488414              3.26397855
   314   1              6.05342381      27.025080389999999      3.4094873099999998
   315   1             10.33317431             26.98493148      3.2943718999999998
   316   1             14.13686027      27.143062700000002      3.3967352700000002
   317   1      18.301481290000002             27.06022364      3.3845228700000001
   318   1             22.29613363             27.09318292      3.2736966999999999
   319   1             26.39865155      26.894920079999999      3.2766926199999999
   320   1             30.47758653      26.847873939999999              3.22514375
   321   1    0.096598290000000003      28.063236839999998      4.0054650799999996
   322   1      3.9318725699999999              0.15242786              3.97600029
   323   1      8.0823847900000008             28.06400541      4.0586455399999997
   324   1             12.12367289             27.95489504      4.3256730299999999
   325   1      16.214624529999998      28.063246240000002      4.0901099800000003
   326   1      20.162337820000001              0.11086284      4.1247214000000003
   327   1             24.33115055   -0.016272149999999999      4.1183779999999999
   328   1             28.34800109    0.070896459999999994      3.9378787900000001
   329   1      2.0024021900000002              3.69853437      4.1725320799999999
   330   1      6.2078541600000001      3.5272211499999999      3.9558733699999999
   331   1             10.29280327      3.5014306899999998      4.0251195400000004
   332   1      14.346742020000001      3.6059793199999999      4.0271903499999997
   333   1             18.25081892      3.6080543700000001      4.3984588100000002
   334   1      22.314976120000001      3.6779629699999998      4.1492441800000002
   335   1      26.497145159999999      3.6047040699999999      4.0268761599999996
   336   1      30.379695080000001      3.4481833700000002      4.0490073400000002
   337   1    0.067944660000000004      7.1343688900000002      4.0496619200000001
   338   1      3.9993706599999999      7.0512403900000002      3.9179116399999998
   339   1      8.0016038100000006      6.9141838900000003      3.9449830800000001
   340   1      11.999564230000001      7.2065644000000004              4.21134042
   341   1      16.160179509999999      7.0882619199999999      4.1873270900000001
   342   1      20.329381779999999      7.2306790200000002      4.1727252500000001
   343   1      24.284600050000002      7.0349060999999997      4.2675563600000004
   344   1      28.265706439999999      7.0002763000000003              4.30303667
   345   1      2.1718681499999999             10.56267132              4.07722549
   346   1      6.0623059399999999             10.51356966      4.1607923400000004
   347   1             10.03772871             10.60848756      3.9785707499999998
   348   1      14.234080410000001             10.63835519      4.0116384199999997
   349   1              18.1928421             10.68795312      4.0333867300000001
   350   1             22.24051073             10.62842403      4.0142865199999997
   351   1      26.345830209999999             10.52683687      4.1255812499999998
   352   1      30.322723629999999      10.497423879999999      4.0493845300000002
   353   1      32.358375799999997      14.064716799999999      4.1574876200000004
   354   1      3.9564239699999999             14.02153758      4.0465081500000002
   355   1      7.9720964499999996      13.957894870000001      4.0450202099999997
   356   1      12.061745269999999             13.88145615      4.0389208400000003
   357   1      16.206127899999998             13.97778201      4.2394899500000003
   358   1      20.208617019999998             14.08334047      4.0807509700000004
   359   1      24.209518159999998             14.17243143      4.1405746099999998
   360   1      28.474917470000001             14.13561114      4.0107991099999998
   361   1              1.93422837      17.407396370000001      4.1476944400000004
   362   1      6.2357993199999999             17.47581941      4.1021411099999998
   363   1              10.2711706      17.546501289999998      4.1556420599999999
   364   1      14.036969620000001              17.5534085      4.0331316299999997
   365   1      18.170085100000001      17.663519869999998      4.0703617400000001
   366   1      22.292933210000001             17.67069029      4.0660145700000001
   367   1              26.2689746      17.737713360000001      4.0469438799999997
   368   1              30.3422825      17.736288949999999      4.1305648599999998
   369   1      32.437544160000002      21.063168600000001              4.16918509
   370   1      4.1822949999999999      21.102674839999999      4.1507799700000003
   371   1      8.1106704700000005      21.090029260000001      4.1854726700000002
   372   1             12.09900362      21.112740670000001      4.1010691399999999
   373   1      16.270175460000001             21.01488076      4.1912028899999996
   374   1      20.170569440000001      21.138295930000002      3.9836608199999999
   375   1             24.27742748      21.130307720000001      3.9681817800000001
   376   1      28.249854280000001             21.25060028      4.1557453999999998
   377   1      2.1584058499999998              24.6049252      3.9733476400000001
   378   1      6.0688459200000002      24.620878489999999      4.2928367999999999
   379   1      10.316195710000001      24.612035349999999      4.2251595499999999
   380   1      14.239484149999999             24.54385675              3.91579005
   381   1             18.05793796      24.546547230000002               4.2628556
   382   1             22.20070634              24.7153983      4.1847432700000002
   383   1      26.228416429999999      24.668842690000002              4.21271006
   384   1      30.388085629999999             24.67135343      4.2239978200000001
   385   1              1.99241226              1.13033063      4.9482764699999997
   386   1      5.9602862999999999      1.2321298199999999      4.9143399499999996
   387   1      10.346734489999999              1.09819249      4.8293543400000001
   388   1              14.1650589              1.23328971      4.8647270799999998
   389   1             18.34051608      1.2467608800000001      5.1032405199999999
   390   1      22.094863109999999      1.2775835600000001              4.86338487
   391   1      26.254828929999999      1.1697047700000001      4.8435616100000001
   392   1             30.43678405     0.89777454999999995      4.7223283299999999
   393   1      32.301828950000001      4.6902469499999997      4.8755369000000002
   394   1      3.9553392199999999      4.8225082800000001      4.8814789100000002
   395   1      8.1783112599999992      4.6615260699999999      4.7879377700000001
   396   1             12.24744858      4.6384012700000001      4.9324678200000003
   397   1      16.242843860000001      4.7265542099999998      5.0852978100000001
   398   1             20.39876327              4.86521779      5.2740202500000004
   399   1             24.47243576      4.6998056899999998      5.0894262899999996
   400   1      28.409819469999999      4.7154574399999998      4.9953371500000001
   401   1      2.0036416400000001      8.4109723299999999              4.96997234
   402   1      6.1029612499999999      8.1612793900000007      4.8684418100000002
   403   1             10.08100099      8.2085862200000008      5.1061645899999997
   404   1             14.14041115              8.29751102      4.9661657100000003
   405   1      18.083025450000001      8.1324455899999997      4.8008823200000004
   406   1      22.380535569999999      8.3280016099999994      5.0124530500000004
   407   1             26.16787845      8.3622138899999996              5.11118133
   408   1             30.38332235      8.3260214500000007      4.9821589399999997
   409   1              0.17120124      11.932833029999999              4.99066089
   410   1      4.1367590300000003             11.81866769              4.99942362
   411   1      8.1100731899999996             11.71400356      4.9145429199999997
   412   1      12.188468589999999             11.75070073      5.0146126000000004
   413   1      16.075033879999999             11.77519865      5.0614774200000001
   414   1      20.339032719999999             11.69408995      5.0294288700000003
   415   1      24.323018139999999             11.76620818              4.94177292
   416   1      28.328079970000001             11.86729895      4.6956404899999997
   417   1      2.0585045399999999             14.97454104              4.99628929
   418   1      6.0142420300000001             15.23294697      4.9001579700000004
   419   1      10.336241449999999      15.228882219999999      4.9607352000000002
   420   1             14.14415724             15.22957465              4.75372752
   421   1      18.168117599999999      15.247411899999999      4.9199304000000001
   422   1             22.18641276      15.402530499999999      4.9155583500000004
   423   1      26.415961429999999      15.221881890000001      5.0428695499999998
   424   1      30.325557310000001             15.37660823              4.89491824
   425   1      32.332202819999999      18.695849719999998      5.0001930799999998
   426   1      4.0500769999999999      18.822831520000001      4.8892219800000003
   427   1      8.1809591899999994      18.809941999999999      4.9354045500000003
   428   1      12.207691369999999             18.79789345      4.9842597099999999
   429   1      16.025392109999999             18.77928228      4.7907379900000002
   430   1      20.257520589999999      18.815424490000002      4.8619917600000004
   431   1      24.336670389999998      18.934287179999998      4.9823471699999997
   432   1      28.422131199999999      18.885366090000002      5.0844631299999996
   433   1      2.0519100899999998      22.192381449999999      4.8630193100000003
   434   1      6.0464448800000001      22.224466410000002      4.9403557899999999
   435   1              10.1948775      22.329990989999999      5.0766917200000004
   436   1      14.237063429999999      22.259106490000001      4.9781649799999999
   437   1      18.186952999999999             22.31886175      5.0224417399999997
   438   1      22.102081179999999             22.28608994      5.0700866299999996
   439   1             26.16964025             22.29872181      4.7397588500000003
   440   1             30.24028792              22.2626986      4.9359675100000002
   441   1    0.085485350000000002      25.843540749999999      4.9804666400000004
   442   1      4.2177351500000002             25.77634488              5.21828117
   443   1      8.1103508499999997      25.843950020000001      5.0493427100000003
   444   1      12.292704820000001      25.751897280000001      4.9440924700000002
   445   1             16.11013535      25.604753469999999      4.9801657500000003
   446   1      20.214082600000001             25.65395951      5.0416297099999996
   447   1      24.192604719999999             25.76559387      5.0053336599999998
   448   1      28.439042990000001      25.875964880000002      5.0585885900000003
   449   1      32.404958229999998              2.50562569              5.74621213
   450   1      3.9110867300000001              2.44738356      5.7826618400000003
   451   1      8.2096506700000003      2.3285179999999999      5.4961359500000002
   452   1      12.249286440000001      2.2989272000000001              5.88037923
   453   1      16.318123320000002      2.2502651899999999      5.8095120500000004
   454   1      20.174220559999998      2.4003049500000002      5.8069421600000002
   455   1      24.191210300000002      2.3149790700000001      6.0536431999999998
   456   1      28.496575679999999      2.4597345900000001      5.7351054499999998
   457   1      1.7189229399999999      6.0152521300000004      5.8037984199999997
   458   1      6.0385976399999999              5.69218476      5.5959850199999996
   459   1      10.265771600000001      5.6532879899999999      5.7777086600000001
   460   1             14.15957255      5.9112323199999999      5.6810479899999997
   461   1      18.284226889999999      5.8700099000000003              5.93758842
   462   1              22.5142083      5.9705103299999998      6.0004284099999996
   463   1      26.336620880000002      6.0667614700000003      5.6640869299999999
   464   1      30.284700789999999              6.04797444      5.8310431100000004
   465   1    0.063128900000000002              9.45483063      5.7507008300000004
   466   1      3.9406451499999999      9.3443595399999992      5.7539472099999998
   467   1      8.2416607600000003      9.4054480199999997      5.8783175700000001
   468   1      12.020993969999999      9.3884843199999999      5.7715660099999999
   469   1      16.139210070000001              9.49515815      5.7139717299999999
   470   1      20.229124349999999                9.456372      5.7072761099999996
   471   1             24.28823946      9.4627159299999999              5.82925089
   472   1      28.370631759999998      9.5060265800000003              5.93996222
   473   1      2.1595751399999998             12.81006928      5.7914785000000002
   474   1      6.0746855100000001             12.74508337      5.6869935199999997
   475   1      10.207671850000001             12.83363808      5.8608675699999999
   476   1             14.15925904      12.907918799999999      5.6889306499999996
   477   1      18.092669000000001             13.10759028              5.84688316
   478   1      22.202107250000001             13.02723363      5.7228479999999999
   479   1      26.314885459999999             12.79531809      6.2371984400000002
   480   1      30.645825899999998             12.90327014      5.7336066800000003
   481   1      32.454541710000001             16.47951737      5.8562514099999996
   482   1      4.1881921699999998      16.278922829999999      5.9515979400000001
   483   1              7.97431511      16.480245979999999      5.6453838999999997
   484   1      12.220876049999999      16.318588479999999              5.76797761
   485   1             16.04560816      16.394946730000001      5.7786749400000001
   486   1      20.422162310000001              16.5553594      5.6809203500000001
   487   1             24.40398536      16.449625940000001      5.7291172599999998
   488   1             28.47175949      16.440708839999999      5.9585042699999997
   489   1      1.9389112399999999      19.924826230000001              5.70038775
   490   1      5.9768504099999999      19.986985189999999      5.7945775299999998
   491   1      10.112443349999999      19.986756870000001               5.8596911
   492   1      14.175774880000001      19.902879120000001              5.84513981
   493   1             18.11396427      19.815913179999999      5.8107300300000002
   494   1             22.28615546              19.7908537      5.7368901599999997
   495   1      26.221408530000001      20.191273559999999      5.6511603399999997
   496   1             30.34899923      19.801106059999999      5.7824194499999999
   497   1             32.29559261      23.335721499999998      5.7523346799999997
   498   1      4.1498554600000004      23.551351360000002      5.9367954799999998
   499   1      8.0300927099999999      23.559884230000002      5.6797745500000003
   500   1             12.22840946      23.338874619999999      5.8271150499999997
   501   1      16.135600490000002      23.308723239999999              5.89847622
   502   1      20.121369080000001      23.365594179999999              6.08964018
   503   1      24.197314250000002      23.496461579999998      5.7719430799999998
   504   1      28.340921479999999      23.322706790000002      5.8286584699999997
   505   1              1.99864032             27.03349429      5.6795883399999996
   506   1      6.0292963300000002      26.994726270000001      5.7104921199999996
   507   1      10.234752350000001             27.12323915      5.8386071900000003
   508   1      14.156010180000001      27.042494510000001      5.8426120299999997
   509   1             18.23963097      26.816644929999999      5.7466384000000001
   510   1             22.21346205             26.84346171      5.6853367500000003
   511   1      26.346638779999999      27.081579420000001      5.7633555699999999
   512   1             30.53679108      27.004235850000001      5.8840313200000001
   513   1      32.433192820000002    0.088903460000000004      6.5937533500000001
   514   1              3.87952465             28.11239162      6.6768659899999996
   515   1      8.0319852899999997      28.045324010000002      6.5922924399999996
   516   1      12.200197080000001      28.016329429999999      6.9515140799999999
   517   1      16.408836520000001              0.10358054      6.7238616100000002
   518   1             20.10506561    0.031577180000000003      6.6095642799999998
   519   1      24.197050900000001              0.10953718      6.5366986200000001
   520   1      28.340143189999999              0.11175854      6.6609100799999998
   521   1      1.8779662100000001      3.6109845699999998      6.5550011899999996
   522   1              5.94434226      3.3865747399999999      6.3943802300000003
   523   1             10.12771139      3.4159025500000002      6.5776344399999997
   524   1      14.311096279999999      3.5354931600000001      6.5556372100000004
   525   1      18.279404079999999      3.5947123300000001      6.7762353600000003
   526   1              22.3207682      3.6016347799999999      7.0864758300000004
   527   1             26.21575107      3.5058719200000001      6.5752872499999997
   528   1             30.31500226      3.6010182300000002      6.5368361500000001
   529   1             32.35795272      7.2708703999999997      6.6725449399999999
   530   1      3.9150358199999999      7.0530286599999998              6.47582082
   531   1      8.1089922300000001      6.8938681700000002      6.7600333600000004
   532   1             12.24005657      6.9930467399999996      6.7532222600000003
   533   1      16.271301529999999      7.1188548699999998      6.7271741399999998
   534   1             20.42731182      7.1819039699999996      6.7889430800000001
   535   1             24.54467387      6.9719079700000002              6.80271034
   536   1      28.251997370000002      7.2618251999999996      6.7859051800000003
   537   1              2.14855011             10.58720235      6.5470369100000001
   538   1      6.0622399400000004      10.449152359999999              6.55695739
   539   1             10.12434586      10.456359300000001      6.6082836900000004
   540   1      13.993030770000001             10.63144557      6.5765212599999998
   541   1      18.102157689999999             10.66013892      6.6153525399999999
   542   1      22.249282050000001      10.319307439999999      6.7545815200000003
   543   1             26.24290659      10.390608739999999      6.6847319699999996
   544   1      30.641942579999998             10.61271371      6.7066023000000001
   545   1     0.27870742999999998             14.13533855      6.6459562099999996
   546   1      4.0723894300000003      13.964245099999999      6.6296655099999997
   547   1      8.0792055999999999      14.044387950000001      6.4316716700000001
   548   1      12.190286759999999      14.059030180000001      6.7361220299999998
   549   1             16.06376173             14.14721509               6.6348525
   550   1      20.283366610000002             14.18336916      6.6465194500000004
   551   1      24.156292310000001      14.104815929999999      6.5814428899999999
   552   1      28.566586749999999      14.058792840000001      6.7034878400000002
   553   1              2.09411616             17.72741924      6.4970737400000003
   554   1      6.0077429699999998      17.454832379999999      6.9013625100000002
   555   1             10.15255163             17.49904519      6.9693322000000002
   556   1      14.101358810000001             17.59339039      6.6371376800000004
   557   1      18.036027140000002      17.448198349999998      6.6593776099999999
   558   1      22.416374090000001             17.46620347      6.6921982399999997
   559   1      26.449870489999999             17.77694516      6.4992418599999997
   560   1      30.423055860000002             17.46960219      6.7688704399999997
   561   1      32.431448439999997      21.165000389999999      6.5631849000000004
   562   1      4.1025459299999998             21.22955086      6.5779493200000001
   563   1      8.0870507800000002      21.245716059999999      6.6475327899999996
   564   1             12.37642091             21.03166409              6.61780933
   565   1      16.171377100000001      21.062721589999999      6.6191665899999999
   566   1      20.120965349999999      21.055006930000001      6.4902546699999997
   567   1      24.162433629999999      21.200292319999999      6.7891433799999996
   568   1      28.498611700000001      20.930278950000002                6.704205
   569   1      2.0631111999999998      24.530255669999999              6.46656678
   570   1      5.9194944100000004             24.57977765      6.8713841699999998
   571   1      10.173381259999999      24.483893800000001      6.7984684900000003
   572   1      14.187394830000001      24.482034030000001      6.7193381900000002
   573   1      18.016044220000001      24.484052689999999      6.7938838700000002
   574   1      22.387766030000002             24.68801436      6.6545174100000004
   575   1      26.139586000000001      24.685858939999999      6.7246057700000001
   576   1      30.411838370000002      24.652958659999999              6.70239151
   577   1              1.83228496              1.24824537      7.5652261599999999
   578   1      6.1287694699999999     0.98745061000000001              7.59277728
   579   1             10.05862265              1.03670288      7.4046099300000003
   580   1             14.15655273      1.2509048300000001              7.54198608
   581   1      18.315810110000001              1.08642444      7.6343269500000002
   582   1      22.124223319999999              1.26820939      7.4633403200000004
   583   1      26.259437120000001      1.2792671900000001      7.4057536099999997
   584   1      30.400538350000001      1.3185906999999999      7.4752123599999996
   585   1      32.382652210000003      4.9881698400000003      7.4794116700000002
   586   1      4.0889561399999996      4.6269382300000004      7.3357785299999998
   587   1      8.1436091899999994      4.4976559500000004      7.5308541099999999
   588   1             12.05292122      4.5017498800000002                7.409796
   589   1      16.226028079999999              4.68308854      7.7106206000000004
   590   1      20.290010580000001      4.9157256599999997      7.6922180500000001
   591   1             24.43353939      4.7011871300000001      7.6532489300000002
   592   1      28.341609630000001      4.7089697299999997              7.58604594
   593   1              2.04920525      8.3328890399999995      7.4482709299999996
   594   1      6.0147443899999997      8.1935368000000004      7.3932047699999996
   595   1             10.08703551      8.3011254700000006      7.5822470900000001
   596   1      14.247880459999999      8.2819372399999995      7.3413270300000004
   597   1             18.20539522      8.2343110799999994      7.5970658499999999
   598   1      22.314457350000001      8.1862971499999997      7.5537876600000002
   599   1      26.355972019999999      8.4067202699999992      7.7249518999999998
   600   1      30.325624959999999      8.2423911499999996      7.8749897200000003
   601   1              0.12799558      11.775725359999999      7.4462667600000003
   602   1      4.1236326999999999      11.575692330000001      7.6443936600000004
   603   1      8.2362354500000006             11.76481233      7.5784878000000004
   604   1      12.061375419999999             11.69506625      7.5534274799999999
   605   1      20.396306079999999      9.4429868799999994      8.2715978499999991
   606   1      20.197716109999998      11.688336169999999      7.4165157900000001
   607   1             24.28626337             11.81172941              7.46001827
   608   1              28.5405658      7.2739305099999996      9.4715757099999998
   609   1      2.3566969900000001      15.225852489999999      7.6197579099999997
   610   1      6.0790510900000001             15.06547932      7.5622610999999997
   611   1             10.09505034      15.050907309999999      7.3857812200000001
   612   1             14.18633371      15.304399370000001      7.4439035799999997
   613   1      18.129768049999999              15.2375363      7.2996864500000003
   614   1             22.25699736             15.14493946      7.5721947500000004
   615   1              26.3419259             15.30741675      7.3583052000000002
   616   1      30.543094979999999             15.18507866      7.4744678200000001
   617   1     0.14280693999999999      18.863468000000001      7.3897302900000001
   618   1               3.9083782      18.920525999999999      7.4079244400000004
   619   1      7.9868458200000001      18.726275319999999      7.3793585300000002
   620   1             12.04635279      18.773349880000001      7.4281940000000004
   621   1              16.2178386      18.711478840000002      7.5578604399999998
   622   1      20.257677229999999      18.755742590000001      7.4239898000000002
   623   1             24.26640892      18.620692479999999      7.4282356399999996
   624   1             28.46199077      18.712381059999998      7.6490985499999997
   625   1              1.93495218      22.359320499999999      7.4487317199999996
   626   1      6.1019507600000003      22.345399650000001      7.6084652500000001
   627   1              12.1796626      20.922756979999999      9.1472387099999999
   628   1      14.321284909999999      22.048475419999999      7.3539646599999999
   629   1      18.052517139999999      22.364194600000001      7.8690660100000001
   630   1             22.14483521             22.45012732      7.6190746699999998
   631   1      26.382229800000001      22.283100919999999              7.21579295
   632   1      30.503140250000001      22.303137320000001      7.5093889999999996
   633   1    0.013728290000000001      25.652572509999999      7.4596704799999998
   634   1      3.8869300600000001      25.666135329999999      7.8271853299999998
   635   1      8.0604152399999993             25.80417946              7.56332293
   636   1             12.24883799             25.54066147      7.4923026000000004
   637   1             16.08689094              25.7534779      7.3606485800000003
   638   1             20.01293896      25.942489200000001      7.3835007900000003
   639   1      24.306467869999999             25.95985889      7.4024675699999998
   640   1             28.21884322      25.759997389999999      7.3141006600000003
   641   1      4.0906769599999997      6.7266280900000002      9.0915275700000002
   642   1      2.0612753700000002      7.9242765300000002      9.9579666200000005
   643   1      9.8909036399999994      3.3609907300000001      8.9388175499999996
   644   1              18.0519915             26.97218513      8.3155499699999993
   645   1      10.244003490000001      21.907386639999999      7.6442736699999996
   646   1      26.391430230000001      24.646699999999999      9.0467375699999995
   647   1             22.26779608      5.9777609500000004      8.3903285600000004
   648   1      32.448404029999999      2.6508470599999998              8.21033598
   649   1               30.595195      10.480606310000001      9.1254874200000007
   650   1              1.78280053      24.675389339999999      8.9760267799999998
   651   1             15.82372921      23.492996510000001      8.3066904800000003
   652   1             13.93462339              6.03657603      8.3277029900000006
   653   1      22.212172280000001      12.610471309999999      8.2681391200000007
   654   1      4.1130133600000001    0.065757620000000003      8.9889819200000005
   655   1      20.100949669999999    0.064706280000000005      9.1024245599999993
   656   1      6.3071897400000001      3.5348944800000002      8.9327558899999993
   657   1      7.9805661399999996      9.4163788900000007      8.4820866899999992
   658   1      16.208341319999999      16.321658500000002      8.2007930499999997
   659   1      5.8913303499999996      10.407294889999999      9.1895429800000006
   660   1             10.17396924      5.6514517599999996      8.3034898100000003
   661   1             26.37156993      27.206267520000001      8.3883430699999995
   662   1             24.39585074      7.1513296799999999      9.1206263700000001
   663   1      17.784842820000001              3.40462518      9.1540824300000008
   664   1      4.2253362299999999             13.93649495      9.1920362900000008
   665   1             10.10870399             10.65507558      9.0206750299999996
   666   1             14.10383944      19.793624640000001      8.1040441800000007
   667   1      12.078688639999999      16.255430480000001               8.2449157
   668   1      15.944607980000001             11.74329455      7.6989655800000003
   669   1      28.270671539999999      9.5307739300000005      8.3964767499999997
   670   1             26.46017986      6.1147898700000001      8.4384782999999999
   671   1      2.2960271699999999      17.627830280000001              8.88924834
   672   1      2.3277625099999999             12.95321463      8.1894372900000008
   673   1               2.0757059              3.60278535      9.2256503300000006
   674   1              0.21701623             16.47256806      8.1777932199999999
   675   1      24.202841840000001             16.10951021      8.2720436900000003
   676   1             12.53942232      23.348737710000002      8.3463531799999995
   677   1      20.089589889999999      7.1506882100000002      9.2970308999999993
   678   1             24.70731477               18.848675      9.7470520799999996
   679   1             24.23269075      9.4572542599999991      8.5721989599999997
   680   1      28.557658920000002             11.84414711      7.5316188300000002
   681   1      32.366250829999998      4.4668541099999999      9.7274654100000006
   682   1      8.0601304299999992      16.616144389999999      8.4433504300000006
   683   1      6.2568915900000004             24.30895164      9.1649869400000004
   684   1             10.44697966              13.0542648      8.5079007600000001
   685   1             22.22627074             19.78211954      8.2927691200000009
   686   1      22.372116550000001      17.698870190000001      9.0455132900000006
   687   1      26.281339089999999      11.228734230000001      8.8310134300000005
   688   1      30.593380830000001      12.954230219999999      8.4774568000000006
   689   1      20.506211449999999             21.28336552      8.9573046499999993
   690   1      3.9291099300000001      21.105337250000002      8.8828596700000002
   691   1              0.02509171      7.1826328500000001      9.1717683700000006
   692   1             21.97178843             27.04967207      8.0638981100000002
   693   1      18.138019100000001      12.743385119999999      8.5032755299999998
   694   1      19.959744749999999      16.541454359999999      8.5772158100000002
   695   1      24.310027519999998      23.546716960000001      8.1547930999999991
   696   1      28.531199740000002      20.681024780000001              9.06601693
   697   1      4.0860753399999998              2.22306727              8.29023121
   698   1             15.90755354      21.043070090000001      9.1033910799999997
   699   1      19.880677250000002      23.592287729999999      8.3266688099999993
   700   1      17.814543530000002      24.769294940000002      9.2776244200000004
   701   1              12.0058943              2.07531219      8.3518069100000005
   702   1      28.228990759999999      23.215884580000001      8.3779700699999999
   703   1             20.21151863      2.7717199300000002      8.3327965299999995
   704   1      30.867004619999999      24.768519699999999      9.3344587400000005
   705   1      1.9638005300000001      5.9746059699999998      8.4980145199999999
   706   1      8.4526474999999994             28.12585696      8.9417022799999994
   707   1      14.145790330000001      3.3317227900000002      9.0629178800000005
   708   1      20.412042209999999             18.63846212      9.9083148800000007
   709   1      24.137925719999998   0.0039196200000000004      8.9541568599999994
   710   1              18.3403341      20.011584379999999      8.5795802400000003
   711   1      30.254907639999999              3.42054956      9.1459329399999998
   712   1             32.40674997             23.23314856      8.3397416900000003
   713   1      32.027381689999999     0.42815456000000002      9.0790935899999994
   714   1      30.366902029999999      22.153642909999999      9.8219769699999997
   715   1      30.401537229999999      26.966662670000002      8.0403667199999997
   716   1             14.13587789      27.199371450000001      8.2059184999999992
   717   1      26.193268150000002      22.222157039999999              9.85582183
   718   1      26.187460389999998              3.59746809      9.0747251599999998
   719   1      2.1575171700000002      10.540335499999999      9.1234852400000008
   720   1      30.358428100000001      5.9376364600000002      8.3697235600000006
   721   1                4.107558      9.1369249999999997      8.5392789400000009
   722   1      9.8863271600000004      19.521644970000001      8.6328434400000003
   723   1      6.1710022000000002      5.8079368200000001      8.2157833900000004
   724   1      6.1256683900000004      8.0712171300000009      9.9746036900000004
   725   1      16.069930889999998      6.7583451500000002      9.3418506899999993
   726   1      16.115916680000002      9.1767550100000008      8.3615140100000005
   727   1      17.974917090000002             17.68555031      9.1902314700000005
   728   1     0.13467913000000001      14.166442780000001      8.9508909499999998
   729   1      8.0595948699999997      13.966235559999999      8.8209809999999997
   730   1      8.0913062500000006              2.20707619      7.9974750999999999
   731   1      12.146646240000001      9.2935141699999999      8.2773635300000006
   732   1      14.140574150000001             10.87386762      8.9491204799999995
   733   1      20.359918990000001             13.90299834      9.0299774900000003
   734   1              1.69100355      27.150022839999998      8.2113138499999998
   735   1             24.26106871              2.26231084      8.2506841099999999
   736   1      7.9207585199999997             11.42417236      9.8852333399999992
   737   1              30.5586445      19.702392759999999      8.1797676999999993
   738   1              0.09179822      9.2463325300000001      8.3735080699999997
   739   1      15.960531380000001      14.161359239999999      9.0787617899999997
   740   1      18.273692669999999              10.3452593      8.9122245499999995
   741   1             24.79190685             13.75285571      8.8261455800000004
   742   1      28.355155060000001              2.35190477      8.2062030299999993
   743   1      18.151610309999999      6.0148163700000001      8.4428277200000004
   744   1             30.44495195      17.586660989999999      9.1778833899999999
   745   1      1.9535538299999999             19.96766869              8.06542827
   746   1              6.06947086             12.73465552      8.4307586499999996
   747   1             13.93890614             13.17485138      8.2230023499999998
   748   1      8.2079199500000009      21.282525549999999      8.9662821600000004
   749   1      26.247799310000001             17.48814797      8.8128105800000007
   750   1      28.419201279999999      16.327007210000001      8.2951162200000006
   751   1      23.853933359999999      21.079337979999998      9.2416429099999995
   752   1      4.3842608500000004      16.511914359999999      8.4389853299999995
   753   1      6.0607413899999996      19.877964739999999      8.2824807899999993
   754   1             10.16863011      26.461427010000001      8.2282613599999994
   755   1      6.5749976700000001     0.85000290000000001      9.9153392799999995
   756   1      8.4152521199999999      23.463502500000001      8.2080118500000001
   757   1              4.04783677      23.404003979999999      8.4845378100000008
   758   1             26.07544356      1.2516129199999999              9.73176737
   759   1      26.016788030000001      20.063430329999999      8.2661646900000001
   760   1      28.584849640000002      25.522278790000001      9.6411495400000007
   761   1      14.235878319999999      17.603698120000001      8.9901622700000008
   762   1      27.465235459999999             13.87003599      8.7958648700000008
   763   1      8.1714856000000005      6.9622065500000003              9.15910972
   764   1      6.0839446500000003      26.809442260000001      8.5167590400000002
   765   1             16.16529147              2.05411074      8.3956118100000001
   766   1      22.206078860000002      24.845984770000001      9.0494031199999991
   767   1      28.367442010000001    0.058960060000000002      9.1128618499999998
   768   1      32.422371910000003      20.838305460000001      9.1416282100000004
   769   2      29.163170260000001      23.822603180000002      10.131092880000001
   770   2      28.210092840000002      22.326914330000001             10.26958082
