N2-dn2-coord-10bar/300K/snapshots/frame-78478/run-000/../data.lammps (written by ASE) 

770 	 atoms 
2  atom types
0.0      32.470343392086264  xlo xhi
0.0      28.120142247150884  ylo yhi
0.0      31.213473999158239  zlo zhi


Atoms 

     1   1      2.0293964600000001      1.1716090800000001    0.023552650000000001
     2   1      6.0880008999999999              1.17168918              0.02556874
     3   1      10.146952280000001              1.17170328    0.025416459999999998
     4   1      14.205754900000001      1.1716496700000001              0.02501565
     5   1             18.26456816              1.17166478              0.02504435
     6   1             22.32338141      1.1716496700000001              0.02501565
     7   1      26.382184030000001              1.17170328    0.025416459999999998
     8   1      30.441135410000001              1.17168918              0.02556874
     9   1  9.1780000000000006e-05      4.6866847900000002    0.025581599999999999
    10   1      4.0587011400000002      4.6866847900000002    0.025581599999999999
    11   1      8.1174961000000003      4.6866290399999997    0.025584639999999999
    12   1             12.17638011      4.6866852999999997              0.02491202
    13   1             16.23517979      4.6866942700000003    0.025006210000000001
    14   1      20.293956519999998      4.6866942700000003    0.025006210000000001
    15   1      24.352756209999999      4.6866852999999997              0.02491202
    16   1      28.411640219999999      4.6866290399999997    0.025584639999999999
    17   1      2.0293964600000001      8.2016395800000002    0.026613040000000001
    18   1      6.0881071599999999      8.2016314300000008              0.02543782
    19   1             10.14701835               8.2017045    0.025156850000000001
    20   1      14.205766049999999      8.2017080900000003    0.024990459999999999
    21   1             18.26456816      8.2017077599999997    0.025091249999999999
    22   1      22.323370260000001      8.2017080900000003    0.024990459999999999
    23   1      26.382117969999999               8.2017045    0.025156850000000001
    24   1      30.441029149999999      8.2016314300000008              0.02543782
    25   1  9.2789999999999998e-05             11.71671873    0.025573410000000001
    26   1              4.05870014             11.71671873    0.025573410000000001
    27   1      8.1176017700000003             11.71668698              0.02497914
    28   1             12.17637068             11.71673069    0.025001590000000001
    29   1      16.235177310000001      11.716730249999999    0.025074039999999999
    30   1      20.293959009999998      11.716730249999999    0.025074039999999999
    31   1      24.352765640000001             11.71673069    0.025001590000000001
    32   1      28.411534549999999             11.71668698              0.02497914
    33   1      2.0293964600000001             15.23167155              0.02525285
    34   1      6.0881728300000004      15.231678799999999    0.025062859999999999
    35   1             10.14698486      15.231762639999999               0.0250786
    36   1             14.20578841             15.23176782    0.025201990000000001
    37   1             18.26456816              15.2317707    0.025149979999999999
    38   1      22.323347900000002             15.23176782    0.025201990000000001
    39   1      26.382151459999999      15.231762639999999               0.0250786
    40   1      30.440963480000001      15.231678799999999    0.025062859999999999
    41   1      32.470327990000001      18.746748629999999    0.024951939999999999
    42   1      4.0588083299999997      18.746748629999999    0.024951939999999999
    43   1      8.1175770200000006      18.746803499999999    0.025222040000000001
    44   1             12.17637459      18.746799750000001    0.025428470000000002
    45   1      16.235159400000001      18.746805200000001    0.025487360000000001
    46   1      20.293976919999999      18.746805200000001    0.025487360000000001
    47   1      24.352761730000001      18.746799750000001    0.025428470000000002
    48   1             28.41155929      18.746803499999999    0.025222040000000001
    49   1      2.0293964600000001      22.261939099999999    0.025844880000000001
    50   1      6.0881419299999999      22.261841799999999    0.025489439999999999
    51   1             10.14692954             22.26176895              0.02551757
    52   1             14.20573559      22.261804690000002    0.025639160000000001
    53   1             18.26456816             22.26178625    0.025640119999999999
    54   1      22.323400729999999      22.261804690000002    0.025639160000000001
    55   1      26.382206780000001             22.26176895              0.02551757
    56   1             30.44099439      22.261841799999999    0.025489439999999999
    57   1  5.6450000000000003e-05      25.776936450000001              0.02613327
    58   1      4.0587364700000004      25.776936450000001              0.02613327
    59   1      8.1175325399999991              25.7767713    0.024734180000000001
    60   1      12.176376469999999      25.776831090000002              0.02545323
    61   1      16.235145939999999      25.776775220000001    0.025273360000000002
    62   1             20.29399038      25.776775220000001    0.025273360000000002
    63   1      24.352759840000001      25.776831090000002              0.02545323
    64   1      28.411603769999999              25.7767713    0.024734180000000001
    65   1  0.00024266000000000001              2.34304215     0.80166565000000001
    66   1      4.0585502699999996              2.34304215     0.80166565000000001
    67   1      8.1157394600000003              2.34454954     0.80169402000000001
    68   1             12.17601256      2.3433829099999999     0.80116898000000003
    69   1      16.235258170000002      2.3433209100000001     0.80090046999999998
    70   1      20.293878150000001      2.3433209100000001     0.80090046999999998
    71   1      24.353123750000002      2.3433829099999999     0.80116898000000003
    72   1      28.413396859999999              2.34454954     0.80169402000000001
    73   1      2.0293964600000001      5.8582218700000004     0.80119762000000005
    74   1      6.0870566899999998      5.8583336700000004              0.80194851
    75   1             10.14649655              5.85853131     0.80121584000000001
    76   1             14.20597894      5.8582938599999999     0.80086840999999998
    77   1             18.26456816      5.8583798500000004               0.8010794
    78   1      22.323157380000001      5.8582938599999999     0.80086840999999998
    79   1             26.38263976              5.85853131     0.80121584000000001
    80   1      30.442079629999999      5.8583336700000004              0.80194851
    81   1  0.00019438999999999999      9.3717771800000005     0.80082061000000004
    82   1      4.0585985400000002      9.3717771800000005     0.80082061000000004
    83   1      8.1175070500000004      9.3725002699999997     0.80149060999999999
    84   1      12.176590020000001      9.3733583399999993     0.80088261999999999
    85   1             16.23512199      9.3733789200000004              0.80106506
    86   1             20.29401433      9.3733789200000004              0.80106506
    87   1      24.352546289999999      9.3733583399999993     0.80088261999999999
    88   1      28.411629269999999      9.3725002699999997     0.80149060999999999
    89   1      2.0293964600000001             12.88692854     0.80220621000000003
    90   1      6.0883212999999996             12.88743848     0.80138414999999996
    91   1      10.147128609999999             12.88859852     0.80085256000000005
    92   1             14.20571782      12.888558189999999     0.80113791000000001
    93   1             18.26456816      12.888409899999999     0.80109381000000002
    94   1      22.323418490000002      12.888558189999999     0.80113791000000001
    95   1             26.38200771             12.88859852     0.80085256000000005
    96   1      30.440815019999999             12.88743848     0.80138414999999996
    97   1              0.00012365      16.403222639999999     0.80145666999999998
    98   1      4.0586692700000002      16.403222639999999     0.80145666999999998
    99   1      8.1174337899999998      16.403825260000001     0.80097196999999998
   100   1              12.1761021             16.40390721     0.80133072000000005
   101   1             16.23503496      16.403861750000001     0.80140014999999998
   102   1      20.294101359999999      16.403861750000001     0.80140014999999998
   103   1      24.353034220000001             16.40390721     0.80133072000000005
   104   1      28.411702529999999      16.403825260000001     0.80097196999999998
   105   1      2.0293964600000001      19.919205120000001     0.80066369999999998
   106   1              6.08752564             19.91894023     0.80122479000000002
   107   1      10.146078839999999             19.91919038     0.80159137999999996
   108   1      14.204993419999999              19.9192584     0.80178742000000003
   109   1             18.26456816      19.919377350000001     0.80194975999999996
   110   1      22.324142899999998              19.9192584     0.80178742000000003
   111   1      26.383057470000001             19.91919038     0.80159137999999996
   112   1      30.441610669999999             19.91894023     0.80122479000000002
   113   1              0.00142012      23.434536609999999     0.80178442000000005
   114   1      4.0573728100000004      23.434536609999999     0.80178442000000005
   115   1      8.1165862000000004      23.433936769999999     0.80182306000000003
   116   1             12.17555218      23.433996919999998     0.80156656000000004
   117   1             16.23465491      23.434040110000002     0.80170828999999999
   118   1      20.294481409999999      23.434040110000002     0.80170828999999999
   119   1      24.353584130000002      23.433996919999998     0.80156656000000004
   120   1      28.412550110000002      23.433936769999999     0.80182306000000003
   121   1      2.0293964600000001      26.949875330000001              0.80297246
   122   1      6.0858208300000003      26.950066320000001              0.80215291
   123   1             10.14598146      26.949241430000001     0.80165810000000004
   124   1             14.20520604      26.948673230000001     0.80131923999999999
   125   1             18.26456816             26.94858318     0.80108193999999999
   126   1      22.323930279999999      26.948673230000001     0.80131923999999999
   127   1      26.383154860000001      26.949241430000001     0.80165810000000004
   128   1             30.44331549      26.950066320000001              0.80215291
   129   1   0.0097914300000000003      28.228263470000002      1.4295650200000001
   130   1              4.00866934   -0.095507620000000001              1.53292841
   131   1      8.0824383799999993    0.064938289999999996              1.41120384
   132   1             12.18723599             28.09272794              1.35054805
   133   1             16.29711653      28.171456760000002      1.3703838100000001
   134   1      20.379698510000001  -0.0088877100000000001              1.43211925
   135   1             24.39678477              0.02600481              1.36697998
   136   1      28.413565129999999      28.147639699999999      1.5155836300000001
   137   1      2.0123131500000002              3.54024128              1.44239998
   138   1      6.0963091599999997      3.5273097600000001      1.4803724700000001
   139   1      10.112565979999999      3.5811125000000001      1.3540496799999999
   140   1      14.167529330000001      3.4907565300000001              1.45980653
   141   1              18.3092282              3.50177271      1.4573583400000001
   142   1      22.360115610000001      3.4987178299999999      1.3952690999999999
   143   1      26.350770399999998      3.4362908299999999      1.4663569999999999
   144   1      30.497549230000001      3.4762432400000001               1.3946516
   145   1      32.375913259999997      7.0168008000000004      1.5573896300000001
   146   1      4.0990256199999999      7.0406935199999996              1.40967993
   147   1      8.0971871199999992      6.9712281999999997      1.4457260700000001
   148   1             12.26523821      7.0053409899999997              1.50837022
   149   1      16.216710750000001      7.0297087700000001      1.3145871600000001
   150   1      20.275168260000001              7.06604688      1.5565192400000001
   151   1      24.377944800000002      6.9592664800000001              1.54213735
   152   1             28.53027406      7.0371702599999999      1.5045730100000001
   153   1              1.95485672      10.439798059999999      1.5267451000000001
   154   1               6.1526334             10.59935419              1.60346941
   155   1      10.197665689999999             10.56006932      1.4463911199999999
   156   1             14.14630069             10.59414716      1.4199312399999999
   157   1             18.29240991      10.548874639999999              1.42351812
   158   1              22.3603232             10.60003592              1.47536051
   159   1             26.40755454             10.61583317              1.52621447
   160   1      30.334743280000001             10.58695814      1.5280354199999999
   161   1      32.397177839999998      13.978711499999999      1.4209736500000001
   162   1              3.95671836             14.12941043              1.48470758
   163   1      8.2271675799999997             14.05664565              1.49357534
   164   1             12.22341765             14.09430586              1.45923409
   165   1      16.352525570000001             14.00040774      1.4306799299999999
   166   1             20.33038719      14.018898350000001              1.60127949
   167   1             24.44725803             14.13147435      1.4765935100000001
   168   1              28.4004555      14.074231770000001      1.5236749599999999
   169   1      1.9496018100000001      17.606958710000001      1.4961359299999999
   170   1      6.0202481700000003      17.559077120000001              1.60868206
   171   1      10.031431700000001      17.519646349999999              1.43613882
   172   1      14.195844109999999      17.541188330000001              1.56715925
   173   1             18.27608072             17.56418429      1.4675689599999999
   174   1      22.365067199999999      17.638745950000001              1.53093075
   175   1      26.294161970000001      17.587519960000002      1.4769969599999999
   176   1      30.357767339999999      17.642288860000001              1.59152417
   177   1   -0.020405449999999999      21.018148750000002      1.3597762799999999
   178   1      4.0473223999999997             21.01372606      1.4974321500000001
   179   1      8.1164795099999996      21.111928240000001              1.39706127
   180   1      12.232809639999999      21.049527130000001              1.45724659
   181   1      16.250436570000002      21.076538809999999      1.5644352399999999
   182   1      20.210879869999999             21.09047653              1.49391556
   183   1      24.333134040000001      21.207343179999999              1.47215272
   184   1             28.33150977      21.116986399999998              1.38744215
   185   1      1.9755624300000001      24.594822789999998      1.3808860700000001
   186   1      6.0999537799999999      24.536054579999998      1.4359017300000001
   187   1             10.19527602             24.68877093              1.57632054
   188   1      14.217521250000001      24.572994820000002              1.48164757
   189   1      18.322104209999999      24.655557890000001      1.5422513900000001
   190   1      22.356888959999999             24.66710565      1.5063118600000001
   191   1             26.41707663      24.694616740000001              1.34444181
   192   1      30.450733020000001      24.646851049999999      1.5454298399999999
   193   1               2.0138691      1.1667242099999999      2.4306019700000001
   194   1      5.9218437000000002              1.28606975      2.4936262999999999
   195   1      10.151825130000001      1.1349541299999999              2.36911293
   196   1             14.19275008              1.03050219      2.2990910800000002
   197   1      18.263813460000001      1.2735092299999999      2.4898431200000002
   198   1      22.331462269999999               1.1441067              2.44665211
   199   1      26.395257269999998              1.04646584      2.3696065399999999
   200   1      30.385974820000001      1.1862358799999999      2.5498867600000001
   201   1      32.449093060000003      4.5561520900000003      2.4320324699999998
   202   1      4.0285054499999999      4.6209265899999998              2.47234058
   203   1      8.0969075799999999      4.6512944599999999      2.4037010900000002
   204   1      12.161563149999999      4.6384618099999999      2.3111697599999999
   205   1             16.23588093      4.7538263699999996      2.3708873600000002
   206   1      20.287327820000002      4.6762959300000002      2.4123093199999999
   207   1      24.369369710000001      4.6559506099999997      2.3475571099999999
   208   1      28.465742160000001      4.6286170999999996      2.3149561900000002
   209   1                1.975517      8.1992712799999996      2.3370406400000001
   210   1      6.0993102800000001      8.2269738100000005              2.42988027
   211   1      10.221657629999999      8.2240332200000008              2.39432629
   212   1             14.20939523      8.2120808099999998      2.4476717400000001
   213   1             18.30026724      8.2316885600000003      2.4684651400000002
   214   1      22.349279030000002      8.2307165900000001      2.4011554300000002
   215   1      26.441292780000001      8.1393457399999996      2.4708236000000001
   216   1      30.388153200000001      8.1668874099999993      2.4265925300000002
   217   1      32.399144579999998             11.70903103      2.5165277800000001
   218   1      4.1260325099999999      11.717126690000001      2.4364250599999999
   219   1      8.1680405500000006             11.84421122      2.3832328500000002
   220   1             12.31490369             11.78745518      2.3771596700000002
   221   1      16.216274670000001      11.698654380000001      2.3576694499999999
   222   1      20.315026020000001      11.681522319999999      2.4178390099999998
   223   1      24.260193690000001             11.70266674              2.48409287
   224   1      28.454279530000001             11.75017107      2.3773319000000002
   225   1      1.9717094399999999             15.30028813      2.4008862899999999
   226   1      6.1909149899999996             15.12357944      2.4277913500000001
   227   1      10.191455449999999             15.29261818              2.44774724
   228   1             14.27249872             15.41694596      2.4999116799999999
   229   1      18.252028710000001             15.19308785      2.4507591199999998
   230   1              22.4838831      15.207597720000001      2.4166684200000002
   231   1      26.460767910000001             15.30456839              2.36881626
   232   1             30.39958742      15.236938930000001      2.2997196899999999
   233   1             32.45350844             18.70291001      2.4846377300000002
   234   1      3.9437399399999999             18.72905124      2.4361666099999999
   235   1              8.09085623              18.6842483      2.3979643500000001
   236   1      12.067080499999999             18.74040432      2.3779870700000001
   237   1             16.18025712             18.70153869      2.3700986799999999
   238   1      20.258302860000001      18.727803099999999      2.5018779800000002
   239   1             24.30119994             18.86429278      2.4194699499999999
   240   1      28.340650069999999      18.868718380000001      2.3930932999999999
   241   1              1.85326123      22.335109469999999      2.3988811700000001
   242   1      6.0121391700000002             22.21971211      2.4520114400000002
   243   1             10.15222984      22.235573389999999      2.4779297300000001
   244   1             14.18106148      22.203543379999999      2.4245419099999999
   245   1             18.24169259             22.27950027      2.4168531500000001
   246   1             22.26554432      22.224796919999999              2.43436933
   247   1      26.398894940000002      22.300373220000001      2.4139464199999998
   248   1      30.373741079999999      22.291894750000001      2.4357401799999998
   249   1      32.438217379999998             25.77325591              2.42726957
   250   1      3.9620816900000002      25.729753209999998      2.5011720099999999
   251   1      8.0685365999999998      25.796813319999998              2.42935021
   252   1      12.176051380000001      25.803592739999999      2.5000621199999999
   253   1      16.121110030000001      25.726738820000001      2.3666373200000002
   254   1      20.254243460000001      25.759629619999998      2.4929938300000001
   255   1      24.286978420000001             25.77937317              2.48603233
   256   1             28.37973358      25.883614430000002      2.4364263899999998
   257   1   -0.017064780000000002              2.28502231      3.3351844000000002
   258   1                3.972572      2.4008934399999999      3.3127984499999998
   259   1      8.1143158199999998      2.4401575499999999      3.2358917599999999
   260   1      12.280321860000001      2.3173112300000001      3.1504675400000002
   261   1              16.2647567      2.3830262100000001      3.2049511900000001
   262   1             20.25993068      2.4028963700000001      3.2111845300000001
   263   1      24.382981350000001      2.3780511099999999      3.2606172500000001
   264   1      28.336495469999999      2.2654709799999999      3.1088976700000002
   265   1              2.03663901      5.7727982899999999      3.2420035899999999
   266   1      6.0650051899999999              5.84887655      3.3514307200000002
   267   1      10.115317340000001              5.89293683      3.2270846400000002
   268   1             14.21975656      5.9214572900000002      3.2226922099999999
   269   1      18.284367199999998      5.8965807999999997      3.1014783100000001
   270   1      22.401724089999998      5.8647614399999997              3.27645133
   271   1      26.457252520000001      5.7858046500000002      3.1935789400000001
   272   1      30.596334630000001      5.8695444700000001      3.2036153600000001
   273   1   -0.052336199999999999      9.3622333599999994      3.2274055000000001
   274   1      3.9577373699999998              9.37301596      3.3699623600000002
   275   1      8.1341086199999992      9.3071681500000008      3.2107244499999998
   276   1      12.161679230000001      9.3788462100000007      3.2870817400000001
   277   1             16.26475881      9.3923005699999997      3.2819386700000002
   278   1             20.29670291      9.4075845099999995               3.3343539
   279   1      24.540333780000001      9.3495931500000005              3.33636562
   280   1      28.391793029999999      9.4097172600000007      3.3760714200000002
   281   1      1.9116869599999999             12.83152501              3.25926728
   282   1      6.0424526399999996              12.8365413      3.3216904899999999
   283   1             10.21228039      12.974152139999999              3.25063842
   284   1      14.204193480000001             12.97538005              3.24344783
   285   1      18.254855890000002      13.007930399999999      3.2901353900000001
   286   1      22.275238219999999      12.880829869999999      3.2142927299999999
   287   1             26.45024665              12.9160451      3.2360689599999999
   288   1              30.3968256      12.884188050000001      3.3131924700000002
   289   1      32.409883579999999      16.352029229999999      3.3339994499999999
   290   1      4.0287692499999999             16.39692011      3.2535875399999998
   291   1      8.1832309199999997      16.404517930000001              3.32276734
   292   1             12.21176541      16.480683259999999              3.27060145
   293   1      16.291655779999999      16.365626590000002      3.2436014800000001
   294   1             20.31448907      16.373186650000001      3.2078885399999999
   295   1      24.366592000000001             16.52320898      3.2555587899999998
   296   1      28.412660089999999             16.43591129      3.1758902899999999
   297   1      1.8775242999999999      20.031574450000001      3.2117483099999999
   298   1      6.1604204600000001      19.949942220000001      3.3149279800000002
   299   1      10.043439080000001             19.86050088              3.23929125
   300   1      14.243912720000001      19.954348830000001              3.29355339
   301   1      18.184836000000001              19.8394145      3.3444838799999999
   302   1      22.251053330000001      19.937844049999999      3.1677464899999999
   303   1      26.340962090000001      19.942113249999998      3.2513088400000001
   304   1      30.307001509999999      20.034109010000002      3.2055720299999999
   305   1      32.488753639999999             23.53404252      3.2395738600000001
   306   1      3.9720504600000002              23.3167838      3.3417463199999999
   307   1      8.0396605000000001             23.40849171      3.1910387299999998
   308   1             12.09390488      23.353447249999999      3.3341492800000001
   309   1      16.150570139999999             23.42192657      3.1432102400000002
   310   1      20.293042750000001      23.378154200000001      3.2744857199999999
   311   1              24.3549325              23.3631171              3.26790154
   312   1      28.452375480000001      23.586939900000001      3.2715965599999999
   313   1      1.9851470200000001             26.81053167      3.2521897599999998
   314   1      6.0376087700000003      26.988371440000002      3.2761463399999999
   315   1             10.07442983      26.900965490000001      3.3085179899999999
   316   1      14.157919740000001      26.874498559999999      3.2772838000000002
   317   1      18.235788360000001      26.934710989999999      3.2174874899999999
   318   1      22.370475150000001      27.004467250000001      3.3620624000000001
   319   1      26.309622950000001      26.851371019999998              3.35861074
   320   1      30.403315790000001      26.971040599999998              3.17779832
   321   1   -0.038103150000000002   -0.066630620000000002              3.99717966
   322   1      3.9954937799999999             -0.02484598      4.1892092600000002
   323   1      8.0777444200000001      28.155952490000001      3.9866937500000001
   324   1             12.16669892      28.103654819999999              3.95483494
   325   1             16.21147611              0.01209445      4.0321952000000003
   326   1      20.173498739999999  -0.0059233999999999997      3.9525163600000002
   327   1      24.398506040000001      28.165075860000002      4.0673438400000004
   328   1      28.454245480000001      28.037795679999999      4.1414872999999996
   329   1      2.0272382499999999      3.5409910500000001      4.1516763699999997
   330   1      6.0483985000000002      3.4898484500000002      4.1500004600000002
   331   1      10.162395419999999      3.6302806400000001              3.94365816
   332   1      14.219228559999999      3.5756979100000001              4.05051863
   333   1      18.272604640000001      3.5622866200000001      4.0274111899999996
   334   1      22.318935849999999      3.4675293300000001      4.0102580000000003
   335   1      26.425539789999998              3.43466329      4.0277596000000004
   336   1      30.407883210000001      3.5451698600000001      4.0345125299999998
   337   1      32.483441040000002      6.9901343899999997      4.1093897799999999
   338   1      4.0452926900000001              7.10249709              4.04124588
   339   1      8.2310480100000003      6.8861432200000001      4.1542856199999996
   340   1      12.300387949999999      7.0289827699999998      4.0897207199999999
   341   1      16.287918550000001      7.0691667300000001              4.02805868
   342   1             20.33288035      7.0476235300000001      4.0095660200000003
   343   1      24.455697480000001      6.9064512699999998      4.1056516700000003
   344   1      28.462733069999999      7.1254593399999999      4.0264686599999999
   345   1      1.9491879299999999      10.624757000000001      4.0960747099999999
   346   1      6.1373074799999996      10.595420969999999      4.0848253699999999
   347   1             10.19420584             10.56839167      4.0392617599999996
   348   1             14.20057336             10.62182924              3.98942241
   349   1      18.334358770000001              10.5946841      4.1074363099999998
   350   1      22.272214720000001      10.483046379999999      4.0948738799999997
   351   1             26.42263814      10.561621280000001      4.2042456899999996
   352   1      30.528717230000002      10.521717389999999      4.1258251799999996
   353   1    0.035631530000000002      14.008507910000001              3.99907112
   354   1      4.0113098799999998             14.06741682      4.0130408400000004
   355   1      8.1592543099999997      14.055955020000001      4.1900901900000003
   356   1      12.276706450000001             14.19535039      4.0885939499999999
   357   1      16.257452090000001             14.03762057      4.1308527499999999
   358   1      20.308407989999999             14.14399135      4.1853868600000004
   359   1      24.323811760000002             14.22144349      4.1152413299999999
   360   1      28.390328140000001      14.093232560000001              4.08659631
   361   1              1.92865015      17.595204649999999              4.10703803
   362   1      6.0980958200000002             17.61394851      4.1225224499999999
   363   1             10.16350143             17.60172421              4.00704116
   364   1      14.210720090000001      17.630740400000001      4.0780478200000001
   365   1      18.341804100000001      17.545510620000002      4.1381446200000003
   366   1      22.239669249999999      17.577503050000001      4.1037329700000003
   367   1      26.349394319999998      17.632720240000001              4.07769373
   368   1      30.353433150000001      17.672934390000002      4.1313735899999999
   369   1      32.398054369999997      21.103518090000001      4.0097375599999996
   370   1      4.1149249699999997      21.014471700000001              4.04845831
   371   1      8.1566648599999994             21.12434403      4.0006102200000004
   372   1             12.11829011              21.0900319      4.1666057700000003
   373   1             16.30156848             21.09749686      4.1669515700000002
   374   1      20.357760630000001      21.054820899999999      4.1486882100000004
   375   1      24.392666210000002      21.047361330000001      4.1464477000000004
   376   1      28.347354509999999      21.098117120000001      3.9899381300000001
   377   1              1.98473769      24.578269970000001      4.0916908100000002
   378   1              6.06148226      24.617394170000001      4.0500589299999996
   379   1      10.056119069999999      24.496768790000001              4.08445546
   380   1             14.15074154      24.664716030000001      4.0517362099999996
   381   1             18.28212564      24.585188479999999      4.1077660600000003
   382   1             22.38021947      24.547743780000001      4.1141381099999998
   383   1      26.311503170000002             24.49367019      4.1201219099999999
   384   1      30.423602089999999      24.545057159999999      4.1051424799999996
   385   1              1.97834811              1.09314672      4.9514413099999999
   386   1      5.9987050899999996              1.21296823      4.8841641400000002
   387   1      10.127173340000001      1.1629663299999999      4.7969607300000003
   388   1             14.14713021              1.15404061      4.8496719700000002
   389   1      18.297035640000001              1.17824548      4.8729691900000001
   390   1      22.285714540000001              1.21361059      4.9158983999999997
   391   1      26.457827890000001              1.07687478      4.8894722100000001
   392   1      30.474694469999999      1.1239085099999999      4.9377338100000001
   393   1      32.461049160000002      4.5682796899999998      4.9464149800000001
   394   1      4.0475535000000002      4.7320784400000004      4.9276578000000004
   395   1      8.2251588699999996      4.6835779100000003      4.9620639999999998
   396   1              12.1616316      4.7599255899999999      4.8690605500000004
   397   1      16.302050609999998      4.7548995200000004      4.9558107700000003
   398   1             20.30154228              4.66334786              4.81424758
   399   1      24.406732460000001      4.6280104099999999      4.8754835999999999
   400   1             28.30081165      4.6128360099999997      4.8822869600000001
   401   1      2.0369081100000002      8.2037863000000009      4.9717089400000001
   402   1      6.2565038499999996      8.1123841399999996      4.8471258600000002
   403   1             10.24036643      8.1703230700000002      4.8907177300000004
   404   1      14.319024430000001      8.1736223199999998      4.8711360499999996
   405   1      18.298565490000001      8.1927194799999992      4.9271971900000002
   406   1      22.340862569999999      8.1555828500000001      4.8083097500000003
   407   1      26.449749409999999      8.2282810099999999      4.9187439299999998
   408   1      30.418249029999998      8.0358087499999993      5.0037838499999996
   409   1      32.390893509999998      11.659759920000001      5.0549739699999998
   410   1      4.1651726099999999             11.66537988      4.9786188100000004
   411   1      8.1610659200000004      11.721273630000001      4.9557888400000003
   412   1      12.147735839999999             11.69116768      4.9840927800000001
   413   1      16.249298840000002      11.759879379999999      4.8964046899999998
   414   1             20.34012611      11.760585150000001      5.0816094200000004
   415   1             24.28208562             11.75439854      4.9034907700000003
   416   1             28.46477312      11.607759679999999      4.9100935400000001
   417   1      2.0541975300000002             15.17450768      5.0054966199999997
   418   1      6.0907619200000003             15.25276094      4.8973120799999998
   419   1      10.272717310000001      15.237872210000001               5.0054311
   420   1             14.30009428             15.26261908      4.9035833000000002
   421   1      18.275562369999999             15.21430902      5.0079757899999997
   422   1      22.372275519999999      15.217212229999999      4.8890279100000003
   423   1             26.30184598             15.35517333              4.84771807
   424   1      30.457784279999998      15.252592679999999      4.8871587300000003
   425   1  -0.0052719200000000003      18.726297129999999      4.9527087200000004
   426   1      4.0865100400000003      18.584965050000001      4.9354090299999998
   427   1      8.1703762500000003             18.76447933      4.9886031099999997
   428   1      12.077865060000001      18.688899840000001      4.9951711000000003
   429   1      16.275260249999999      18.802197639999999      5.0108367200000004
   430   1             20.40700511      18.710156399999999      4.9805046600000002
   431   1      24.352232449999999      18.778397869999999      4.9870510899999996
   432   1      28.315434710000002             18.87791799      5.0896348800000002
   433   1               1.9395111      22.194710189999999      4.7932617500000001
   434   1      6.1776372200000003             22.20626665      4.9348834899999998
   435   1             10.16950989             22.24910783      5.0265391499999996
   436   1             14.17545806      22.212304509999999      4.8127772200000001
   437   1      18.400880860000001      22.156078269999998      4.9178078899999997
   438   1      22.451782049999998      22.238416300000001      4.8720191100000001
   439   1      26.381112349999999      22.303638759999998      4.9828254999999997
   440   1      30.310465789999999             22.22492716      4.9188091800000002
   441   1      32.405542590000003      25.735455980000001      4.9274737499999999
   442   1      3.9414184799999998      25.622719570000001              4.95998363
   443   1      8.0763655599999993      25.766499679999999              4.86136722
   444   1             12.02581655      25.773635519999999      4.9523244799999997
   445   1      16.219008460000001             25.61705856      4.9384859199999998
   446   1      20.332719390000001      25.695052090000001      4.8842690700000002
   447   1      24.415195059999999      25.809293650000001      4.9922428500000002
   448   1      28.357241559999999             25.79166772      4.8921519599999996
   449   1  -0.0056937899999999998      2.1535432399999999      5.7725532399999997
   450   1              3.98637212      2.4220184900000001      5.8368275900000004
   451   1      8.1041483400000001      2.2311100000000001      5.6244857499999998
   452   1             12.16209791      2.4072297300000001      5.6902099699999997
   453   1      16.209915240000001      2.4818854699999999      5.6403272099999997
   454   1      20.291285800000001      2.4599596799999999      5.6691888700000002
   455   1             24.39571862      2.3029786099999998      5.6739783900000003
   456   1      28.556251790000001      2.3140765700000001      5.6652278599999999
   457   1              1.99077656      5.7297075099999999      5.7518165699999999
   458   1      6.1893264200000004      5.7339259499999997              5.79287185
   459   1             10.17554543      5.7583760799999997      5.6670542499999996
   460   1             14.20008636      5.9806603300000001      5.6906438699999997
   461   1      18.289411680000001      5.8709345700000002              5.69893333
   462   1      22.398974290000002      5.9938049099999997      5.5553151300000003
   463   1      26.416081899999998      5.7563173799999996      5.6708806699999998
   464   1      30.377218410000001      5.7247467900000002      5.6434266900000001
   465   1      32.418981670000001      9.2718920199999992      5.8341263999999997
   466   1      4.1464504900000003      9.3844263800000007      5.7423388800000001
   467   1      8.0683660199999991      9.2383127500000004              5.69790274
   468   1             12.15522717      9.4170871300000005      5.8164762000000003
   469   1      16.266036320000001      9.4328989599999993      5.7268014599999999
   470   1      20.328802899999999      9.2617617699999997      5.7431737600000003
   471   1      24.389989140000001      9.4703101000000007      5.6800097899999997
   472   1      28.443152829999999      9.2700726200000005      5.7699245100000001
   473   1              1.93475869      12.828996099999999      5.8231974199999996
   474   1               6.1044494      12.866221960000001      5.7198650799999999
   475   1             10.20230228      12.988702780000001      5.7035844400000002
   476   1      14.246796489999999      12.881947609999999      5.7783726099999999
   477   1      18.238779869999998      12.763213990000001      5.8171690600000003
   478   1      22.296399610000002      12.876366730000001      5.8066082100000003
   479   1      26.326032720000001      12.920448710000001      5.7672665299999997
   480   1      30.399782649999999             12.75008931      5.7273571800000003
   481   1   -0.039598809999999998      16.396998150000002      5.7264663999999996
   482   1      4.1147136199999998              16.3208065      5.7329632200000002
   483   1      8.2224149900000008      16.506828630000001              5.80556362
   484   1      12.410180990000001      16.410387790000001      5.8946742499999996
   485   1      16.311141639999999      16.340124209999999      5.8193727099999997
   486   1             20.38397733      16.315836449999999      5.7651942099999998
   487   1              24.4333375             16.59095151              5.68136917
   488   1      28.429926269999999      16.420215630000001      5.6165264800000001
   489   1      2.1001488799999999             19.83515586      5.7763360600000002
   490   1      6.1416617699999998      19.784560450000001      5.7881438799999998
   491   1      10.312040440000001             19.96247043      5.8593374999999996
   492   1             14.20890902      19.946843049999998      5.8618810400000001
   493   1      18.421201419999999      19.818702250000001      5.7800106900000001
   494   1              22.4202713      19.853581200000001      5.7672986399999999
   495   1      26.304226490000001      19.954471259999998      5.7681957199999996
   496   1             30.44891213      19.980413899999999      5.6985972900000004
   497   1      32.412395670000002             23.38228011      5.7169685299999999
   498   1              3.96662004      23.297722799999999      5.7755199800000003
   499   1      8.0413048099999997      23.495328740000001      5.5999868900000003
   500   1             12.17529871      23.416407060000001      5.7688292800000003
   501   1      16.353432860000002      23.269736590000001      5.7216808700000001
   502   1             20.48833351      23.370947009999998      5.7166483100000001
   503   1      24.388493570000001      23.392753209999999              5.70815216
   504   1             28.46318458      23.429902210000002      5.6949481999999998
   505   1      2.0692377999999998      26.934099920000001      5.6510908999999998
   506   1      5.9682129799999997      27.005643559999999              5.71935489
   507   1      10.078547950000001      26.947089510000001      5.7944958700000004
   508   1             14.14457912      26.891110619999999      5.6584101799999997
   509   1      18.259049820000001      26.773611079999998      5.6730143499999999
   510   1      22.437196100000001             26.96979799      5.7288415199999996
   511   1             26.34358443      26.951064639999998      5.7166011699999997
   512   1      30.446344920000001              26.9306348      5.7088962199999997
   513   1     0.11897654000000001    -0.16138648999999999      6.6679259000000002
   514   1      4.0426784199999997             28.11172621      6.6335109000000001
   515   1      8.0342032700000008      28.156720140000001              6.43404138
   516   1             12.20910275              28.1391159      6.4798969700000004
   517   1      16.241442899999999   -0.031463369999999997      6.4516073699999996
   518   1      20.352612109999999  -0.0094381099999999996      6.4203092899999996
   519   1             24.46109946      28.153676879999999      6.6448965500000003
   520   1             28.44414514      28.137139309999998      6.7013040400000001
   521   1      1.9761729100000001      3.4221156399999999      6.7172306600000002
   522   1      6.0724414199999996      3.5168628000000002      6.5945326700000004
   523   1      10.071706519999999      3.5425369899999999      6.5897376100000002
   524   1      14.232642009999999              3.64927453              6.50708178
   525   1      18.290056750000002      3.4470457400000001      6.6200491000000001
   526   1             22.44276752              3.60802355      6.5420251299999999
   527   1      26.384742960000001      3.5407258599999998      6.4935526599999998
   528   1      30.517913719999999      3.5042087999999998      6.5003602100000002
   529   1             32.57847417      6.8311147600000002              6.62816399
   530   1      4.0849721800000003      7.0149764599999997      6.4274763300000002
   531   1      8.1860705899999999              7.01048559              6.56237022
   532   1      12.085053889999999      7.0309546599999999              6.48733497
   533   1             16.22871726      6.9839838800000003      6.4994108300000004
   534   1      20.365818390000001      6.9402454999999996      6.4483221200000003
   535   1      24.377834249999999      7.0202970999999996      6.5530937900000001
   536   1      28.441247059999998      6.9570233699999999      6.5661139300000002
   537   1              1.94832831             10.53808669      6.5677322800000004
   538   1      6.1691694999999998             10.46158093      6.6001191700000001
   539   1              10.1236867              10.5669343              6.51239027
   540   1             14.16111598      10.587504239999999              6.52092955
   541   1      18.252294840000001             10.38685808      6.5941657300000003
   542   1             22.33733513      10.598866190000001              6.63103541
   543   1      26.418124429999999      10.552690009999999      6.6275334800000003
   544   1              30.4368205             10.46618612      6.6321648099999999
   545   1             -0.02965609      14.021842879999999      6.4366647199999996
   546   1      4.0317705899999998      13.990465820000001      6.5158138799999996
   547   1      8.1633716500000002      14.092448660000001      6.6166130599999997
   548   1             12.26052561      14.109787430000001      6.6900372700000004
   549   1      16.293590089999999             13.94130904              6.66887936
   550   1      20.354052769999999             14.03552406      6.6707770100000001
   551   1             24.38581464      14.146990990000001      6.5445657600000002
   552   1      28.436517599999998             14.10719317      6.5461846299999999
   553   1      1.9978232600000001             17.55079993      6.6749158499999997
   554   1      6.0861124599999998             17.58659901      6.6539184000000002
   555   1              10.3265186      17.592419660000001      6.6327031700000001
   556   1      14.237829079999999      17.622612069999999      6.6587386799999999
   557   1              18.3154234      17.526806650000001      6.7190760699999998
   558   1      22.297316909999999      17.544669970000001              6.57530751
   559   1      26.385904570000001      17.714319060000001      6.5837837800000001
   560   1      30.389149239999998             17.61912246      6.5951498300000004
   561   1    0.026594690000000001             20.97761762      6.5331593899999998
   562   1              4.11920383      21.055331509999998      6.5645631499999997
   563   1      8.1394151600000004      21.043189179999999      6.5653487799999999
   564   1             12.15631964      21.101593269999999      6.6269554900000003
   565   1      16.341995579999999      21.047893550000001      6.6058414299999999
   566   1      20.392341080000001      21.222355530000002      6.6136748399999998
   567   1             24.27777305             21.07918179      6.6705058399999997
   568   1             28.43575538      21.127627319999998      6.6389765799999996
   569   1      2.0591119400000002      24.536218760000001      6.6257439900000001
   570   1      5.9097856999999996      24.708617220000001      6.5345845100000002
   571   1      10.041778109999999      24.554067700000001      6.5496789800000004
   572   1             14.20122887              24.4784048      6.5591561799999996
   573   1      18.341833359999999             24.56864903              6.51283309
   574   1             22.32989697      24.640344169999999      6.6645479300000003
   575   1      26.343983000000001      24.543583859999998      6.6441687800000002
   576   1      30.425055960000002             24.65790183      6.5690425599999998
   577   1              1.90749444      1.0689662200000001      7.7544503499999999
   578   1      6.0970406600000002               1.2390538      7.4554342599999996
   579   1      10.127343890000001              1.18780095      7.2847444399999999
   580   1             14.28680962              1.25683308      7.5145373700000002
   581   1             18.29223009      1.0341021699999999      7.3257907299999996
   582   1      22.370320450000001      1.2449202800000001               7.4002029
   583   1      26.288978230000001      1.2525087800000001      7.5864439800000003
   584   1      30.640001219999998      1.1070122200000001              7.41461404
   585   1      32.537895509999998      4.5560549899999998      7.5230249799999998
   586   1              4.00343698      4.5896844699999999      7.5721780000000001
   587   1      8.0072291599999996              4.61030579      7.4952779899999999
   588   1             12.20206999      4.7585767700000003      7.5003243599999996
   589   1      16.241488440000001      4.6890244599999997      7.4740727600000003
   590   1      20.416050439999999      4.7804851299999997      7.3749476400000002
   591   1      24.497520340000001              4.70615512              7.58208079
   592   1      28.411106780000001      4.5087831500000002      7.4414214899999997
   593   1      2.0663266899999999              8.23807343      7.4785837800000001
   594   1      6.1542616499999996      7.9625313599999998      7.6425508100000004
   595   1              10.0890111      8.2965177200000007      7.5242079300000002
   596   1             14.23824662      8.2843503700000003      7.5846853400000001
   597   1      18.351573720000001      8.0381520099999992      7.3866371500000003
   598   1      22.314173700000001      8.1431490499999999      7.5090805899999999
   599   1      26.393608910000001      8.1680442800000002      7.3953707199999998
   600   1      30.437389790000001      8.0367247699999993      7.5450075400000003
   601   1      32.415096159999997      11.649682589999999              7.61849884
   602   1      4.1114340299999999      11.627096379999999      7.4880450099999996
   603   1      8.0955031399999999             11.77133156      7.5384910100000004
   604   1             12.18327317             11.77467287              7.53233306
   605   1             16.18672072      11.733372859999999              7.56672996
   606   1      20.329418480000001             11.69448611      7.6037700700000004
   607   1      24.380332630000002             11.68393977      7.4426613000000001
   608   1              28.4052267      11.697264479999999      7.5753517199999996
   609   1      2.0247032200000001      15.116379480000001      7.4546753700000004
   610   1      6.0869900699999997             15.30576815              7.51177019
   611   1             10.06842168      15.356282439999999      7.6191260600000001
   612   1      14.409397820000001      15.171562160000001      7.5974413500000004
   613   1             18.32946819      15.179354610000001      7.6448308000000003
   614   1      22.413801299999999             15.14952645      7.4757312699999998
   615   1      26.480307209999999      15.319773700000001      7.5665518499999997
   616   1             30.55693647             15.29640021      7.4400306199999999
   617   1   -0.028543010000000001      18.738560199999998               7.5240434
   618   1      4.1045028700000001             18.75313482      7.6140310600000003
   619   1      8.0965889900000008      18.810629500000001      7.5334557999999996
   620   1      12.230383079999999      18.731151959999998      7.6618655499999999
   621   1             16.23618493             18.81951673              7.65043585
   622   1      20.312060729999999             18.76516702      7.4621190799999999
   623   1      24.175909709999999             18.77040422      7.6059083300000001
   624   1      28.465433019999999      18.784337390000001      7.6638534500000004
   625   1      2.0157852699999999      22.120155749999999      7.5444885199999998
   626   1      6.0569510299999996      22.232246490000001      7.4232992700000002
   627   1      10.152682309999999             22.23215892              7.70680838
   628   1             14.27273615      22.237791569999999      7.3926299100000001
   629   1      18.399893689999999      22.323531379999999      7.4643421700000001
   630   1      22.302884989999999      22.268389809999999      7.7155518699999996
   631   1      26.461333079999999              22.2201676      7.5225323599999996
   632   1      30.378405189999999      22.262466459999999      7.4687435400000002
   633   1      32.406259779999999      25.743398930000001      7.4814621499999996
   634   1      4.0809496000000003      25.790634499999999      7.7023241999999996
   635   1              8.04215093             25.86834953      7.4040150100000002
   636   1      12.083333980000001      25.861632960000001      7.3902107099999998
   637   1             16.22124595      25.854189359999999              7.60917653
   638   1      20.245792900000001      25.721712539999999      7.3818548100000001
   639   1             24.34245323      25.888630129999999      7.6886644400000002
   640   1      28.398625670000001      25.777963679999999      7.4044065200000002
   641   1    0.040454589999999999      2.3040665599999999      8.2630311800000005
   642   1      4.0450172499999999      2.3051575400000002      8.2905776200000005
   643   1      8.1593871300000007      2.3126959199999999      8.1817340000000005
   644   1      12.162405120000001      2.4946810099999999      8.0983076300000008
   645   1             16.46788939      2.4041284100000002      8.1312962199999994
   646   1             20.39319845      2.3763799699999999      8.1100037399999998
   647   1      24.329553910000001      2.4590830600000002      8.2816152400000007
   648   1      28.456036430000001      2.1807790900000001      8.0599049399999991
   649   1              2.00284057      5.8832748700000002      8.2210851900000002
   650   1      6.0222521100000002      5.7048073500000003      8.2419750900000004
   651   1      10.075463109999999      5.8666836599999996      8.0958984699999998
   652   1      14.280212580000001      5.9150999999999998      8.0334749599999995
   653   1             18.22604918      5.8266158600000004      8.1291731899999995
   654   1      22.535400079999999      5.8728564199999997      8.3046263299999996
   655   1      26.514208610000001      5.9025631799999996      8.1387361699999996
   656   1      30.513020350000001              5.67926457      8.0421619900000003
   657   1              0.00727576      9.3644941700000004      8.2631838599999998
   658   1      3.9723776000000002      9.2505957700000003      8.1887633300000005
   659   1      8.1005369900000002      9.2507794800000003      8.0810015100000001
   660   1      12.151579099999999      9.5860501300000003      8.2087907199999997
   661   1      16.336523880000001      9.2710173000000005      8.1340334300000006
   662   1      20.183128709999998              9.29982212      8.2866697200000008
   663   1      24.427531940000001      9.3946755700000004      8.1311275300000005
   664   1      28.293407630000001      9.2952096100000006      8.3782155300000003
   665   1              2.05128084      12.860076039999999      8.1348511099999996
   666   1      6.0765284199999998             12.91372031      8.0915988300000006
   667   1      10.179196579999999      12.931903070000001      8.1769315599999999
   668   1             14.19873106             12.86749949      8.2494288499999993
   669   1             18.42869305      12.794087230000001      8.2381177399999999
   670   1      22.455331489999999             12.83609012      8.1245285999999997
   671   1      26.458243840000002      12.941955589999999      8.2444279199999997
   672   1      30.345472480000002      12.882575320000001      8.3493533600000003
   673   1    0.030891689999999999             16.44886318      8.1175675100000007
   674   1      3.9827500800000002      16.336629890000001      8.1519593100000005
   675   1      8.0352594400000008              16.4184749      8.2594147499999995
   676   1      12.309806869999999      16.336543299999999      8.2365643800000008
   677   1      16.326734500000001      16.295097429999998      8.3407775700000002
   678   1      20.383603130000001             16.32088564      8.1895865099999998
   679   1      24.435859220000001      16.341607530000001      7.9950834400000002
   680   1      28.520262339999999             16.35678802      8.0567224900000003
   681   1      2.0668500999999999             19.77177914      8.1792577200000007
   682   1              6.14411985      19.969323289999998      8.2301762600000004
   683   1      10.149515989999999      19.916677700000001      8.3295923900000002
   684   1      14.212103409999999      20.060231139999999      8.3240730900000006
   685   1             18.36914939      19.883174350000001      8.2077959299999996
   686   1             22.26740418      19.986235659999998      8.3655010700000005
   687   1      26.251465320000001      19.813210250000001              8.23623482
   688   1      30.418518250000002             20.03503108      8.2021285499999994
   689   1      32.448796569999999      23.327926179999999      8.1194498999999993
   690   1      4.0350230299999996      23.252456970000001      8.2891756999999995
   691   1      8.0376037700000005      23.482755149999999      8.0563964499999994
   692   1             12.22781524      23.571600830000001      8.2149054699999997
   693   1             16.28797715      23.330106059999999      8.1003897699999996
   694   1             20.28107662             23.53089555      8.3664205999999997
   695   1      24.446541889999999      23.450075030000001      8.1724506100000003
   696   1      28.386651350000001      23.541900510000001      8.2823068499999994
   697   1      1.9120573300000001      26.798050320000002      8.2464696600000007
   698   1      6.1277920300000002      27.034373080000002      8.2119713900000004
   699   1      10.175719450000001      26.968918209999998      8.1798737900000003
   700   1              14.1550593      26.990526419999998      8.0173056900000006
   701   1      18.322936219999999      26.983901339999999      8.2195755199999994
   702   1      22.145707550000001      27.061816879999999      8.1469044400000001
   703   1      26.440604740000001      27.030141889999999      8.1020765699999995
   704   1      30.499613409999998      26.956110339999999      8.1968335299999993
   705   1   -0.039688279999999999   -0.037578260000000002      9.0397506799999992
   706   1      4.0686470799999999             -0.10581883      8.9532805599999996
   707   1      8.0693547599999995    0.097249909999999995      8.9390192299999995
   708   1      12.405304750000001              0.29980656              8.94604395
   709   1      16.177138119999999              0.01399092      8.8807498999999996
   710   1      20.201248549999999    0.053659440000000003      8.8218213799999994
   711   1             24.19887185      28.194382130000001      8.9444122099999994
   712   1      28.476518930000001      27.955495979999998      8.9961533500000002
   713   1      2.1195876999999999      3.4234288099999999      9.1103059500000008
   714   1      6.0187065899999999               3.3623154      9.0369440599999997
   715   1             10.07430166      3.2974711600000002              9.01334825
   716   1             14.20885852      3.4427705300000002      8.9533746399999998
   717   1      18.510015370000001      3.5527769299999998      8.9528652399999995
   718   1      22.197510579999999      3.5797186399999998      8.9678266200000003
   719   1      26.474454819999998      3.6133032799999998      9.0594849699999997
   720   1             30.38083632              3.33446262      8.8673605500000008
   721   1      32.408424719999999      6.9903517400000004      9.0273977799999994
   722   1      4.0987303500000003      6.9338881700000004              8.95993803
   723   1      8.1501921100000008      6.8944512600000003      9.0562371400000004
   724   1      12.125441929999999      7.2455182499999999      8.8286337400000008
   725   1      16.349874969999998      7.0086056299999999      8.8060977999999999
   726   1             20.26307645      6.9447118699999999              8.98423427
   727   1             24.41201139      7.0936776200000002      9.0940272199999992
   728   1             28.59711046      6.9305949299999998      8.9142216800000007
   729   1              1.91160295              10.4954125      9.0924657700000004
   730   1      6.0126578300000002      10.394701510000001      8.9219488499999997
   731   1      9.8883701399999993             10.63621985      8.9128634299999998
   732   1             14.25827284             10.47776509              8.94650021
   733   1      17.987464259999999              10.6272951      9.0478992199999997
   734   1             22.55997344      10.459468729999999      8.9218090700000001
   735   1      26.249777689999998             10.80634809      8.9883421699999992
   736   1      30.448985520000001             10.48840013      8.9837985200000006
   737   1      32.520846339999999      14.023140229999999      8.9246678500000005
   738   1      3.9785197800000001      14.178572259999999      8.9439353599999993
   739   1              8.10646281             14.02098312      8.9041715400000001
   740   1      12.208509530000001      14.050858849999999      9.2071081199999991
   741   1      16.106741849999999      13.949673069999999      9.1305297500000009
   742   1      20.359127099999998             14.01165059      8.8978891299999994
   743   1      24.491176809999999             14.19070906      8.9438426799999995
   744   1      28.492084810000001             14.14707654      9.0057196499999996
   745   1      1.9880196800000001      17.421117710000001      9.1194611200000004
   746   1      6.0140975900000004      17.608668269999999      8.9959091999999998
   747   1      10.232253099999999      17.631348039999999      9.0109973799999992
   748   1      14.196441829999999      17.686503909999999      9.0007710500000009
   749   1      18.279187919999998             17.62140625      8.9254874599999994
   750   1      22.455602939999999      17.457957279999999      8.8695331799999995
   751   1             26.46776315      17.603054109999999      9.0481926500000007
   752   1      30.359030050000001      17.635120629999999      9.0363282700000003
   753   1             -0.01150321      21.143874799999999      9.0391178199999995
   754   1              4.07490796              20.9456031      9.1102678400000006
   755   1      8.1216305200000001      21.263243030000002      8.9499800700000005
   756   1      12.179071009999999             21.17217351              9.04298571
   757   1      16.361767319999998      20.972401990000002      9.1156138799999997
   758   1      20.298650160000001             21.15564388      9.0656065899999998
   759   1             24.44101182             21.13946567      9.0537605600000006
   760   1      28.408977530000001      21.165847899999999      9.0535712900000007
   761   1      1.9232479499999999      24.607505790000001              8.95855639
   762   1      6.0649628299999998      24.584764209999999      8.8442468299999994
   763   1      10.096033390000001             24.62098726      8.8959469000000002
   764   1             14.35624398      24.776919800000002      8.8619467400000005
   765   1             18.16278106             24.62654057      8.8957741000000006
   766   1      22.566083750000001             24.57869415      8.9976812299999995
   767   1             26.37647136             24.83210575      8.9306451300000003
   768   1      30.333549999999999      24.567297190000001      9.0618031800000001
   769   2      21.063398039999999      5.3460112300000002              9.39699843
   770   2             20.29713477      3.7363893699999999      9.4020431299999991
