N2-dn2-coord-10bar/700K/snapshots/frame-130560/run-000/../data.lammps (written by ASE) 

770 	 atoms 
2  atom types
0.0      32.470343392086264  xlo xhi
0.0      28.120142247150884  ylo yhi
0.0      31.213473999158239  zlo zhi


Atoms 

     1   1      2.0293964600000001      1.1716090800000001    0.023552650000000001
     2   1      6.0880008999999999              1.17168918              0.02556874
     3   1      10.146952280000001              1.17170328    0.025416459999999998
     4   1      14.205754900000001      1.1716496700000001              0.02501565
     5   1             18.26456816              1.17166478              0.02504435
     6   1             22.32338141      1.1716496700000001              0.02501565
     7   1      26.382184030000001              1.17170328    0.025416459999999998
     8   1      30.441135410000001              1.17168918              0.02556874
     9   1  9.1780000000000006e-05      4.6866847900000002    0.025581599999999999
    10   1      4.0587011400000002      4.6866847900000002    0.025581599999999999
    11   1      8.1174961000000003      4.6866290399999997    0.025584639999999999
    12   1             12.17638011      4.6866852999999997              0.02491202
    13   1             16.23517979      4.6866942700000003    0.025006210000000001
    14   1      20.293956519999998      4.6866942700000003    0.025006210000000001
    15   1      24.352756209999999      4.6866852999999997              0.02491202
    16   1      28.411640219999999      4.6866290399999997    0.025584639999999999
    17   1      2.0293964600000001      8.2016395800000002    0.026613040000000001
    18   1      6.0881071599999999      8.2016314300000008              0.02543782
    19   1             10.14701835               8.2017045    0.025156850000000001
    20   1      14.205766049999999      8.2017080900000003    0.024990459999999999
    21   1             18.26456816      8.2017077599999997    0.025091249999999999
    22   1      22.323370260000001      8.2017080900000003    0.024990459999999999
    23   1      26.382117969999999               8.2017045    0.025156850000000001
    24   1      30.441029149999999      8.2016314300000008              0.02543782
    25   1  9.2789999999999998e-05             11.71671873    0.025573410000000001
    26   1              4.05870014             11.71671873    0.025573410000000001
    27   1      8.1176017700000003             11.71668698              0.02497914
    28   1             12.17637068             11.71673069    0.025001590000000001
    29   1      16.235177310000001      11.716730249999999    0.025074039999999999
    30   1      20.293959009999998      11.716730249999999    0.025074039999999999
    31   1      24.352765640000001             11.71673069    0.025001590000000001
    32   1      28.411534549999999             11.71668698              0.02497914
    33   1      2.0293964600000001             15.23167155              0.02525285
    34   1      6.0881728300000004      15.231678799999999    0.025062859999999999
    35   1             10.14698486      15.231762639999999               0.0250786
    36   1             14.20578841             15.23176782    0.025201990000000001
    37   1             18.26456816              15.2317707    0.025149979999999999
    38   1      22.323347900000002             15.23176782    0.025201990000000001
    39   1      26.382151459999999      15.231762639999999               0.0250786
    40   1      30.440963480000001      15.231678799999999    0.025062859999999999
    41   1      32.470327990000001      18.746748629999999    0.024951939999999999
    42   1      4.0588083299999997      18.746748629999999    0.024951939999999999
    43   1      8.1175770200000006      18.746803499999999    0.025222040000000001
    44   1             12.17637459      18.746799750000001    0.025428470000000002
    45   1      16.235159400000001      18.746805200000001    0.025487360000000001
    46   1      20.293976919999999      18.746805200000001    0.025487360000000001
    47   1      24.352761730000001      18.746799750000001    0.025428470000000002
    48   1             28.41155929      18.746803499999999    0.025222040000000001
    49   1      2.0293964600000001      22.261939099999999    0.025844880000000001
    50   1      6.0881419299999999      22.261841799999999    0.025489439999999999
    51   1             10.14692954             22.26176895              0.02551757
    52   1             14.20573559      22.261804690000002    0.025639160000000001
    53   1             18.26456816             22.26178625    0.025640119999999999
    54   1      22.323400729999999      22.261804690000002    0.025639160000000001
    55   1      26.382206780000001             22.26176895              0.02551757
    56   1             30.44099439      22.261841799999999    0.025489439999999999
    57   1  5.6450000000000003e-05      25.776936450000001              0.02613327
    58   1      4.0587364700000004      25.776936450000001              0.02613327
    59   1      8.1175325399999991              25.7767713    0.024734180000000001
    60   1      12.176376469999999      25.776831090000002              0.02545323
    61   1      16.235145939999999      25.776775220000001    0.025273360000000002
    62   1             20.29399038      25.776775220000001    0.025273360000000002
    63   1      24.352759840000001      25.776831090000002              0.02545323
    64   1      28.411603769999999              25.7767713    0.024734180000000001
    65   1  0.00024266000000000001              2.34304215     0.80166565000000001
    66   1      4.0585502699999996              2.34304215     0.80166565000000001
    67   1      8.1157394600000003              2.34454954     0.80169402000000001
    68   1             12.17601256      2.3433829099999999     0.80116898000000003
    69   1      16.235258170000002      2.3433209100000001     0.80090046999999998
    70   1      20.293878150000001      2.3433209100000001     0.80090046999999998
    71   1      24.353123750000002      2.3433829099999999     0.80116898000000003
    72   1      28.413396859999999              2.34454954     0.80169402000000001
    73   1      2.0293964600000001      5.8582218700000004     0.80119762000000005
    74   1      6.0870566899999998      5.8583336700000004              0.80194851
    75   1             10.14649655              5.85853131     0.80121584000000001
    76   1             14.20597894      5.8582938599999999     0.80086840999999998
    77   1             18.26456816      5.8583798500000004               0.8010794
    78   1      22.323157380000001      5.8582938599999999     0.80086840999999998
    79   1             26.38263976              5.85853131     0.80121584000000001
    80   1      30.442079629999999      5.8583336700000004              0.80194851
    81   1  0.00019438999999999999      9.3717771800000005     0.80082061000000004
    82   1      4.0585985400000002      9.3717771800000005     0.80082061000000004
    83   1      8.1175070500000004      9.3725002699999997     0.80149060999999999
    84   1      12.176590020000001      9.3733583399999993     0.80088261999999999
    85   1             16.23512199      9.3733789200000004              0.80106506
    86   1             20.29401433      9.3733789200000004              0.80106506
    87   1      24.352546289999999      9.3733583399999993     0.80088261999999999
    88   1      28.411629269999999      9.3725002699999997     0.80149060999999999
    89   1      2.0293964600000001             12.88692854     0.80220621000000003
    90   1      6.0883212999999996             12.88743848     0.80138414999999996
    91   1      10.147128609999999             12.88859852     0.80085256000000005
    92   1             14.20571782      12.888558189999999     0.80113791000000001
    93   1             18.26456816      12.888409899999999     0.80109381000000002
    94   1      22.323418490000002      12.888558189999999     0.80113791000000001
    95   1             26.38200771             12.88859852     0.80085256000000005
    96   1      30.440815019999999             12.88743848     0.80138414999999996
    97   1              0.00012365      16.403222639999999     0.80145666999999998
    98   1      4.0586692700000002      16.403222639999999     0.80145666999999998
    99   1      8.1174337899999998      16.403825260000001     0.80097196999999998
   100   1              12.1761021             16.40390721     0.80133072000000005
   101   1             16.23503496      16.403861750000001     0.80140014999999998
   102   1      20.294101359999999      16.403861750000001     0.80140014999999998
   103   1      24.353034220000001             16.40390721     0.80133072000000005
   104   1      28.411702529999999      16.403825260000001     0.80097196999999998
   105   1      2.0293964600000001      19.919205120000001     0.80066369999999998
   106   1              6.08752564             19.91894023     0.80122479000000002
   107   1      10.146078839999999             19.91919038     0.80159137999999996
   108   1      14.204993419999999              19.9192584     0.80178742000000003
   109   1             18.26456816      19.919377350000001     0.80194975999999996
   110   1      22.324142899999998              19.9192584     0.80178742000000003
   111   1      26.383057470000001             19.91919038     0.80159137999999996
   112   1      30.441610669999999             19.91894023     0.80122479000000002
   113   1              0.00142012      23.434536609999999     0.80178442000000005
   114   1      4.0573728100000004      23.434536609999999     0.80178442000000005
   115   1      8.1165862000000004      23.433936769999999     0.80182306000000003
   116   1             12.17555218      23.433996919999998     0.80156656000000004
   117   1             16.23465491      23.434040110000002     0.80170828999999999
   118   1      20.294481409999999      23.434040110000002     0.80170828999999999
   119   1      24.353584130000002      23.433996919999998     0.80156656000000004
   120   1      28.412550110000002      23.433936769999999     0.80182306000000003
   121   1      2.0293964600000001      26.949875330000001              0.80297246
   122   1      6.0858208300000003      26.950066320000001              0.80215291
   123   1             10.14598146      26.949241430000001     0.80165810000000004
   124   1             14.20520604      26.948673230000001     0.80131923999999999
   125   1             18.26456816             26.94858318     0.80108193999999999
   126   1      22.323930279999999      26.948673230000001     0.80131923999999999
   127   1      26.383154860000001      26.949241430000001     0.80165810000000004
   128   1             30.44331549      26.950066320000001              0.80215291
   129   1   0.0096667400000000001      28.116073499999999      1.3091780200000001
   130   1      4.0272057999999999   -0.085934280000000002              1.32286309
   131   1      8.2404279500000008    -0.11107694999999999      1.5247917799999999
   132   1             12.20468681      28.030400060000002      1.5028738800000001
   133   1      16.248895099999999      28.197117949999999      1.4118473899999999
   134   1      20.385057360000001      28.055475680000001      1.2125523199999999
   135   1      24.366985530000001      28.002737960000001              1.40768461
   136   1      28.410602300000001    0.087094539999999998              1.30531386
   137   1      2.1661891199999999               3.4992443      1.4375360699999999
   138   1      6.0723718900000003      3.5419440999999998              1.54289403
   139   1      10.031960720000001      3.4394392900000001              1.21903896
   140   1             14.19215825      3.5849719000000002      1.4783491799999999
   141   1      18.281655170000001      3.5720314599999998      1.2588608100000001
   142   1             22.43583241      3.4656526099999998      1.6185841000000001
   143   1      26.401451680000001      3.2465152599999998      1.6900375999999999
   144   1             30.40415363              3.50311248      1.4826672000000001
   145   1      32.506078109999997      6.9837812899999996      1.5782584399999999
   146   1      3.9748645499999999      7.2160353700000002              1.50919761
   147   1      8.0987619800000008              7.00160597      1.5387974900000001
   148   1             12.25966859              7.13530379              1.36517741
   149   1      16.293721089999998      7.0523320900000002              1.54553246
   150   1      20.336071109999999      6.9570400399999999      1.4883668299999999
   151   1             24.50322126      6.8628868799999996      1.5422712300000001
   152   1      28.437554030000001      6.8328670699999998              1.49479702
   153   1      2.0642192800000001      10.812203719999999              1.56356534
   154   1      6.2121565199999997      10.518615820000001              1.47761874
   155   1             10.24954939             10.55409334      1.3522494199999999
   156   1      14.315705619999999             10.47568605      1.5331226499999999
   157   1      18.425501090000001              10.5869585              1.44862917
   158   1      22.334780009999999             10.57576377              1.55758664
   159   1      26.409393269999999      10.496401779999999      1.5936474899999999
   160   1      30.490107470000002      10.628504939999999      1.5719367900000001
   161   1             32.49673627      13.958837470000001              1.53600399
   162   1      4.0673643300000002             13.98587728      1.4644547800000001
   163   1      8.1498574900000005             14.16526032      1.6335633000000001
   164   1             12.18158045      14.053110220000001      1.3446680099999999
   165   1             16.38945236              14.2145142      1.6755616099999999
   166   1      20.191587999999999             14.25026162              1.46794665
   167   1      24.291804800000001             14.09196989      1.6512402900000001
   168   1              28.4012061             13.98418828      1.5518052899999999
   169   1      2.1037554599999999      17.547407310000001      1.3486945699999999
   170   1      6.1637700100000004      17.634978440000001              1.62650238
   171   1              10.1348612      17.481823739999999              1.18186613
   172   1      14.216973810000001      17.592568020000002      1.3902897700000001
   173   1      18.487856109999999             17.41393403      1.4164559699999999
   174   1             22.38121705      17.542155919999999      1.5420515400000001
   175   1             26.38546165      17.593898419999999              1.38514154
   176   1             30.59751112      17.583123489999998              1.42825267
   177   1      32.516248519999998      20.990580900000001              1.72738831
   178   1      3.9968381900000001      21.045601250000001              1.54659345
   179   1      8.1375171599999998      21.146826600000001              1.50710509
   180   1      12.406528079999999      21.160198680000001              1.67279851
   181   1      16.195633449999999      21.200253539999999              1.51310089
   182   1      20.238628640000002      21.043297620000001              1.39324033
   183   1      24.290298459999999             21.33608942              1.68094861
   184   1      28.357330180000002      20.975798529999999      1.6845184099999999
   185   1      2.0273026199999999      24.625154340000002               1.5389643
   186   1              6.06054754      24.439897739999999              1.40588505
   187   1             10.14064415             24.52065782              1.46683714
   188   1             14.10415034             24.70615411      1.6265697800000001
   189   1      18.270443180000001      24.566309740000001      1.5064348299999999
   190   1      22.180259199999998      24.676761330000001      1.3513365900000001
   191   1             26.45978981             24.72291126      1.4383855800000001
   192   1      30.340913650000001             24.48039657      1.4076422399999999
   193   1      2.0049343799999999              1.18077652              2.38993258
   194   1      6.0653032500000004      1.0285325999999999      2.3426917399999998
   195   1      10.130079739999999              1.06072758      2.3952438800000002
   196   1             14.35767506      1.2361802900000001      2.3294994600000001
   197   1      18.381124499999999              1.07194718      2.3664949599999998
   198   1             22.22334974      1.0674108099999999      2.4909403000000001
   199   1      26.498739669999999      1.1369880400000001              2.56620925
   200   1      30.517658269999998     0.98286894999999996      2.4869393400000002
   201   1      32.304203569999999              4.67953625      2.3680867700000001
   202   1      4.1401391199999997      4.8743382899999999               2.2993549
   203   1      8.0273425199999995      4.5969613899999997              2.43405798
   204   1             11.95465611              4.63497849      2.3351481700000001
   205   1      16.258902710000001      4.5397586900000002              2.35953883
   206   1      20.363056289999999      4.7726760600000002      2.4294266200000001
   207   1      24.356355879999999      4.6146279000000003      2.4738445200000001
   208   1      28.303848779999999      4.5841747799999997              2.47490911
   209   1              2.01183004      8.3008799900000003      2.5090138500000001
   210   1      6.1546118099999996      8.2242307500000003               2.5043053
   211   1      10.159099189999999      8.0913794699999997      2.4689168399999999
   212   1      14.269916520000001      8.0862150100000001              2.39137909
   213   1             18.25191839      8.2477190199999999      2.6166892499999999
   214   1      22.636693749999999      8.1106106699999998              2.32706736
   215   1             26.40278163      8.3264154999999995      2.4541731499999999
   216   1             30.40192291      8.1449916499999997      2.3956226200000001
   217   1      32.533723870000003             11.63034334      2.4917473999999999
   218   1      4.2548706899999997      11.532462819999999      2.5276531000000002
   219   1      8.1273923099999994      11.838241010000001      2.4382922499999999
   220   1      12.233407890000001             11.68019338      2.3826346599999999
   221   1             16.29417621      11.664152830000001      2.3322322199999999
   222   1             20.29957765      11.754962369999999      2.4470421899999999
   223   1      24.392298579999999             11.71257612      2.2734515800000001
   224   1             28.31903281      11.578495090000001              2.22588703
   225   1      2.0812663200000001      15.038072919999999      2.3274091800000001
   226   1              6.13394993              15.1440754              2.39702415
   227   1      10.318229540000001             15.18504705              2.59121208
   228   1             14.15243289              15.3499622      2.4641953499999998
   229   1               18.315358      15.273171380000001      2.5537019600000002
   230   1      22.316484060000001             15.23691904              2.52213932
   231   1             26.41118857             15.25042285      2.3897325899999999
   232   1             30.30322421      15.049520060000001      2.6773672500000001
   233   1               0.1662421      18.619057640000001      2.3639058099999999
   234   1      4.1539660700000001             18.58175477      2.3320962999999999
   235   1      8.0857416200000003      18.672210929999999      2.4098680699999999
   236   1      12.149216640000001      18.886447159999999      2.3454590299999998
   237   1             16.39596912      18.753256669999999      2.4456121799999999
   238   1      20.302796749999999      18.815455910000001      2.3205542399999999
   239   1      24.205236370000002      18.912095149999999      2.3281561399999999
   240   1      28.384021950000001      18.840630650000001      2.3314424699999998
   241   1      2.0114032399999999      22.321207449999999      2.5160002499999998
   242   1      6.2260457599999999             22.20824537              2.36633206
   243   1      10.187800259999999      22.254988170000001              2.32634775
   244   1             14.38829185      22.159889830000001      2.4328240999999999
   245   1             18.36817885             22.12576473      2.3798786500000002
   246   1      22.237154319999998      22.442151540000001      2.5014586099999998
   247   1      26.365821629999999      22.371732080000001      2.3739384800000001
   248   1      30.289493159999999      22.188406069999999      2.5728877200000002
   249   1      32.511013259999999      25.773881079999999      2.2993655300000002
   250   1      4.0130606000000002      25.890813510000001      2.4474229799999998
   251   1      8.1237301100000003             25.76711543      2.4193233099999998
   252   1      12.072145580000001      25.754435019999999      2.3400455600000001
   253   1             16.20646726             25.74032532      2.2488169199999999
   254   1      20.340702499999999             25.85193598      2.4881165099999998
   255   1      24.419644430000002             25.81970767      2.3508224800000002
   256   1      28.501458679999999      25.816010210000002      2.4386466599999999
   257   1             -0.04907102      2.3192405200000001      3.3571662400000002
   258   1      4.0879054400000001      2.3004108699999999      3.2874147499999999
   259   1      8.1439162199999995      2.3146944500000002      3.2669026200000002
   260   1      12.285356889999999      2.4372287699999999      3.2560378299999999
   261   1             16.46936552      2.3441513600000001              3.14655051
   262   1      20.318323620000001      2.4366669700000001      3.4350673899999999
   263   1      24.215580620000001      2.4411999500000001      3.4084197600000001
   264   1      28.350780570000001              2.31946115      3.2294622799999999
   265   1      2.1796307800000001      5.8857147300000001      3.3308190600000001
   266   1      6.0946495000000001      5.8070225200000003      3.2847578799999999
   267   1      10.087624160000001      5.9140758800000004      3.1500137499999998
   268   1             14.13362468      5.7709181999999997              3.15956422
   269   1      18.336161359999998      5.7163661000000001      3.3055582800000001
   270   1      22.489631429999999      5.8987848899999999      3.1896995399999999
   271   1             26.27706092      5.7332452700000003      3.2858407299999999
   272   1             30.48471915      5.5761750000000001      3.4836173399999999
   273   1             32.47634558      9.3744942800000004      3.2957632100000001
   274   1      4.2081486000000004      9.3157731699999999      3.3498530999999998
   275   1      8.3281751100000001      9.5029995700000001      3.2158110600000001
   276   1             12.19698303      9.3061662100000007      3.1828348399999999
   277   1      16.108194619999999      9.3914939200000003      3.3217545999999998
   278   1      20.366483179999999      9.3728288099999997      3.2323479800000001
   279   1      24.485871419999999      9.5228645099999998      3.5478980899999999
   280   1             28.19022747      9.3229653399999997              3.36624291
   281   1      2.0326003799999999      12.779868390000001      3.2607635899999998
   282   1      6.0132707400000003             12.78059828      3.4046978000000001
   283   1      10.379516519999999             12.90710773      3.2032238999999998
   284   1             14.29582855             12.92256723              3.28355153
   285   1      18.184374729999998             12.81029558      3.2360582400000002
   286   1      22.229751709999999             12.82680092      3.3035755299999998
   287   1      26.386739739999999             12.94528626              3.15513317
   288   1             30.38519131             12.66120197      3.1920635000000002
   289   1    0.060699360000000001      16.238580800000001      3.2164472000000002
   290   1      4.0030859100000002      16.269679660000001      3.1219976599999999
   291   1      8.1462757999999997      16.327800870000001      3.2585350900000001
   292   1      12.122678410000001      16.434705950000001      3.3089075800000001
   293   1      16.217759480000002      16.475212760000002      3.2701448100000001
   294   1      20.430133219999998      16.442982220000001      3.2649544399999999
   295   1      24.302139310000001             16.43143044      3.3605034599999999
   296   1      28.425187470000001             16.41594263      3.3896476400000002
   297   1      2.1905436200000001      19.917884749999999      3.3158454000000002
   298   1              6.10052898             19.80403081      3.4068222600000002
   299   1             10.05852578             19.84880132      3.2148407099999998
   300   1      14.250876659999999      20.040897189999999      3.2633047899999998
   301   1      18.374045590000001      19.947281239999999      3.1342358400000001
   302   1      22.223992469999999      19.869112959999999      3.3213655399999999
   303   1      26.326051419999999      20.037849659999999              3.23749215
   304   1             30.29233018              20.0044702      3.2180602899999999
   305   1      32.374588459999998             23.39880316      3.2874434300000002
   306   1      4.0273230099999999      23.267710439999998      3.2034044399999999
   307   1      8.1794247099999993      23.543192470000001      3.3625884099999999
   308   1              12.1484963      23.415368560000001              3.21805107
   309   1      16.317505279999999             23.60273849      3.2712489499999999
   310   1      20.338900550000002             23.64736255      3.2661388900000001
   311   1      24.325646590000002      23.547401730000001      3.3134053099999998
   312   1              28.2365116      23.534901120000001      3.1601013999999998
   313   1      1.9519975899999999             26.94570487      3.1625077699999999
   314   1      6.0507213200000001      26.902031130000001      3.2084979200000001
   315   1      10.154252250000001      26.961141959999999      3.3922982500000001
   316   1             14.14771788      26.811088259999998      3.1579733299999999
   317   1      18.312655769999999             27.03371799      3.2281701300000001
   318   1      22.464713010000001      26.846418409999998              3.34045383
   319   1      26.519768509999999      26.992187049999998      3.2478605200000001
   320   1      30.389966269999999             27.00408642              3.28193746
   321   1              0.11977887             28.10268082      4.1145935099999997
   322   1      4.1488581399999998      28.054617060000002              4.16988702
   323   1              8.08714786             -0.17936189      4.0844251900000001
   324   1             12.31556552      28.164667909999999      3.9869163599999999
   325   1      16.054558570000001      28.021438199999999      3.8877731400000002
   326   1      20.351341699999999             -0.20670933              3.98754791
   327   1             24.38937134      28.113954360000001      3.9972538800000001
   328   1             28.35969837             28.01616237      4.1433677099999997
   329   1      2.0721598800000001              3.67708002      3.9535235000000002
   330   1      6.0807104900000004      3.4984650199999998      4.0532268199999999
   331   1             10.11947861              3.43949909      4.0677629299999998
   332   1             14.24005002      3.4979534499999998      4.1197261699999999
   333   1      18.196153039999999      3.5301182899999999      4.1512931699999998
   334   1      22.389465619999999      3.6908661199999999      4.1610547599999999
   335   1             26.32275739      3.6276758299999998      4.3082670199999997
   336   1      30.344169220000001      3.4579516099999998      4.0020914300000001
   337   1    0.078339140000000002      6.9933402500000001              4.18627342
   338   1      4.1498206099999999      7.0616438800000001      3.9495092399999998
   339   1      8.1904641399999996      7.0553551900000002      3.9809446899999998
   340   1             12.19373644      7.0815134200000003              3.91437137
   341   1             16.21611751      7.1562001300000002      4.0896672299999999
   342   1             20.23573408      6.9194585499999999      4.1483382899999999
   343   1             24.39037605      6.9748333599999999      4.2337635899999997
   344   1      28.403525940000002      6.8768334600000003      3.9875596099999999
   345   1      2.0822130200000002             10.46300714      4.1347408300000001
   346   1      6.1526873399999999             10.38740679      4.1402999100000004
   347   1      10.365190309999999      10.517143020000001      4.0700317400000001
   348   1      14.306384230000001             10.57148834      4.0771848100000003
   349   1             18.23915478      10.487435319999999      3.9771851599999999
   350   1      22.322158269999999      10.505912739999999      4.0903449600000004
   351   1             26.27710373             10.69538464      4.0170012399999999
   352   1      30.361790429999999             10.38144351      4.1213655899999999
   353   1   -0.032269859999999997      13.890894490000001              4.13436702
   354   1      4.0219890899999999             13.96062242      4.1029117199999998
   355   1              8.16835339      13.899050730000001              3.98081627
   356   1      12.218787560000001      14.163977020000001      4.1576827600000001
   357   1             16.19540026             14.16925721      4.1981107199999999
   358   1             20.25632603      14.023467630000001      4.0137661700000002
   359   1             24.16834996      14.183918820000001      4.0985457700000003
   360   1              28.4097875             13.98804032      4.0030467999999999
   361   1      2.1188890800000002             17.61898961              4.06568021
   362   1      5.8437687599999997      17.462357310000002      4.2137490099999999
   363   1             10.19341071      17.658633470000002      4.0922327599999999
   364   1      14.135540300000001             17.61222416      4.0160364099999999
   365   1              18.3224321      17.707431369999998      4.0975123900000003
   366   1      22.276502959999998      17.583787770000001      4.1125643299999997
   367   1             26.36914999      17.831174799999999      4.0659934099999999
   368   1              30.6542484             17.70911499      4.0202310900000002
   369   1      32.429809400000003      21.092264910000001      4.1539578400000003
   370   1      4.1938979600000001      21.108283190000002              3.91378556
   371   1      7.9689194800000003      21.019685330000001      4.1003188000000002
   372   1      12.038761279999999      21.107461749999999      4.0596107899999998
   373   1             16.22053159      21.068342829999999      4.1817587100000004
   374   1             20.33829574      21.213157630000001      3.9669565900000001
   375   1      24.268761040000001             21.10222636      4.0466902400000002
   376   1      28.300972770000001             21.23081595      4.0671757099999999
   377   1      1.9880993199999999      24.516450710000001      4.0305746100000004
   378   1      6.1661404199999996             24.49956233      4.0759854300000002
   379   1              10.1921985      24.634028000000001      4.0436833500000002
   380   1      14.179619260000001      24.595529970000001      4.1195160800000004
   381   1      18.349402040000001      24.631698929999999      4.0836347699999997
   382   1      22.315063039999998      24.565522560000002      4.2388227000000001
   383   1      26.351713449999998      24.648125929999999      4.0365112600000002
   384   1      30.188790910000002      24.701554600000001              3.96586529
   385   1      2.2503033299999999              1.37701527      4.8065968899999998
   386   1      6.1753220300000002      1.1167244000000001      4.8504058099999998
   387   1             10.28869231              1.24610062      4.9459350899999999
   388   1             14.18591795              1.04418751      4.8841004999999997
   389   1             18.25441661      1.1728026600000001      5.0358974600000002
   390   1             22.36840235               1.1270677      5.0354947699999997
   391   1             26.33323867      1.0476235199999999      4.9460688399999997
   392   1      30.469745289999999      1.3143834599999999      4.8666156100000002
   393   1      32.439513230000003              4.75536329      5.1327359299999999
   394   1      4.0753828900000002      4.7391377400000003      4.8034331799999999
   395   1      8.1181896299999998      4.6030130399999996      4.9467950800000002
   396   1               12.048513      4.8126032399999996      4.7419568400000003
   397   1             16.07538409      4.7403301200000003      4.8157204499999997
   398   1      20.166100459999999      4.7389546100000004      4.9300683300000001
   399   1      24.289889649999999      4.7864340900000002      5.0663836800000004
   400   1             28.32136818      4.5187546000000003      5.0548604199999998
   401   1      1.7982175499999999              8.01335014      5.1903162700000003
   402   1      6.3350155399999997      8.0049100099999997      4.9210247599999999
   403   1      10.243553779999999      8.2052744499999992              4.80120842
   404   1      14.155952279999999      8.2828834800000006      4.9023360499999997
   405   1      18.390620219999999              8.11686701      4.8535212899999998
   406   1      22.297615440000001      8.3225511500000007      5.0503253199999998
   407   1             26.21034877      8.1996024599999995      4.9768956500000003
   408   1             30.26794645      8.2077172399999991      5.0413649200000004
   409   1      32.373377920000003             11.56407765      4.8704215499999997
   410   1      3.9543733900000002      11.596153019999999      4.7278962099999999
   411   1      8.3449871800000004      11.613579850000001      5.0233388699999999
   412   1      12.278441089999999      11.819875639999999      4.7656928499999998
   413   1      16.188806759999999      11.791972080000001      5.1349534700000001
   414   1      20.293577299999999             11.71598204      5.0164353799999999
   415   1             24.23581093      11.784232360000001      4.9592661900000001
   416   1      28.426127480000002      11.856220370000001      5.0728541600000003
   417   1      2.0659627299999999      15.043864429999999      5.0188200099999998
   418   1              6.02203833             15.10573529      5.0129467400000003
   419   1      10.116750939999999             15.28793114      5.0255521200000004
   420   1             14.23063397             15.25880751      4.9874475900000004
   421   1      18.302937180000001             15.24313691      4.9032018600000002
   422   1      22.315460330000001             15.22335842      4.9019185399999996
   423   1      26.391372669999999      15.302016800000001      5.0255669899999997
   424   1      30.417523159999998      15.295584529999999      4.9888507899999999
   425   1     0.16763852000000001      18.725765469999999      4.9815887700000001
   426   1      4.0349035999999998             18.79863379      4.9142396399999999
   427   1      8.1693629100000003             18.51982362      4.9589330399999998
   428   1             12.11452244             18.73943684      4.9102449799999999
   429   1      16.261094580000002      18.795086390000002      4.8793040100000002
   430   1      20.250180010000001      18.869091910000002      4.9207840899999997
   431   1      24.347957409999999      18.831357700000002              4.85796983
   432   1             28.40280988      18.918083859999999      4.9895565900000003
   433   1      2.0204104200000002             22.12233384      4.8989760100000002
   434   1      6.1063871399999998      22.243085969999999              5.08404291
   435   1      9.9518823100000002      22.200985379999999      5.0549905900000001
   436   1      14.152178169999999      22.285686399999999      4.9784227699999999
   437   1      18.174359460000002      22.296199680000001      4.9245581300000003
   438   1      22.255049759999999      22.158490159999999              5.02560246
   439   1      26.234416979999999      22.287417820000002      4.8414047800000004
   440   1      30.398928779999999             22.17727979      5.0199302599999998
   441   1      32.563438779999998             25.70948091      4.8340247400000003
   442   1      3.8956151499999998             25.54791488              4.96561056
   443   1      8.2386710700000005             25.89804488      5.0489889400000001
   444   1              12.0886523      25.650009959999998      4.8344052099999999
   445   1      16.239017390000001      25.857441590000001      4.7587849999999996
   446   1      20.354602870000001             25.75613865      4.9333955999999999
   447   1      24.466141310000001      25.791078089999999      4.8435102099999998
   448   1      28.316099430000001      25.808326659999999      4.9994157399999999
   449   1    0.075343740000000006      2.3647129100000002      5.8266618799999996
   450   1      4.0897351799999999              2.31907862              5.57977524
   451   1      8.1476521399999999      2.2116243799999999      5.6134424599999999
   452   1             12.24065762      2.4393284999999998               5.6338317
   453   1      16.314169870000001      2.3998575400000002      5.5606016800000004
   454   1             20.40780577      2.4842632600000001      5.9375189300000004
   455   1             24.23076678      2.3945773899999998      5.8824590399999996
   456   1      28.357711009999999      2.2197188300000001      5.6873826000000003
   457   1              2.11637019              5.64004394      5.9256770100000002
   458   1      6.2192431600000004      5.5989049499999997      5.7331555999999999
   459   1             10.08196927      5.7510832199999999      5.7281775899999996
   460   1             14.10407552              5.62472146      5.6555782900000002
   461   1      18.187778269999999      5.9747100800000004      5.7067794200000002
   462   1             22.30456715      5.9944952599999999                5.955419
   463   1      26.425754860000001      5.9190400600000004      6.0664013199999998
   464   1      30.349798079999999      5.7344625799999998      5.9390460899999997
   465   1             32.36351011      9.3992242400000006      5.6953777800000003
   466   1      4.1174802899999996      9.2275599199999991      5.7959505499999997
   467   1      8.2502356100000007      9.3192256499999999      5.8289821999999996
   468   1             12.22973578      9.2897016299999997      5.6162217600000002
   469   1      16.272800839999999      9.3716384000000001      5.7219816000000003
   470   1      20.204400079999999      9.4803612299999998      5.8192618999999999
   471   1      24.407869940000001      9.4187502399999996      5.9989246200000004
   472   1              28.3271406      9.1202362200000007      5.9726147300000001
   473   1              1.91687757             12.72432244      5.7486588899999997
   474   1      6.0598995499999999             12.52102998      5.6687357199999999
   475   1             10.31710305             12.82855238      5.7314007900000004
   476   1             14.11900812              12.9205886      6.0452083600000002
   477   1      18.074180479999999             12.96700959      5.7794156699999997
   478   1      22.243575190000001      12.882191430000001      5.8024326999999998
   479   1      26.424121270000001             12.91371756      5.8075562700000001
   480   1      30.285626440000001      12.825099890000001              5.89758754
   481   1      32.557555700000002             16.32606045      5.7115844999999998
   482   1      4.0898194600000002      16.227988830000001      5.8907991900000001
   483   1      8.0785238400000008      16.328383729999999      5.7769271699999996
   484   1      12.076525289999999      16.325529920000001      5.8053191699999998
   485   1      16.198265849999999      16.376354289999998      5.7284183999999998
   486   1      20.261184910000001      16.402099339999999              5.70141863
   487   1      24.443913200000001      16.475773350000001      5.7598801899999996
   488   1      28.507194009999999      16.424202409999999      5.8561798200000004
   489   1              1.95496673      19.821636130000002      5.9728117799999998
   490   1      6.0213595800000004             19.84720819      5.8139169700000002
   491   1      10.127866040000001      19.961886880000002      5.9224895999999996
   492   1             14.14342652      19.693131489999999      5.8467180799999996
   493   1      18.158465830000001      19.976906490000001      5.6293957399999996
   494   1      22.463743139999998      19.983890330000001      5.7543010199999998
   495   1      26.209393859999999      19.977731670000001      5.7737790699999998
   496   1             30.32666343              19.8198963      5.8063450100000003
   497   1             32.45786828      23.301228909999999              5.75001446
   498   1      3.9686695699999999      23.317462410000001      5.8333258700000004
   499   1      8.1191353700000004      23.520931310000002      5.8247499100000004
   500   1      12.079849210000001      23.416532889999999      5.8081770199999996
   501   1      16.292705460000001      23.703811819999999      5.7939299799999997
   502   1      20.280462839999998             23.16266998      5.6044842700000004
   503   1             24.43820504             23.45639259      5.7372737000000003
   504   1      28.239030270000001             23.35766242      5.7255474399999997
   505   1      2.0779074999999998             27.15418597      5.7777927099999999
   506   1      5.9593150599999998             26.88387247      5.7292406299999996
   507   1      10.215982869999999      26.856688940000002      5.7849185099999998
   508   1             14.16821079      26.928398139999999      5.6895489699999997
   509   1      18.295098190000001             26.81635532      5.6770918500000001
   510   1      22.336221200000001      26.890865049999999      5.8776330899999998
   511   1             26.27627245      26.980143439999999              5.75712826
   512   1      30.444692589999999             26.93667288      5.7619455500000001
   513   1      32.475731860000003      28.066814579999999      6.5369096000000004
   514   1      3.9146013499999999               0.1565966      6.6482839299999998
   515   1      8.1592950000000002      27.948785279999999              6.64697607
   516   1      12.089053659999999             28.10108116      6.6302070000000004
   517   1      16.110783999999999     0.15634722000000001      6.5555876099999999
   518   1      20.213389859999999              0.10639347      6.5254130699999999
   519   1      24.284301750000001              0.11292184      6.6388232900000004
   520   1             28.35852706             27.95690768      6.5852220600000004
   521   1      2.1996955699999998      3.4469546499999999      6.6739437099999996
   522   1      6.0761922200000003      3.2324985399999999      6.5571226300000003
   523   1      10.043825610000001              3.54138084      6.6505333899999997
   524   1      14.309623719999999      3.4284610199999999      6.8352676499999996
   525   1      18.299623709999999                 3.54589      6.7874579900000001
   526   1      22.432875760000002      3.6541511799999999      6.7090506899999998
   527   1      26.387248499999998      3.5554274700000001      6.6829173900000001
   528   1      30.556909359999999      3.3116243299999999      6.6946460700000001
   529   1             -0.05004049      6.9702674499999997      6.8215818500000003
   530   1      3.9726755900000001      7.0257460800000002      6.6057736599999997
   531   1      8.0979036700000009      6.9630225499999998      6.4878036000000003
   532   1             12.11708717      6.9180610900000001      6.3160987799999999
   533   1      16.110569439999999      7.0514616800000001              6.52768704
   534   1      20.154554959999999      7.1478083300000002      6.6530926800000003
   535   1             24.31278726      7.0005711499999999      6.6142582399999998
   536   1      28.402993179999999      6.7900436800000001      6.9206642799999996
   537   1              1.99806168             10.31149592      6.6618815600000003
   538   1      6.1375716000000002      10.463392170000001      6.6578560700000002
   539   1      10.277800389999999             10.47096545      6.5046292899999996
   540   1             14.10730762             10.49873539      6.7595401600000002
   541   1      18.178126819999999      10.689520399999999      6.3696440699999997
   542   1             22.38573208      10.517698940000001      6.6569461700000003
   543   1      26.476065330000001      10.612556469999999      6.5455262200000002
   544   1      30.396611069999999      10.396104100000001      6.5278337799999999
   545   1   -0.052724710000000001      13.993649019999999              6.50414564
   546   1      3.9478472500000001      14.065999679999999      6.5812528700000001
   547   1      8.1205682800000005      13.938903249999999      6.4667224699999997
   548   1      12.176075150000001      14.156418070000001      6.5946598500000002
   549   1      16.052923150000002             14.19661063      6.7050916699999998
   550   1              20.1859894      13.999586580000001      6.5474739599999996
   551   1      24.310887300000001             14.23853594      6.6107548899999999
   552   1      28.308087409999999             13.92746724      6.7030793800000001
   553   1      1.9124772999999999      17.445581109999999      6.6496960999999999
   554   1              6.05350988      17.473776059999999      6.6480645100000002
   555   1             10.12103417      17.569454790000002      6.7179331800000002
   556   1      14.229561500000001             17.39135379      6.6275700000000004
   557   1              18.3742907             17.69021772              6.53441487
   558   1      22.330246989999999             17.60559993      6.6288723000000003
   559   1      26.140118040000001      17.750968010000001      6.7396135299999997
   560   1      30.497932890000001      17.655931580000001      6.9127729699999998
   561   1      32.456005859999998      21.229904690000001      6.7250632000000001
   562   1      3.9349247599999999      21.025664819999999              6.69306964
   563   1      8.0011417799999993      21.150215549999999      6.8795486099999996
   564   1             12.17944404             21.07377009      6.6654252700000001
   565   1      16.383046910000001      21.065210700000002      6.6357319300000004
   566   1             20.11573542      20.907905280000001      6.4940125000000002
   567   1             24.27781478      21.287160419999999      6.5126648700000001
   568   1      28.235558099999999             21.25947137      6.7879073300000003
   569   1      1.9766651099999999      24.636441340000001      6.7733294199999996
   570   1      5.9587116699999996              24.5015657      6.6759440100000003
   571   1             10.04836807      24.669970379999999      6.8937841799999999
   572   1      14.128775539999999      24.534670340000002      6.4876829000000003
   573   1             18.40346602      24.601325620000001      6.6640501700000003
   574   1      22.101094199999999      24.560148819999998              6.47990259
   575   1      26.387112389999999      24.756498730000001               6.5411576
   576   1      30.393232189999999      24.446675339999999      6.6548863300000001
   577   1      1.9776686400000001               1.1228768      7.3653098200000002
   578   1      6.3209762200000004      1.0364380200000001      7.6898549000000003
   579   1      9.9907158099999993      1.0025197100000001      7.4496966000000002
   580   1             13.95588405      1.0128874699999999      7.4867073900000003
   581   1             18.19447177      1.2254591699999999      7.4788771399999998
   582   1             22.22444857      1.3514639100000001      7.6468099599999997
   583   1      26.343419269999998              1.27673908      7.5763785400000003
   584   1      30.406512939999999              1.00969273      7.4639052399999999
   585   1             32.40044718      4.8189992400000001      7.6987460900000002
   586   1      4.1573823399999998      4.5605696599999996      7.5575929899999998
   587   1      7.7805249600000002      4.6143438699999999      7.3464499400000003
   588   1      16.028600560000001      27.849804070000001      8.9001087400000003
   589   1      16.229522880000001      4.6764600500000002      7.2442619099999996
   590   1             20.26258335      4.9131799599999999      7.6514507900000002
   591   1      24.513770059999999      4.8122474300000002      7.9587155200000002
   592   1      28.547258580000001              4.37559144      7.5610698699999999
   593   1      2.1254731200000001      8.1719426599999991      7.7041855200000002
   594   1      6.0690967799999997      8.1359339199999994      7.4266343800000003
   595   1             10.19995087      8.1211502099999997      7.5128671000000002
   596   1      14.128719050000001      7.9965429099999996      7.5620687599999998
   597   1      18.209168680000001      8.4760864300000005      7.3858225800000001
   598   1      22.507317789999998      8.1691923699999993      7.5681177699999997
   599   1      26.256391170000001      8.2485412300000007      7.5326552299999996
   600   1      30.438510180000002      8.1298373900000005      7.3432992199999996
   601   1      32.397433380000003      11.670864979999999      7.4750350900000004
   602   1      4.1115671499999999      11.613081190000001      7.3891453900000004
   603   1      8.0651639900000003      11.655031940000001      7.5853545499999999
   604   1      12.109732579999999      11.773051799999999      7.7103735999999996
   605   1      20.446899590000001      9.3600385700000004      8.2531961799999998
   606   1      20.203665869999998      11.818357150000001      7.7683153699999998
   607   1             24.31765854      11.913477609999999      7.4771611599999996
   608   1      24.347082790000002      9.5996438600000005      8.4695279400000008
   609   1              1.84340857      15.294514059999999      7.4453185700000004
   610   1      6.2408628000000004      15.172432499999999      7.5517736900000001
   611   1             12.23368333      16.435720570000001      8.3709751899999993
   612   1             14.30401582      15.225453419999999      7.5993205699999997
   613   1      18.413638840000001      15.202631930000001      7.6049534300000001
   614   1      22.368211840000001      15.432056680000001      7.4707504900000004
   615   1      26.403576229999999             15.43341113      7.6797095000000004
   616   1      30.194745340000001      14.980528079999999      7.5868872700000001
   617   1    0.071959620000000002      18.867194250000001      7.6301595899999999
   618   1      4.0835084400000001      18.679347799999999              7.50128518
   619   1      8.2217405499999998      18.658425449999999      7.4828073799999997
   620   1              12.3086111      18.703750200000002      7.4441995500000004
   621   1             16.37633615      18.713992019999999      7.3241658100000002
   622   1      20.300870159999999      18.619332279999998      7.5658358699999999
   623   1      24.203783810000001      19.062373879999999      7.6511185499999996
   624   1      28.165942909999998      18.807966360000002      7.3199688700000003
   625   1      1.9902967300000001      22.546857509999999      7.4810531300000003
   626   1      6.1031266100000003      22.082834080000001      7.5441645299999998
   627   1             12.33280794             20.99819127      9.1103897299999996
   628   1      14.278750580000001      22.435682199999999      7.7347890399999999
   629   1      18.512979510000001      22.078436580000002      7.3786055900000003
   630   1      22.177120110000001      22.125810600000001      7.4591470600000003
   631   1             26.31786104             22.47219875              7.51853514
   632   1      30.444520929999999             22.10350137      7.5948063899999996
   633   1      32.402380790000002      25.674842980000001      7.8868930700000002
   634   1      4.1015784499999999      25.645280159999999      7.5769757599999998
   635   1      7.8498181499999999      25.641548820000001      7.4712310500000001
   636   1             12.30880825      25.444074740000001      7.4855444499999999
   637   1      16.046332060000001             25.95010912      7.1630040099999999
   638   1      20.385259479999998      25.797960249999999      7.5643701400000003
   639   1             24.05952723      25.906219119999999      7.3865182100000002
   640   1             28.45084645      25.699957789999999      7.4929509300000001
   641   1      3.9234348300000002      7.0926685000000003      9.0565811299999996
   642   1             -0.13180528      2.4255658699999998      8.2299034800000008
   643   1      6.1369836700000002      8.2825684099999997      9.8439569700000007
   644   1             13.90071564      26.864989770000001      8.4411732900000001
   645   1      10.159094959999999             22.25696963              7.45816342
   646   1      24.286869190000001      25.710312569999999      9.8512748999999999
   647   1      22.411507749999998      5.9855840799999998      8.3814256900000004
   648   1      8.1775654400000004      2.4210374300000002      8.1646680600000003
   649   1      3.9925992099999998      16.410374449999999      8.1883780399999999
   650   1      4.2214832400000004      23.568541209999999      8.4035471899999994
   651   1      20.463957359999998      23.457924240000001      8.0502809499999994
   652   1      18.291238270000001      5.8515669099999998      8.4197240600000001
   653   1      22.359787579999999             13.07240753      8.2586437400000001
   654   1      2.1343545499999999      26.898180050000001      8.2222497499999996
   655   1      22.165136969999999      26.957905100000001      8.4565090200000004
   656   1      1.9090818000000001      24.496886450000002      8.9123460199999993
   657   1             10.26123185             10.57092297      9.1917609599999999
   658   1             14.25818681      17.722516349999999      8.9513677299999994
   659   1      32.605669630000001      9.2973231300000005      8.3557208599999999
   660   1      16.353028559999998      7.2997180899999998      8.8449135699999992
   661   1      28.189508459999999      27.468891410000001      9.2115993300000003
   662   1      28.462516220000001      1.9144327400000001      8.3928350999999992
   663   1      19.824440549999998             -0.01139685      9.0835542900000004
   664   1      2.1421273300000001      13.127283500000001      8.5484898099999995
   665   1      10.021929159999999             12.82958374      8.2002962200000002
   666   1              14.2701358             19.93225133      8.2631099399999997
   667   1      6.2073657500000001      17.260791170000001      9.0522190200000008
   668   1             16.32492337             11.87369878      7.5481850799999997
   669   1      4.0231169900000001      11.996760119999999      9.7108638900000006
   670   1             28.44346496      8.9404965799999996      8.4167316900000007
   671   1      2.1638253000000001             10.58645265      9.0070527800000004
   672   1      2.0741717500000001      20.140320370000001      8.4059802799999996
   673   1      32.528321630000001      23.057674250000002      8.3989518600000004
   674   1      4.0915161099999997      18.839733410000001      9.7553917400000003
   675   1      24.453703959999999             16.57852806      8.3506186600000003
   676   1      10.255546600000001      26.691611030000001      8.2581932699999996
   677   1      22.270673479999999      8.2756393799999994             10.00797494
   678   1      22.096758919999999      20.058430739999999      8.2141510499999999
   679   1             26.66057451      6.0084425599999998      8.4391353200000001
   680   1      28.452263339999998             11.34378557      7.5499112400000001
   681   1      1.9930022999999999      5.6208527999999998      8.4428386399999997
   682   1      10.196518080000001             15.33637455      7.5786948900000004
   683   1      5.9917087100000002      26.963405779999999      8.2395674099999994
   684   1             14.23469081             12.74360955              8.35159159
   685   1      22.529022430000001      17.456146570000001      9.0651369800000001
   686   1             20.22589168             13.99979066      9.0469048300000008
   687   1             16.10585979      14.106751020000001      9.1256061400000004
   688   1             24.05892566             14.23742749      9.3793503600000001
   689   1      20.137948779999999             21.14080208      9.0477984100000004
   690   1      32.318082619999998              16.5847576      8.3622064500000004
   691   1      30.302082599999999      5.8637194299999997      8.5646128800000003
   692   1      15.968518299999999      2.2431908800000002      8.2890083400000005
   693   1             18.22346211      12.922401349999999      8.1240628400000006
   694   1      22.155225170000001             10.50137402      9.2123306599999992
   695   1             24.46156701      23.613880609999999              8.27135541
   696   1              1.88157211      17.587617980000001      9.0867368600000002
   697   1      8.2403081900000004      6.9488105500000001      9.1632790100000001
   698   1      16.708312429999999      23.698810389999998      8.4408917300000006
   699   1             20.14900665      2.4059943800000001      8.3740125499999998
   700   1      18.319461499999999      26.770118119999999      8.1717409199999995
   701   1      14.360419029999999      5.4239017299999999      8.2383186300000002
   702   1      24.202067970000002      21.225448239999999      9.0106786499999991
   703   1      20.267882749999998      4.7043459299999997      9.8523136699999991
   704   1             26.25338885      20.085993120000001      8.1143386799999995
   705   1      2.2119445500000001      2.8944150199999998      9.0620727399999996
   706   1      4.3111783399999997      2.2429014899999999      8.2133696799999996
   707   1             14.33879265      24.767244999999999      9.1030867999999998
   708   1      18.311170520000001      17.615781720000001      9.2095977399999995
   709   1             22.46687743      3.7469606099999999      9.1823002599999999
   710   1      18.121350790000001               19.935368      8.3445963400000007
   711   1      32.543280629999998      6.9344990400000004              9.21529898
   712   1      32.157520640000001      20.964209589999999      9.2161371899999995
   713   1      30.183067179999998     0.94432291000000002      9.8263304999999992
   714   1      4.2542407000000004             21.12541598      9.0679603899999996
   715   1   -0.039776489999999998              0.03226333              8.98928729
   716   1             12.02734356      23.534191539999998      8.5337448499999997
   717   1      26.049474109999998      27.015426269999999      8.3557304899999991
   718   1      30.262654779999998      12.677363850000001      8.5998907100000004
   719   1     0.10307288000000001              11.7866138      9.7290373199999998
   720   1             30.46510288              3.62910157      9.0519183299999995
   721   1      4.2112458100000003      9.4963168200000005      8.2929200200000004
   722   1      8.2771484500000003      23.262490570000001      8.3329196799999998
   723   1      8.1149509399999999              9.26308227              8.21308975
   724   1      6.2977831999999996             10.63373749      8.9561015000000008
   725   1             12.24608508      6.8085186899999997      8.7141367299999999
   726   1             16.04525297      9.5561931799999993      7.9868676599999997
   727   1             16.19917637             18.98497837      9.7462557499999996
   728   1      26.321628570000001             12.94883235      8.4109842799999992
   729   1      8.1610030299999998             14.01529017      8.9603797499999995
   730   1      12.191906469999999      4.7290890399999999      7.3446293300000001
   731   1             12.10471939      9.2950418599999995      8.0775519800000009
   732   1      18.027276619999999      10.577967689999999      8.7834242099999997
   733   1             16.29203914      16.452406440000001      8.3844092999999997
   734   1      30.553942209999999             24.58454545      9.0776841600000004
   735   1             24.41806339      2.3352337400000001      8.4293142299999992
   736   1      8.1092008300000007      16.274352839999999      8.1862277100000007
   737   1             30.15519673      19.799301839999998      8.3678910999999996
   738   1      30.548256070000001             10.13966553      9.1334219599999997
   739   1      12.033398480000001             14.20428896      9.1345053699999994
   740   1             24.42879426      7.0450963599999996      9.2246238199999997
   741   1             24.31000822             11.78365554      9.8816947200000005
   742   1      26.536773149999998      3.4132088600000001      9.0734824300000003
   743   1      20.321731459999999      7.1174278400000004      9.1523471900000004
   744   1      32.256484180000001      14.205847009999999      8.9694377099999993
   745   1      28.319071430000001             16.49991546      8.2352836499999995
   746   1              5.95937611             12.89081653      8.3971440400000006
   747   1             10.34485866      17.605906900000001      9.0528569999999995
   748   1      9.8396784799999999      19.994729270000001      8.5548536800000008
   749   1             20.32433339      16.379301380000001      8.1878629699999994
   750   1             28.16731283      14.183386179999999      9.1189322599999993
   751   1             26.44522254      24.603050759999999      9.0594274299999995
   752   1      4.5306562599999998      14.412050259999999      9.3105805499999992
   753   1      6.2497380700000003      19.767333480000001      8.2887177300000001
   754   1              6.04888461      3.2090048900000001      9.0985927199999992
   755   1      6.1983776600000002      5.9326129099999996      8.2310200299999998
   756   1      8.3842274299999993             28.09922843      8.8828307100000004
   757   1      3.8672249299999999    0.037998759999999999      9.2604768199999992
   758   1      26.340529950000001      1.0845253800000001              9.87062083
   759   1      26.234888430000002             17.69482945      9.1239666499999998
   760   1      23.998670650000001     0.13217295000000001      9.1459751800000006
   761   1             16.14911721             21.29264908      8.9151757000000007
   762   1             26.54267578             10.45447843      9.2595578399999994
   763   1             10.08714618      5.8519205000000003      8.0981161000000004
   764   1      11.806898350000001      2.2810954799999998      7.9618614499999998
   765   1             18.10496809      3.7607164399999999      9.0624932600000001
   766   1      22.264622639999999      24.550657959999999      9.0682917100000004
   767   1      28.524556220000001      23.500929190000001      8.1097575499999994
   768   1      30.426201939999999      26.852630470000001      8.3526054799999994
   769   2      29.500538779999999      15.389622770000001      9.4768520299999999
   770   2      31.180105789999999             15.66001969      9.4705929999999992
