N2-dn2-coord-10bar/300K/snapshots/frame-33833/run-000/../data.lammps (written by ASE) 

770 	 atoms 
2  atom types
0.0      32.470343392086264  xlo xhi
0.0      28.120142247150884  ylo yhi
0.0      31.213473999158239  zlo zhi


Atoms 

     1   1      2.0293964600000001      1.1716090800000001    0.023552650000000001
     2   1      6.0880008999999999              1.17168918              0.02556874
     3   1      10.146952280000001              1.17170328    0.025416459999999998
     4   1      14.205754900000001      1.1716496700000001              0.02501565
     5   1             18.26456816              1.17166478              0.02504435
     6   1             22.32338141      1.1716496700000001              0.02501565
     7   1      26.382184030000001              1.17170328    0.025416459999999998
     8   1      30.441135410000001              1.17168918              0.02556874
     9   1  9.1780000000000006e-05      4.6866847900000002    0.025581599999999999
    10   1      4.0587011400000002      4.6866847900000002    0.025581599999999999
    11   1      8.1174961000000003      4.6866290399999997    0.025584639999999999
    12   1             12.17638011      4.6866852999999997              0.02491202
    13   1             16.23517979      4.6866942700000003    0.025006210000000001
    14   1      20.293956519999998      4.6866942700000003    0.025006210000000001
    15   1      24.352756209999999      4.6866852999999997              0.02491202
    16   1      28.411640219999999      4.6866290399999997    0.025584639999999999
    17   1      2.0293964600000001      8.2016395800000002    0.026613040000000001
    18   1      6.0881071599999999      8.2016314300000008              0.02543782
    19   1             10.14701835               8.2017045    0.025156850000000001
    20   1      14.205766049999999      8.2017080900000003    0.024990459999999999
    21   1             18.26456816      8.2017077599999997    0.025091249999999999
    22   1      22.323370260000001      8.2017080900000003    0.024990459999999999
    23   1      26.382117969999999               8.2017045    0.025156850000000001
    24   1      30.441029149999999      8.2016314300000008              0.02543782
    25   1  9.2789999999999998e-05             11.71671873    0.025573410000000001
    26   1              4.05870014             11.71671873    0.025573410000000001
    27   1      8.1176017700000003             11.71668698              0.02497914
    28   1             12.17637068             11.71673069    0.025001590000000001
    29   1      16.235177310000001      11.716730249999999    0.025074039999999999
    30   1      20.293959009999998      11.716730249999999    0.025074039999999999
    31   1      24.352765640000001             11.71673069    0.025001590000000001
    32   1      28.411534549999999             11.71668698              0.02497914
    33   1      2.0293964600000001             15.23167155              0.02525285
    34   1      6.0881728300000004      15.231678799999999    0.025062859999999999
    35   1             10.14698486      15.231762639999999               0.0250786
    36   1             14.20578841             15.23176782    0.025201990000000001
    37   1             18.26456816              15.2317707    0.025149979999999999
    38   1      22.323347900000002             15.23176782    0.025201990000000001
    39   1      26.382151459999999      15.231762639999999               0.0250786
    40   1      30.440963480000001      15.231678799999999    0.025062859999999999
    41   1      32.470327990000001      18.746748629999999    0.024951939999999999
    42   1      4.0588083299999997      18.746748629999999    0.024951939999999999
    43   1      8.1175770200000006      18.746803499999999    0.025222040000000001
    44   1             12.17637459      18.746799750000001    0.025428470000000002
    45   1      16.235159400000001      18.746805200000001    0.025487360000000001
    46   1      20.293976919999999      18.746805200000001    0.025487360000000001
    47   1      24.352761730000001      18.746799750000001    0.025428470000000002
    48   1             28.41155929      18.746803499999999    0.025222040000000001
    49   1      2.0293964600000001      22.261939099999999    0.025844880000000001
    50   1      6.0881419299999999      22.261841799999999    0.025489439999999999
    51   1             10.14692954             22.26176895              0.02551757
    52   1             14.20573559      22.261804690000002    0.025639160000000001
    53   1             18.26456816             22.26178625    0.025640119999999999
    54   1      22.323400729999999      22.261804690000002    0.025639160000000001
    55   1      26.382206780000001             22.26176895              0.02551757
    56   1             30.44099439      22.261841799999999    0.025489439999999999
    57   1  5.6450000000000003e-05      25.776936450000001              0.02613327
    58   1      4.0587364700000004      25.776936450000001              0.02613327
    59   1      8.1175325399999991              25.7767713    0.024734180000000001
    60   1      12.176376469999999      25.776831090000002              0.02545323
    61   1      16.235145939999999      25.776775220000001    0.025273360000000002
    62   1             20.29399038      25.776775220000001    0.025273360000000002
    63   1      24.352759840000001      25.776831090000002              0.02545323
    64   1      28.411603769999999              25.7767713    0.024734180000000001
    65   1  0.00024266000000000001              2.34304215     0.80166565000000001
    66   1      4.0585502699999996              2.34304215     0.80166565000000001
    67   1      8.1157394600000003              2.34454954     0.80169402000000001
    68   1             12.17601256      2.3433829099999999     0.80116898000000003
    69   1      16.235258170000002      2.3433209100000001     0.80090046999999998
    70   1      20.293878150000001      2.3433209100000001     0.80090046999999998
    71   1      24.353123750000002      2.3433829099999999     0.80116898000000003
    72   1      28.413396859999999              2.34454954     0.80169402000000001
    73   1      2.0293964600000001      5.8582218700000004     0.80119762000000005
    74   1      6.0870566899999998      5.8583336700000004              0.80194851
    75   1             10.14649655              5.85853131     0.80121584000000001
    76   1             14.20597894      5.8582938599999999     0.80086840999999998
    77   1             18.26456816      5.8583798500000004               0.8010794
    78   1      22.323157380000001      5.8582938599999999     0.80086840999999998
    79   1             26.38263976              5.85853131     0.80121584000000001
    80   1      30.442079629999999      5.8583336700000004              0.80194851
    81   1  0.00019438999999999999      9.3717771800000005     0.80082061000000004
    82   1      4.0585985400000002      9.3717771800000005     0.80082061000000004
    83   1      8.1175070500000004      9.3725002699999997     0.80149060999999999
    84   1      12.176590020000001      9.3733583399999993     0.80088261999999999
    85   1             16.23512199      9.3733789200000004              0.80106506
    86   1             20.29401433      9.3733789200000004              0.80106506
    87   1      24.352546289999999      9.3733583399999993     0.80088261999999999
    88   1      28.411629269999999      9.3725002699999997     0.80149060999999999
    89   1      2.0293964600000001             12.88692854     0.80220621000000003
    90   1      6.0883212999999996             12.88743848     0.80138414999999996
    91   1      10.147128609999999             12.88859852     0.80085256000000005
    92   1             14.20571782      12.888558189999999     0.80113791000000001
    93   1             18.26456816      12.888409899999999     0.80109381000000002
    94   1      22.323418490000002      12.888558189999999     0.80113791000000001
    95   1             26.38200771             12.88859852     0.80085256000000005
    96   1      30.440815019999999             12.88743848     0.80138414999999996
    97   1              0.00012365      16.403222639999999     0.80145666999999998
    98   1      4.0586692700000002      16.403222639999999     0.80145666999999998
    99   1      8.1174337899999998      16.403825260000001     0.80097196999999998
   100   1              12.1761021             16.40390721     0.80133072000000005
   101   1             16.23503496      16.403861750000001     0.80140014999999998
   102   1      20.294101359999999      16.403861750000001     0.80140014999999998
   103   1      24.353034220000001             16.40390721     0.80133072000000005
   104   1      28.411702529999999      16.403825260000001     0.80097196999999998
   105   1      2.0293964600000001      19.919205120000001     0.80066369999999998
   106   1              6.08752564             19.91894023     0.80122479000000002
   107   1      10.146078839999999             19.91919038     0.80159137999999996
   108   1      14.204993419999999              19.9192584     0.80178742000000003
   109   1             18.26456816      19.919377350000001     0.80194975999999996
   110   1      22.324142899999998              19.9192584     0.80178742000000003
   111   1      26.383057470000001             19.91919038     0.80159137999999996
   112   1      30.441610669999999             19.91894023     0.80122479000000002
   113   1              0.00142012      23.434536609999999     0.80178442000000005
   114   1      4.0573728100000004      23.434536609999999     0.80178442000000005
   115   1      8.1165862000000004      23.433936769999999     0.80182306000000003
   116   1             12.17555218      23.433996919999998     0.80156656000000004
   117   1             16.23465491      23.434040110000002     0.80170828999999999
   118   1      20.294481409999999      23.434040110000002     0.80170828999999999
   119   1      24.353584130000002      23.433996919999998     0.80156656000000004
   120   1      28.412550110000002      23.433936769999999     0.80182306000000003
   121   1      2.0293964600000001      26.949875330000001              0.80297246
   122   1      6.0858208300000003      26.950066320000001              0.80215291
   123   1             10.14598146      26.949241430000001     0.80165810000000004
   124   1             14.20520604      26.948673230000001     0.80131923999999999
   125   1             18.26456816             26.94858318     0.80108193999999999
   126   1      22.323930279999999      26.948673230000001     0.80131923999999999
   127   1      26.383154860000001      26.949241430000001     0.80165810000000004
   128   1             30.44331549      26.950066320000001              0.80215291
   129   1   0.0041563800000000003    0.084952150000000004              1.40032618
   130   1      4.0601950100000002   -0.071028469999999996      1.5467124699999999
   131   1      8.1548061900000004    0.035301310000000002      1.3111886399999999
   132   1             12.11591819             28.17116116      1.6067928300000001
   133   1      16.223781219999999      28.038156799999999              1.49844862
   134   1      20.248572150000001      28.105530869999999              1.50666955
   135   1              24.4171668      28.148396049999999      1.5243917600000001
   136   1             28.39774032      28.177418280000001              1.39710752
   137   1      1.9804972300000001      3.5294977300000001              1.43437986
   138   1      6.1364663899999998      3.4999054100000002              1.36007414
   139   1      10.113212000000001      3.4981229699999998      1.4632687099999999
   140   1             14.24498077      3.4241015400000001      1.4339444800000001
   141   1      18.181357779999999              3.63513413      1.5466318299999999
   142   1      22.330917410000001      3.5308187499999999      1.3719231700000001
   143   1             26.27179168      3.5268578000000002              1.42074367
   144   1             30.44626147      3.6092892299999999              1.49254709
   145   1    0.059185340000000003              7.07426581      1.3824624700000001
   146   1      4.0041134999999999              6.92626016              1.43622999
   147   1      8.0961846099999999      7.0061670100000004              1.40698547
   148   1             12.19106116      7.0448048300000004              1.56650445
   149   1             16.27604045      7.0005806499999998              1.51020946
   150   1      20.311665219999998      6.9642770599999997      1.4594696700000001
   151   1      24.234190550000001      7.0358383699999996              1.45357538
   152   1      28.385591030000001      7.0675011200000002              1.45286081
   153   1      2.1803914799999999             10.59823336      1.4560443000000001
   154   1      5.9938554799999997      10.530182890000001              1.55449853
   155   1             10.17672112      10.505674259999999      1.3973677499999999
   156   1      14.162125680000001             10.53328095      1.6038575100000001
   157   1      18.330122410000001             10.54810043      1.4544511200000001
   158   1             22.41478931      10.525825790000001      1.4792251000000001
   159   1             26.35810536      10.630736519999999              1.32027761
   160   1             30.51935671             10.48348285      1.5600375099999999
   161   1 -0.00043237000000000001      14.042431329999999               1.3988365
   162   1      4.1265981099999998      14.082838199999999              1.38981647
   163   1      8.1359291200000001             14.11862846              1.51878019
   164   1             12.20896377             14.01760844               1.4553763
   165   1      16.224673559999999      14.059769279999999      1.4925015800000001
   166   1      20.277253739999999      14.122658530000001      1.4725349400000001
   167   1      24.392538720000001      14.117860520000001      1.4760399099999999
   168   1      28.362880749999999      14.082005649999999              1.48052736
   169   1      2.0266082000000001             17.55662706      1.4619907299999999
   170   1      6.1461079500000002      17.620833940000001              1.39730435
   171   1      9.9735759700000006      17.581748260000001              1.33972779
   172   1             14.13085933              17.5982935              1.41486479
   173   1             18.33998553              17.4980799               1.5808844
   174   1             22.36320465             17.51703174      1.4301799900000001
   175   1      26.379740309999999      17.539060320000001      1.4172880999999999
   176   1      30.409076219999999      17.524738339999999              1.39996045
   177   1      32.411171340000003      21.034856990000002              1.53640142
   178   1      4.0068377399999999      21.044344509999998              1.52107591
   179   1      8.1144214300000002      21.107108459999999      1.5477779300000001
   180   1      12.088782439999999             21.12528202      1.4780679999999999
   181   1      16.244288040000001      21.084421670000001              1.61921523
   182   1      20.251387080000001      21.043158089999999      1.5905113799999999
   183   1             24.25849023             21.03857764      1.5238029399999999
   184   1             28.46187668             21.07061315      1.3948541299999999
   185   1               2.0102392      24.557984699999999      1.6070795600000001
   186   1              6.02375799      24.712014490000001              1.37232804
   187   1      10.205687960000001      24.619294960000001      1.5688362300000001
   188   1      14.173005720000001      24.579962309999999              1.38200853
   189   1      18.282825249999998      24.501357370000001              1.46767457
   190   1      22.239617880000001      24.552415849999999              1.41485639
   191   1      26.368195279999998      24.640344590000002              1.38862449
   192   1      30.559130679999999      24.581677689999999      1.4729069299999999
   193   1      1.9506862700000001      1.1086865299999999              2.51685106
   194   1              6.09426852              1.23100692      2.3875437499999999
   195   1      10.138213159999999      1.0997765799999999              2.40080611
   196   1      14.289052549999999              1.13893965      2.3033913899999998
   197   1             18.15253641      1.2380182399999999      2.3715490699999999
   198   1      22.353728929999999              1.12724796      2.3765399600000001
   199   1      26.426978989999999              1.11033684      2.4172778799999999
   200   1             30.36936686      1.1719469899999999      2.3308845599999999
   201   1   -0.023753949999999999      4.7564989000000004      2.3426040800000001
   202   1      4.0390405600000001      4.6476604500000001              2.39155724
   203   1      8.0843652600000002      4.6118037599999999      2.3841037699999998
   204   1             12.11375657      4.7266743699999996              2.33766337
   205   1      16.104224469999998      4.6565764200000004              2.40355433
   206   1      20.284776969999999      4.7491130000000004               2.3787976
   207   1             24.32152365      4.7345923299999999      2.3788158300000002
   208   1             28.26466804      4.6450325699999997      2.2819967800000001
   209   1              2.05684661      8.1416035000000004      2.3466226699999999
   210   1              6.04412489      8.1251329099999996      2.4416386800000001
   211   1             10.15326284      8.2132126900000006      2.3878187799999999
   212   1             14.13600868      8.2211978099999996      2.5468627000000001
   213   1      18.254807150000001      8.2232822700000003      2.3435647400000001
   214   1             22.36010113      8.1912290399999996      2.4495692199999999
   215   1      26.306318170000001      8.2353327299999997      2.4151704500000002
   216   1             30.34053857      8.1453346999999994              2.42806173
   217   1    0.041962520000000003             11.75704912      2.4672490800000002
   218   1      4.1170588300000004             11.75272255               2.4725929
   219   1      8.1160204500000006              11.6890067      2.3495870399999998
   220   1             12.20343525               11.691777      2.4679369200000001
   221   1      16.179911199999999             11.78685638      2.3891125099999999
   222   1             20.33884759      11.715903089999999      2.3678239900000002
   223   1      24.391185740000001             11.74733095              2.34559126
   224   1      28.394406490000001              11.7679723      2.3303995199999998
   225   1      2.0534751199999999      15.252655799999999              2.40609261
   226   1      6.1283417199999999              15.2726766      2.4185977599999999
   227   1             10.14743011      15.287532240000001      2.3737756000000001
   228   1             14.16605013             15.21313424      2.2873759300000001
   229   1      18.223828130000001      15.284091930000001              2.50258308
   230   1      22.346676710000001      15.270390150000001              2.41262344
   231   1      26.332590939999999             15.41711042      2.4874079500000001
   232   1      30.436508660000001             15.24467289      2.4027542300000002
   233   1      32.506617120000001      18.816725269999999               2.4465534
   234   1      4.0852269000000003             18.76342434      2.3787709100000001
   235   1      8.0947307100000003             18.80562188              2.39652836
   236   1      12.102476129999999      18.723433589999999              2.39547972
   237   1      16.180968759999999             18.67442754      2.2892322900000002
   238   1      20.352242270000001      18.763543290000001      2.4559381899999999
   239   1             24.31909971      18.671867020000001      2.3451047300000001
   240   1      28.400954089999999      18.700255169999998              2.36360043
   241   1      2.0297482499999999             22.17386587              2.45404132
   242   1              6.14390239      22.230920139999998              2.46980545
   243   1             10.15312847             22.27588686      2.4142540100000001
   244   1             14.23238948      22.327498120000001      2.4300323700000002
   245   1      18.287337640000001      22.265391749999999              2.40242968
   246   1      22.322339370000002             22.27340229              2.36075385
   247   1             26.35492532      22.436893430000001      2.4876507800000001
   248   1      30.398588879999998      22.296594949999999      2.4015072900000001
   249   1      32.463888769999997      25.777738859999999      2.4589152699999999
   250   1      4.0049670099999997      25.683791020000001      2.3682919999999998
   251   1      8.0970896799999998      25.847016140000001      2.2660203000000001
   252   1      12.226498210000001      25.659039450000002      2.4228580100000001
   253   1      16.253952890000001      25.669424930000002      2.4074967200000001
   254   1      20.161778699999999      25.665169089999999      2.4628966399999999
   255   1             24.31723684      25.905382599999999      2.4086660800000002
   256   1      28.401258739999999             25.74700352      2.3791275000000001
   257   1    0.035219680000000003      2.3470028300000001      3.2046427400000002
   258   1      4.0398000500000002              2.31808608      3.2115613299999999
   259   1      8.0903026899999997      2.2317292000000002               3.3049119
   260   1             12.21188628      2.3616610499999999      3.2662294799999998
   261   1      16.142147600000001      2.3643945300000002      3.1967477500000001
   262   1             20.21862059      2.2572758500000001              3.19965061
   263   1      24.345695750000001              2.30583319              3.34506645
   264   1             28.44148315              2.26553044      3.3617105999999999
   265   1      2.0769204399999999      5.9214198099999997      3.2259601099999999
   266   1      6.1654654799999999      5.8460296700000001      3.2352326699999998
   267   1             10.20268963      5.7237900699999997              3.33691615
   268   1      14.141846190000001      5.9118795799999999      3.2024131900000001
   269   1      18.251809049999999      5.8429861499999998              3.26496159
   270   1             22.26706819      5.8145198100000002      3.1327216500000001
   271   1              26.3881269      5.7825087399999999              3.20548594
   272   1             30.36219226      5.7108204100000002      3.2951185000000001
   273   1   -0.015459850000000001      9.3897166799999994              3.19080743
   274   1      4.1151156000000002      9.4102368999999992      3.3326014399999999
   275   1      8.0660243600000001      9.3970939100000006      3.2606976599999999
   276   1             12.10586642      9.3581645099999999      3.2666132399999999
   277   1              16.1383084      9.4064352499999995      3.2309742799999999
   278   1      20.351830849999999      9.3921667000000006      3.2083525700000002
   279   1             24.29774982      9.4035762700000003      3.3032243600000002
   280   1      28.332849979999999      9.3871127699999999      3.2722147700000002
   281   1      2.0354242899999999             12.87338372      3.3109210199999999
   282   1      6.1905934800000004             12.91030593      3.2806000599999998
   283   1      10.179656899999999             12.85974244              3.17864799
   284   1             14.16857345      12.842968020000001      3.3124257500000001
   285   1             18.26920286      12.803225149999999      3.2934108700000002
   286   1      22.376692590000001             12.96813817               3.1308384
   287   1      26.329785829999999             13.00342528               3.2782209
   288   1      30.374249219999999              12.9444724      3.1958415800000002
   289   1    0.034181549999999998      16.408265759999999      3.1928843900000001
   290   1      4.0766893900000003      16.468454019999999      3.2437751600000002
   291   1      8.1759757400000002      16.518066090000001      3.1828277100000002
   292   1             12.17161275      16.310336840000002      3.2173507300000002
   293   1      16.154217070000001      16.376552839999999      3.1507640000000001
   294   1             20.23578148      16.406762239999999      3.3080207700000002
   295   1              24.3771275              16.4001254      3.2402177999999999
   296   1      28.503461139999999      16.417976159999998              3.29190513
   297   1      2.1337538299999999      19.956150489999999      3.1983699400000001
   298   1              6.14935644      19.941487420000001              3.18202528
   299   1             10.07916129             19.97832365      3.2359561299999999
   300   1      14.196749840000001      19.882966039999999      3.2321528800000001
   301   1      18.119943169999999             19.84269514              3.20128155
   302   1      22.325558959999999      19.891512169999999              3.29333594
   303   1      26.431983649999999      20.095266550000002      3.2731955699999999
   304   1      30.408268629999998      19.947947880000001      3.2841036099999998
   305   1    0.019711900000000001      23.319577540000001      3.2019103699999998
   306   1      3.9503951499999999      23.319562520000002               3.2368823
   307   1      8.1520781899999992      23.402538740000001      3.2294791599999999
   308   1      12.226223920000001      23.485478229999998              3.37216023
   309   1             16.18293486      23.377991649999998      3.2200640900000002
   310   1      20.302048119999998      23.349715400000001      3.2401149400000002
   311   1      24.276628639999998             23.64633628      3.2612790299999999
   312   1      28.290254239999999      23.424106349999999      3.3309056099999999
   313   1              1.94293041      26.922728150000001      3.2745750299999998
   314   1      6.0617813099999998             27.04278467      3.0791692099999999
   315   1             10.08609395      26.967263729999999      3.3193295100000002
   316   1      14.217652360000001      26.844790870000001      3.1668759099999999
   317   1      18.241761239999999      26.893206889999998      3.2575534199999998
   318   1      22.291768770000001             26.91588127      3.2174875599999999
   319   1      26.406047619999999      26.937446770000001      3.2123053399999999
   320   1             30.43300219      26.901353780000001      3.1792188000000001
   321   1   -0.056958590000000003    0.044549980000000003      4.0321568699999997
   322   1      3.9274908900000001      28.203201549999999      4.0956049099999996
   323   1      8.0067761399999995      28.024695009999999      4.0513912000000003
   324   1             12.26670225      28.055142849999999      4.0486777700000003
   325   1      16.248587700000002             -0.01366062      4.0889691299999997
   326   1             20.26604661             28.13651028      4.0962778999999996
   327   1      24.273556030000002             27.95067826      4.1897319900000003
   328   1      28.360739370000001      27.913198009999999      3.9877393300000001
   329   1      2.0120862800000001      3.5666584600000002      4.0129431599999998
   330   1      6.1193984700000001      3.4018431499999999      4.1343573500000002
   331   1             10.12666894      3.5599556200000002      4.0821790800000004
   332   1             14.15672247      3.4800069100000002              3.93062727
   333   1               18.159488      3.5787003199999998      3.9163138100000001
   334   1      22.283492599999999      3.5062384799999999      3.9614160599999999
   335   1      26.439976049999999      3.4370429499999999      4.0701273699999998
   336   1      30.518434259999999              3.39580064      3.9860051599999999
   337   1      32.534109790000002      7.0331853300000002      3.9935122999999999
   338   1              3.95412674      7.0694107099999997                3.946062
   339   1      8.1138402700000007      7.0031712099999996              3.98979997
   340   1             12.14134698      6.9542006599999997              4.08957266
   341   1      16.277695179999998      7.0048695199999997      4.1024376800000004
   342   1      20.313048290000001      7.0118133299999998              3.92103292
   343   1             24.35477955      6.9790974300000004      4.0025184100000004
   344   1             28.31925292      7.0470198899999996      4.1220131599999998
   345   1      2.0363758399999998             10.59869649      4.0303737399999999
   346   1              6.10277256             10.57004807      4.1004357799999998
   347   1             10.13539052      10.584980850000001      4.0648495599999999
   348   1             14.16977194      10.440749370000001      4.2063287899999997
   349   1      18.121574729999999      10.552066630000001      4.0320360800000001
   350   1      22.191107169999999      10.580382289999999      3.9627024099999999
   351   1      26.412449429999999      10.571625539999999              4.02883938
   352   1      30.483842240000001      10.438171260000001      4.0133224199999997
   353   1    0.017193400000000001      14.124418629999999      3.9428254200000001
   354   1      4.1093702499999996      14.110852899999999      4.0659140599999999
   355   1      8.1845749300000001             14.08853611      3.9039601400000001
   356   1             12.14011796      14.031194320000001      4.0401955300000001
   357   1      16.328203859999999             14.10753864      3.9227762400000001
   358   1      20.278318290000001             13.97398175      4.1207912899999997
   359   1      24.335106249999999      14.135428490000001      4.0700945600000002
   360   1      28.323930740000002      14.097472359999999      4.1642459799999996
   361   1      2.0513020399999999      17.545827970000001      4.0494111200000003
   362   1      6.1462424799999997      17.580601340000001      4.0115989000000001
   363   1             10.20294389      17.598894000000001      3.9961241200000002
   364   1      14.184111619999999      17.487136970000002      4.0609717700000001
   365   1      18.339245829999999      17.581417139999999      4.0238792400000003
   366   1      22.258735850000001      17.605885929999999      4.1016078299999998
   367   1      26.389649930000001      17.675727290000001              3.93724235
   368   1      30.521982810000001      17.589768660000001      4.1211355000000003
   369   1             -0.02480106      21.048111030000001      4.1001800700000004
   370   1      4.0966116100000001      21.038028740000001      4.1069032500000002
   371   1      8.1697448000000001      21.194820270000001      4.0152096200000003
   372   1             12.14195615      21.110807260000001      4.1014577000000001
   373   1      16.136076070000001      21.213038539999999      4.1262596800000004
   374   1      20.393045699999998      21.066006739999999      4.0184324199999999
   375   1      24.462335400000001      21.125236839999999              4.12999619
   376   1      28.418211599999999      21.124418110000001      4.1620209399999997
   377   1      1.8919398000000001             24.64042925      4.0175717899999999
   378   1      6.0151320100000003      24.618451669999999      3.9111479600000001
   379   1      10.117885729999999      24.627894940000001      4.0716109600000001
   380   1             14.20400581      24.575431859999998      4.0640497299999998
   381   1      18.203179599999999      24.603312169999999      4.1232540899999996
   382   1      22.239225749999999      24.591440299999999      4.0022981700000004
   383   1              26.3284661      24.625232950000001              4.06679105
   384   1      30.419580759999999      24.546000719999999      4.0279959300000003
   385   1              1.91136398      1.3359965899999999              4.97780646
   386   1      5.9824521800000001              1.10779242      4.8541677500000002
   387   1      10.124429259999999      1.1345823100000001              4.90463263
   388   1      14.219246289999999              1.14343923      4.8366931500000003
   389   1      18.226359550000002              1.24427438      4.8202704000000001
   390   1      22.320413420000001      1.0457985700000001      4.9749469099999999
   391   1             26.46341353              1.12310044              4.94263019
   392   1      30.418283200000001              1.12097461      4.8522898799999998
   393   1             32.49125231      4.7271175799999998      4.8414087099999996
   394   1               3.9597178      4.7310126700000001      4.9423610800000004
   395   1      7.9989565699999998      4.7566805199999997      4.9275154099999998
   396   1      12.184579189999999      4.5909271699999996      4.9073673400000004
   397   1      16.131054949999999      4.6755761099999997      4.9709028999999996
   398   1      20.229723589999999      4.6793802800000002              4.81719235
   399   1      24.279298489999999      4.5586062399999996      4.8822923500000002
   400   1              28.3880382      4.6637857699999996      4.7827106800000001
   401   1              1.93657561      8.2731128399999996              4.83282978
   402   1      6.1309710300000004      8.2647908599999997      4.8908896899999998
   403   1      10.046702809999999      8.0916976199999997      4.8795703100000001
   404   1             14.16480775      8.0762388900000008      5.0126166300000001
   405   1      18.304692970000001      8.2292630599999992      4.8940480400000004
   406   1             22.36786056      8.2162640899999992               4.9812135
   407   1             26.33298868      8.2477783299999992      4.9886483300000002
   408   1             30.51975968      8.1593025400000005              4.80348956
   409   1              0.05503305      11.760609909999999      4.9188457100000003
   410   1      3.9997101900000001      11.766517589999999      4.8220741900000004
   411   1      8.0933710600000008             11.73097681      4.9763740099999998
   412   1      12.168906099999999             11.69209994      4.8872882899999999
   413   1              16.1546965             11.72614398      4.9139917200000003
   414   1      20.223000599999999             11.64518734      4.8583964999999996
   415   1             24.28454696      11.812756690000001      4.9448153899999996
   416   1      28.358713890000001             11.70349377      4.9446978499999998
   417   1      2.1192111699999998              15.2739034      4.9446464800000003
   418   1      6.2210693399999997      15.270668779999999      4.9136391000000001
   419   1             10.12160031      15.290613219999999      4.8571857300000003
   420   1             14.02888446             15.10752776      4.8999721899999997
   421   1      18.212306569999999      15.303688040000001      4.8789271400000001
   422   1             22.25184763             15.16572496      5.0146506400000002
   423   1      26.365380460000001             15.40947854      4.9542068300000004
   424   1      30.390378299999998      15.172259609999999      4.9796272100000003
   425   1   -0.075908890000000007      18.754020440000001      4.8946481999999998
   426   1      4.1113308799999997             18.65314837      4.9993253199999996
   427   1      8.1797564999999999      18.887669389999999      4.8455769100000001
   428   1             12.25728797             18.77754916              4.84642047
   429   1             16.08262204      18.651429369999999      4.7916416000000002
   430   1      20.146052310000002      18.885126719999999      4.9846590500000003
   431   1             24.36056468             18.80869478      4.9954785399999997
   432   1      28.458279619999999      18.698030719999998      4.9675644600000002
   433   1              1.91854725      22.238813029999999              5.06316465
   434   1      6.0149724100000004             22.12082333      4.8930143499999996
   435   1             10.04441387      22.340274610000002      4.8731243600000003
   436   1      14.177765709999999      22.302600699999999      4.8817532999999997
   437   1      18.266836099999999      22.264679789999999      4.9849454599999996
   438   1      22.321131869999999             22.34788825      4.9075354200000003
   439   1             26.40873354      22.279439140000001      5.0509320899999999
   440   1      30.367687239999999      22.339083469999998      4.9475110999999998
   441   1             32.49897687      25.732612400000001      4.8487732299999999
   442   1              3.98957842      25.851118660000001      4.8518290899999998
   443   1      8.1127391000000006      25.818633200000001      4.8157186599999999
   444   1             12.15831581             25.84252798      4.9171826999999997
   445   1      16.125640990000001             25.73854833      4.9455876300000003
   446   1      20.219086520000001      25.696575159999998              4.85944881
   447   1      24.357315530000001      25.815009580000002              4.91281619
   448   1      28.365749310000002             25.75501023      5.0218821900000004
   449   1             32.43743568      2.3697587000000002      5.7653104199999996
   450   1      3.9808198799999999      2.3231559499999999      5.7343044299999999
   451   1      8.1186980099999992      2.2596014499999999      5.6078279799999997
   452   1      12.155702460000001      2.3618570600000002      5.7098258900000003
   453   1             16.24225904               2.3022627      5.7274263200000002
   454   1             20.30614705      2.4114201999999998      5.6674458999999997
   455   1      24.348314909999999      2.2774604699999998      5.6747521799999996
   456   1             28.41821346      2.2981271300000001      5.6634058500000002
   457   1               1.9060595      5.9242911200000004      5.6967655700000002
   458   1      6.0620968800000004      5.8835503899999999      5.7138135200000004
   459   1              10.1151965      5.6997781400000003      5.6516130999999996
   460   1      14.137857800000001      5.8054986700000004      5.7877817499999997
   461   1      18.250788069999999      6.0199032499999996      5.6854862500000003
   462   1      22.274398959999999      5.9335354899999997      5.6345793000000004
   463   1      26.291247370000001      5.8703378400000004      5.5749583500000002
   464   1      30.457321780000001              5.83459153      5.7414798899999999
   465   1              0.06708356      9.4739070400000003      5.6037999100000002
   466   1      4.0384729300000002      9.4125076300000003      5.6453003400000004
   467   1      8.1388274299999992      9.3213506899999992      5.8063830400000001
   468   1             12.11182121              9.43050867              5.79306798
   469   1             16.14427367      9.2860843200000005      5.7674697999999998
   470   1             20.24112388      9.4201078200000001      5.6826253700000002
   471   1      24.244635760000001      9.4340204199999995      5.7593771199999999
   472   1      28.429641350000001      9.4004015200000008      5.6910291199999996
   473   1      2.0671207300000001             12.73465459      5.7068009899999996
   474   1      5.9818965400000002             12.95653763      5.6804030799999996
   475   1      10.059753669999999      12.849432330000001      5.6028827200000002
   476   1              14.2523541             12.89877562      5.7348414700000001
   477   1      18.185666449999999      12.823399780000001      5.7856979500000003
   478   1      22.168345949999999      12.953548680000001      5.7561359000000003
   479   1      26.406704049999998             12.95019317      5.7241977500000001
   480   1      30.471226919999999             12.86243118      5.5902574200000004
   481   1   0.0026486700000000001             16.33610251      5.6721421899999998
   482   1               4.0569473      16.410843419999999      5.7494585000000002
   483   1      8.1395572200000004              16.5473657      5.6441801399999996
   484   1             12.14572254      16.461906519999999      5.6923671100000002
   485   1      16.258374440000001      16.451653069999999               5.6319428
   486   1             20.33156417      16.440646359999999      5.7897045900000004
   487   1             24.33979751             16.38775352      5.6942789999999999
   488   1      28.479411729999999      16.364002679999999      5.7453642499999997
   489   1      2.0894025599999999             19.81082597      5.6312066200000004
   490   1      6.1144797300000002      19.915477039999999      5.7119723100000002
   491   1      10.168475839999999      19.879383390000001      5.6312953200000004
   492   1             14.14848254      19.914124690000001      5.7204605800000001
   493   1      18.106628839999999             19.80167011      5.6665797299999996
   494   1      22.275773820000001             19.93114053      5.7331852899999998
   495   1      26.467380800000001             19.98304474      5.6625466099999997
   496   1      30.386892790000001      19.876922180000001      5.7702604900000001
   497   1      32.380592149999998      23.419820380000001      5.6627057799999996
   498   1      4.0023140000000001             23.43613302               5.7005925
   499   1      7.9825852700000004      23.526483339999999      5.6357752300000001
   500   1      12.105979019999999      23.430695539999999      5.7871032700000002
   501   1             16.17477864      23.394908319999999      5.7659616700000003
   502   1      20.212045549999999             23.50531192      5.7428727100000003
   503   1      24.298072680000001      23.470082819999998              5.64976447
   504   1      28.359564169999999             23.32916006      5.7478445100000002
   505   1              1.98060309      26.993087939999999              5.74878394
   506   1      5.9548438900000003             26.91420312              5.58277176
   507   1      10.146460449999999             26.92625219              5.73336311
   508   1      14.210876560000001      27.030476060000002              5.72936245
   509   1      18.193428520000001      26.888307439999998      5.7295268000000004
   510   1             22.30100049      26.852987639999998      5.6100287199999999
   511   1             26.33567773      26.979081870000002      5.7078905600000001
   512   1             30.43114323             26.85429233      5.7380069599999999
   513   1      32.489593280000001             28.15164575      6.5601715199999999
   514   1      3.9530594200000002   -0.046590159999999999      6.5788996300000004
   515   1      7.9720137600000003   -0.051192979999999999      6.5323244699999998
   516   1      12.068046349999999   -0.054257560000000003      6.5007943399999997
   517   1      16.160586160000001      28.044211829999998              6.68080403
   518   1      20.299415310000001      28.143606720000001      6.5358163400000002
   519   1      24.322207129999999      28.151586380000001      6.5880883199999998
   520   1      28.437124969999999             -0.10808606              6.57022364
   521   1      1.9881641000000001      3.5905853400000001      6.4884466600000001
   522   1      6.1515848200000001      3.4431374899999998      6.5756219500000004
   523   1      10.057072590000001              3.44128122      6.5078716300000004
   524   1      14.153405879999999      3.4409452900000002      6.5586897500000001
   525   1      18.345033610000002      3.6182105899999999      6.5032949999999996
   526   1              22.1874091      3.5569570700000002      6.5190109400000003
   527   1             26.46195243      3.5413950000000001      6.4335670299999999
   528   1             30.47861219      3.5807579199999999      6.5792342799999997
   529   1    0.014160590000000001      7.1174252600000001              6.51909647
   530   1              4.10162461              7.05866974      6.4519406300000002
   531   1      8.0471119899999994      6.9676781700000001      6.4915736400000004
   532   1             12.06027194      7.0088519900000001      6.6229088300000001
   533   1      16.201100090000001      6.9845596099999998      6.6650465199999998
   534   1      20.244729459999999      7.1021554599999996      6.4475805199999998
   535   1      24.238858100000002      6.9624995900000002      6.5685613600000003
   536   1             28.37049773      7.0621323299999998      6.5368279999999999
   537   1              2.05779026              10.5534157      6.6483670699999999
   538   1              6.06415726             10.51983325      6.6231825400000002
   539   1             10.14945449      10.623825399999999              6.60741523
   540   1      14.220685680000001      10.484515529999999      6.6466851399999998
   541   1             18.12530533             10.53124992      6.6184403400000003
   542   1      22.235929800000001      10.511621420000001      6.4420559900000001
   543   1             26.26840649      10.487145849999999              6.51716256
   544   1      30.569903650000001             10.58456908      6.5018023600000001
   545   1     0.16034198999999999      14.051140500000001      6.4541305600000003
   546   1      3.9963433400000001             14.10236864      6.4958422699999998
   547   1              8.10276979             14.08705945      6.5369701300000003
   548   1      12.080970000000001      14.065546830000001      6.5358864099999998
   549   1             16.17606704             14.23699308      6.4476565600000004
   550   1             20.24907812      14.049767599999999      6.5223736499999996
   551   1             24.31360261      13.995438829999999              6.53807267
   552   1             28.42581238      14.062723589999999      6.6208191200000002
   553   1      1.9211990000000001             17.44957312      6.6311327200000001
   554   1      6.1166830699999997      17.517437560000001      6.6070507699999999
   555   1      10.083544420000001      17.578435110000001      6.4936107500000002
   556   1             14.16371651      17.506596500000001      6.6119793900000001
   557   1      18.118956130000001      17.510820280000001      6.5837922200000003
   558   1      22.299673380000002             17.56999278      6.6123909999999997
   559   1             26.47510518      17.522931010000001      6.5537400300000002
   560   1      30.411124999999998      17.523501289999999      6.5319177599999998
   561   1      32.495861410000003      21.086963780000001      6.5899880299999998
   562   1      4.1275107100000001      21.044990049999999              6.64304323
   563   1      8.1591919100000005             21.10817784      6.4436201300000002
   564   1      12.043330750000001      21.097364840000001      6.5197641800000001
   565   1      16.209210179999999      21.118003569999999      6.6307278500000004
   566   1      20.303710179999999      21.090286420000002      6.6119731499999999
   567   1             24.34079186      21.094443800000001      6.6441782900000002
   568   1      28.456054720000001      21.059970889999999      6.7007974199999998
   569   1      2.0041444799999999      24.580927150000001              6.53222726
   570   1      6.0230963500000003             24.57193754      6.4900455499999996
   571   1      10.115375889999999             24.60249997      6.5265868400000002
   572   1             14.15937036             24.46369923      6.6586832400000002
   573   1      18.235449190000001      24.575212279999999      6.5554207599999996
   574   1      22.324650890000001             24.63716501      6.5216893799999998
   575   1      26.233395739999999      24.547275710000001      6.4882343799999997
   576   1             30.37111647      24.588917080000002      6.5139949100000001
   577   1      1.9988188600000001               1.1691246              7.54978894
   578   1      6.1239937099999997               1.2223149      7.3502173099999997
   579   1             10.16399814              1.06820443      7.3511530199999999
   580   1             14.17901264      1.1203219900000001      7.6407558699999996
   581   1      18.297257999999999      1.2211249900000001              7.36243727
   582   1      22.330897119999999               1.1872459      7.5582463200000003
   583   1      26.489663100000001              1.14476819      7.5455430799999998
   584   1      30.430153560000001      1.2205323400000001      7.5384380899999996
   585   1    0.020758700000000001      4.7489119400000002      7.4354735999999999
   586   1      4.0880846399999999      4.6017979999999996               7.4181675
   587   1      8.1869746899999996      4.6979516600000002      7.5018099300000003
   588   1             12.19520344      4.5477600699999998      7.5069823800000002
   589   1      16.206469290000001      4.7181051399999996      7.4011151499999999
   590   1      20.261671239999998      4.7629897100000003      7.3778835200000001
   591   1      24.355805709999998      4.7011937100000001      7.3896698699999996
   592   1             28.55024903      4.7569236500000001      7.1208676899999999
   593   1      2.1852806999999999      8.2345781599999999              7.44198776
   594   1      6.1029245899999998      8.2707959399999993      7.5428710099999998
   595   1      10.135027259999999      8.1674707400000006      7.6261062500000003
   596   1      14.156481489999999      8.2122479300000002      7.6863100199999996
   597   1              18.1074792      8.2599631500000008              7.38774262
   598   1             22.28914614              8.17156007      7.4835336699999999
   599   1      26.350391739999999      8.0269048999999999      7.5336882200000002
   600   1      30.398367969999999      8.2390898099999994      7.4140136099999996
   601   1    0.026812599999999999      11.864833389999999      7.5571197300000001
   602   1              4.05727189              11.7728898      7.6382730800000003
   603   1      8.0809362399999998             11.62867763      7.4860248900000004
   604   1      12.118084870000001             11.71868892      7.3922364299999996
   605   1      16.239076610000001             11.79592122      7.4909248699999997
   606   1      20.253767790000001             11.73012462      7.4387290100000003
   607   1             24.27252623      11.722646109999999      7.4293841399999998
   608   1      28.366505109999999      11.672772289999999      7.3572320500000004
   609   1      2.0874441400000001      15.036499259999999      7.5252527200000001
   610   1      5.9762351699999998             15.19982225      7.3772657400000003
   611   1             10.11959145             15.30341834              7.58726784
   612   1      14.057026090000001             15.24214581      7.5618753300000003
   613   1      18.266450729999999             15.34322686      7.5322614400000001
   614   1      22.354374849999999      15.194852040000001      7.4996286400000001
   615   1      26.372192219999999      15.192852200000001      7.4671950000000002
   616   1      30.462929280000001      15.284933150000001      7.4273510199999997
   617   1   -0.024442809999999999             18.69155683      7.3946585000000002
   618   1      3.9555712199999999             18.66069328      7.5694980899999997
   619   1      8.1839580099999996      18.750815930000002      7.5488814800000004
   620   1      12.081740269999999      18.864774369999999      7.3902820800000004
   621   1      16.126094569999999      18.621326369999998      7.5020095900000001
   622   1      20.168973220000002      18.726085990000001      7.5655116299999996
   623   1      24.351037869999999      18.912996079999999      7.5384719100000002
   624   1             28.38094808      18.763404090000002      7.5083394999999999
   625   1              2.21820803      22.307745400000002      7.6470242199999996
   626   1      6.2193395300000001      22.309130450000001      7.4502858500000002
   627   1      10.137035729999999             22.40789534              7.46366861
   628   1             14.17226531             22.20316236      7.6595203500000002
   629   1             18.19812538      22.340070180000001      7.5012566400000003
   630   1             22.20108377      22.265693079999998      7.4036258999999998
   631   1      26.304040820000001             22.22058316      7.5443911400000001
   632   1             30.54939894      22.292017399999999      7.3813144499999996
   633   1      32.469125300000002             25.66975278      7.3453020599999999
   634   1      3.9852760800000002      25.811000459999999              7.47663046
   635   1      8.1221472499999994             25.68440107      7.2882619399999999
   636   1      12.115334710000001              25.8548993      7.4720364400000001
   637   1      16.203811850000001             25.79077895      7.6790219500000001
   638   1      20.431566360000001             25.89041323      7.4555828200000001
   639   1             24.28159007      25.713734179999999      7.4909817199999997
   640   1      28.396722669999999      25.594651039999999      7.5945586900000004
   641   1             32.42032571              2.36810578      8.2182049199999998
   642   1      4.0833060699999999      2.4218554600000002      8.1073475100000003
   643   1      8.1577549200000004              2.24798841      8.0717760799999994
   644   1      12.188873190000001      2.2609981800000001      8.0663685899999997
   645   1      16.328745380000001      2.2349082899999999      8.1608491900000004
   646   1      20.263282060000002      2.2789144800000001      8.0463229500000004
   647   1             24.23408461      2.3812538999999999      8.0380741600000007
   648   1      28.427648170000001              2.50081189      8.1161891900000001
   649   1      2.0377221799999998      5.8509954100000003      8.1559929899999997
   650   1      6.0409391399999999      5.9627548800000003      8.1369713200000007
   651   1             10.33294665      5.8604820899999996      8.2605161999999996
   652   1             14.15743634      5.7983640000000003      8.2119102799999997
   653   1      18.233317599999999      5.9828641400000002      8.2575500700000006
   654   1             22.24259142      5.8019617500000003      8.0386194500000006
   655   1      26.469225649999998      5.7022103299999998      8.1534294700000007
   656   1      30.553620670000001      5.9038514400000004      8.1266309200000002
   657   1             32.51541031      9.3822941800000006      8.1128539199999992
   658   1      4.1275797499999998      9.4106694799999993      8.0936530900000001
   659   1      8.1157509599999997      9.3233778899999997      8.2540124600000002
   660   1      12.118687810000001      9.3661485100000004      8.3020537399999998
   661   1      16.127074740000001      9.3252595300000003      8.3279726200000006
   662   1      20.236674359999999      9.3693633100000007      8.0945717500000001
   663   1      24.390529350000001      9.3274273900000004      8.1806320400000008
   664   1      28.425980249999999              9.30640438      8.0674576699999996
   665   1      2.0550179399999999      12.865156839999999      8.2064261100000007
   666   1      5.9906926399999998             12.96425155      8.1868700699999994
   667   1      10.064842629999999      12.836241279999999      8.1520412800000006
   668   1             14.13803236             12.93971623      8.1018005399999993
   669   1      18.333020019999999              13.0168765      8.1586993799999998
   670   1             22.33964885      12.917080690000001      8.1305000700000001
   671   1             26.33938577      12.899990730000001      8.1245085499999998
   672   1      30.413098680000001      12.968170779999999      8.0042827899999995
   673   1      32.448143680000001             16.40390567      8.2517658100000002
   674   1      4.0283357200000003      16.412130730000001      8.3309812399999998
   675   1      8.0273344899999994             16.37294593      8.2118642000000008
   676   1      12.083380310000001      16.539978399999999      8.0989315400000006
   677   1      16.099465980000002      16.303830770000001      8.1828888600000003
   678   1      20.266970220000001             16.43075125      8.1982969899999993
   679   1      24.360234089999999      16.394443330000001      8.0918020300000002
   680   1      28.480146120000001             16.44578542      8.0439422100000009
   681   1              1.89306905      19.946487860000001                8.105226
   682   1      6.1921447399999998             19.93171852      8.0789296400000001
   683   1      10.115148080000001             19.98854287      7.9762361200000003
   684   1             14.13984975      19.713786549999998      8.0709558500000007
   685   1      18.165018499999999      19.948974969999998      8.2568246500000004
   686   1      22.215112649999998      19.912577089999999      8.1151262800000001
   687   1      26.407125359999998             19.83039149      8.2110667599999996
   688   1             30.53914456      19.951666150000001              8.15140478
   689   1      32.461812139999999      23.414498609999999      8.0725493099999994
   690   1      4.1105050299999997      23.355175630000002      8.3045688799999997
   691   1      8.1577030300000004             23.47287597      8.0225454099999993
   692   1      12.078297790000001             23.44336448      8.2497728299999995
   693   1      16.140859259999999      23.533635629999999      8.3471232700000009
   694   1      20.218677759999999      23.544770239999998      8.2505199999999999
   695   1      24.303951040000001             23.31903264      8.1197857399999993
   696   1      28.441924579999998      23.403382059999998      8.2761475200000003
   697   1              1.92429414             26.93429635      8.1091468899999999
   698   1      5.9985798399999997             26.93189057      8.0243428800000007
   699   1             10.07375805      26.954369190000001      8.1147657800000008
   700   1      14.028688600000001      26.867336529999999      8.2259670600000003
   701   1             18.27297153             27.01931768      8.0446142999999992
   702   1      22.502811990000001      26.960756150000002      8.2117891499999995
   703   1      26.458383690000002             26.91981281      8.0632467000000005
   704   1      30.403886679999999      26.905767430000001      8.2253436999999998
   705   1             -0.15856945    0.053186039999999997      8.9221063100000002
   706   1      4.0196277900000004             28.44608684      8.9810335200000004
   707   1      8.0371711500000007      27.991271340000001      8.8147094900000003
   708   1             12.11365541      28.077326889999998      8.9513297299999994
   709   1             16.05112359      28.062793079999999              9.04780461
   710   1      20.300033240000001             27.90450834      9.0673333500000002
   711   1             24.73834158              0.18620312      8.9515447100000003
   712   1      28.480576429999999     0.21530684999999999      8.9083056799999998
   713   1      2.1842624599999998      3.3742888199999999      8.9442813500000007
   714   1      6.2222478399999996              3.42885347      8.9801780200000003
   715   1             10.10826376      3.5164537600000001               8.8691271
   716   1             14.31918112      3.4958365499999999      8.9864042600000005
   717   1      18.318482759999998      3.4841467499999998      8.8270491599999996
   718   1             22.24441324      3.4676039699999999      8.8854560100000004
   719   1             26.14556567              3.42785356      8.9849014599999997
   720   1      30.348802209999999              3.52108533      8.9768413200000001
   721   1  -0.0064932699999999998      6.9742519400000003      8.8959347999999991
   722   1              3.97653049              7.13250093      9.0253681799999992
   723   1      8.1314964599999993              6.77536615      8.9607728400000006
   724   1             12.14973163      7.0470245699999996      9.1435136299999993
   725   1      16.011497339999998      7.0406479199999996      8.9179647099999997
   726   1      20.308429589999999      6.9398056600000002      8.8445934600000005
   727   1      24.417422219999999      6.9196054900000004      8.8749660899999991
   728   1      28.591515579999999      6.9000424899999997      8.9691713499999999
   729   1              2.10817364             10.42596926      9.0011355399999999
   730   1              6.09192541             10.57142148      8.9695946000000006
   731   1      10.072230210000001             10.62478361      9.1248263900000008
   732   1             14.27002528      10.656853310000001      9.0923622200000001
   733   1             18.17453703      10.637011559999999      8.8427474099999994
   734   1      22.172329560000001      10.578139220000001      8.8269623300000006
   735   1      26.452128819999999             10.67356921      9.0341710699999993
   736   1      30.515796699999999             10.58393098      8.7849711900000003
   737   1   -0.018313880000000001             14.05811091      8.9239003599999993
   738   1      3.9391610699999999      14.120547970000001      9.1059925499999999
   739   1      8.0447843100000007              14.1067096      8.8356951099999996
   740   1      12.145247489999999             14.20868916      8.9102865399999995
   741   1             16.17306589             14.00176712      8.7888814100000001
   742   1      20.396915740000001             14.07007143      8.8741307000000003
   743   1             24.35918508      14.050457290000001      8.8779048599999992
   744   1             28.43164883      14.047224249999999      9.0164002599999993
   745   1      1.9177399799999999      17.519006130000001      8.9410067000000009
   746   1              6.10615693      17.801289700000002      8.9704982399999995
   747   1             10.05411703      17.790616360000001      8.8993619099999997
   748   1      14.191123989999999      17.539952790000001      9.1420534199999999
   749   1             18.03341678      17.511267190000002      8.9457445999999994
   750   1      22.514129619999999      17.526005139999999      8.8797097699999998
   751   1      26.221375810000001             17.44865583      8.8500303099999993
   752   1      30.408077240000001      17.610930400000001      8.9218861900000004
   753   1      32.371123760000003      21.058297499999998      8.9585712199999996
   754   1      3.9658374699999999             21.08502867      9.0878918500000001
   755   1      8.1357785899999993      21.118129840000002      8.8978194800000008
   756   1      12.190184240000001      20.966534240000001      8.9471067400000006
   757   1      16.190663270000002             21.10593553      9.0605609299999994
   758   1      20.089783310000001             21.13384868      8.8867422699999992
   759   1      24.303337070000001             21.05189004      9.0483229999999999
   760   1      28.514576009999999      20.860431590000001      9.0527879299999992
   761   1              2.04657322      24.652142269999999              8.91851357
   762   1              6.17877952             24.69654053      8.8865748900000003
   763   1      10.066583680000001      24.581711299999998      9.1029253600000004
   764   1      14.099674419999999      24.537899700000001      9.0220038599999999
   765   1      18.162107020000001             24.99018779      9.0553750999999991
   766   1             22.44234192      24.792773969999999      8.9804288799999998
   767   1             26.27952415      24.360175529999999      8.9073330800000008
   768   1             30.54964622      24.662988500000001      8.9294197299999993
   769   2      29.347877409999999      5.0876932699999999      9.0954997100000003
   770   2             27.89472391              4.12036801      8.7938383499999997
