N2-dn2-coord-10bar/300K/snapshots/frame-81603/run-000/../data.lammps (written by ASE) 

770 	 atoms 
2  atom types
0.0      32.470343392086264  xlo xhi
0.0      28.120142247150884  ylo yhi
0.0      31.213473999158239  zlo zhi


Atoms 

     1   1      2.0293964600000001      1.1716090800000001    0.023552650000000001
     2   1      6.0880008999999999              1.17168918              0.02556874
     3   1      10.146952280000001              1.17170328    0.025416459999999998
     4   1      14.205754900000001      1.1716496700000001              0.02501565
     5   1             18.26456816              1.17166478              0.02504435
     6   1             22.32338141      1.1716496700000001              0.02501565
     7   1      26.382184030000001              1.17170328    0.025416459999999998
     8   1      30.441135410000001              1.17168918              0.02556874
     9   1  9.1780000000000006e-05      4.6866847900000002    0.025581599999999999
    10   1      4.0587011400000002      4.6866847900000002    0.025581599999999999
    11   1      8.1174961000000003      4.6866290399999997    0.025584639999999999
    12   1             12.17638011      4.6866852999999997              0.02491202
    13   1             16.23517979      4.6866942700000003    0.025006210000000001
    14   1      20.293956519999998      4.6866942700000003    0.025006210000000001
    15   1      24.352756209999999      4.6866852999999997              0.02491202
    16   1      28.411640219999999      4.6866290399999997    0.025584639999999999
    17   1      2.0293964600000001      8.2016395800000002    0.026613040000000001
    18   1      6.0881071599999999      8.2016314300000008              0.02543782
    19   1             10.14701835               8.2017045    0.025156850000000001
    20   1      14.205766049999999      8.2017080900000003    0.024990459999999999
    21   1             18.26456816      8.2017077599999997    0.025091249999999999
    22   1      22.323370260000001      8.2017080900000003    0.024990459999999999
    23   1      26.382117969999999               8.2017045    0.025156850000000001
    24   1      30.441029149999999      8.2016314300000008              0.02543782
    25   1  9.2789999999999998e-05             11.71671873    0.025573410000000001
    26   1              4.05870014             11.71671873    0.025573410000000001
    27   1      8.1176017700000003             11.71668698              0.02497914
    28   1             12.17637068             11.71673069    0.025001590000000001
    29   1      16.235177310000001      11.716730249999999    0.025074039999999999
    30   1      20.293959009999998      11.716730249999999    0.025074039999999999
    31   1      24.352765640000001             11.71673069    0.025001590000000001
    32   1      28.411534549999999             11.71668698              0.02497914
    33   1      2.0293964600000001             15.23167155              0.02525285
    34   1      6.0881728300000004      15.231678799999999    0.025062859999999999
    35   1             10.14698486      15.231762639999999               0.0250786
    36   1             14.20578841             15.23176782    0.025201990000000001
    37   1             18.26456816              15.2317707    0.025149979999999999
    38   1      22.323347900000002             15.23176782    0.025201990000000001
    39   1      26.382151459999999      15.231762639999999               0.0250786
    40   1      30.440963480000001      15.231678799999999    0.025062859999999999
    41   1      32.470327990000001      18.746748629999999    0.024951939999999999
    42   1      4.0588083299999997      18.746748629999999    0.024951939999999999
    43   1      8.1175770200000006      18.746803499999999    0.025222040000000001
    44   1             12.17637459      18.746799750000001    0.025428470000000002
    45   1      16.235159400000001      18.746805200000001    0.025487360000000001
    46   1      20.293976919999999      18.746805200000001    0.025487360000000001
    47   1      24.352761730000001      18.746799750000001    0.025428470000000002
    48   1             28.41155929      18.746803499999999    0.025222040000000001
    49   1      2.0293964600000001      22.261939099999999    0.025844880000000001
    50   1      6.0881419299999999      22.261841799999999    0.025489439999999999
    51   1             10.14692954             22.26176895              0.02551757
    52   1             14.20573559      22.261804690000002    0.025639160000000001
    53   1             18.26456816             22.26178625    0.025640119999999999
    54   1      22.323400729999999      22.261804690000002    0.025639160000000001
    55   1      26.382206780000001             22.26176895              0.02551757
    56   1             30.44099439      22.261841799999999    0.025489439999999999
    57   1  5.6450000000000003e-05      25.776936450000001              0.02613327
    58   1      4.0587364700000004      25.776936450000001              0.02613327
    59   1      8.1175325399999991              25.7767713    0.024734180000000001
    60   1      12.176376469999999      25.776831090000002              0.02545323
    61   1      16.235145939999999      25.776775220000001    0.025273360000000002
    62   1             20.29399038      25.776775220000001    0.025273360000000002
    63   1      24.352759840000001      25.776831090000002              0.02545323
    64   1      28.411603769999999              25.7767713    0.024734180000000001
    65   1  0.00024266000000000001              2.34304215     0.80166565000000001
    66   1      4.0585502699999996              2.34304215     0.80166565000000001
    67   1      8.1157394600000003              2.34454954     0.80169402000000001
    68   1             12.17601256      2.3433829099999999     0.80116898000000003
    69   1      16.235258170000002      2.3433209100000001     0.80090046999999998
    70   1      20.293878150000001      2.3433209100000001     0.80090046999999998
    71   1      24.353123750000002      2.3433829099999999     0.80116898000000003
    72   1      28.413396859999999              2.34454954     0.80169402000000001
    73   1      2.0293964600000001      5.8582218700000004     0.80119762000000005
    74   1      6.0870566899999998      5.8583336700000004              0.80194851
    75   1             10.14649655              5.85853131     0.80121584000000001
    76   1             14.20597894      5.8582938599999999     0.80086840999999998
    77   1             18.26456816      5.8583798500000004               0.8010794
    78   1      22.323157380000001      5.8582938599999999     0.80086840999999998
    79   1             26.38263976              5.85853131     0.80121584000000001
    80   1      30.442079629999999      5.8583336700000004              0.80194851
    81   1  0.00019438999999999999      9.3717771800000005     0.80082061000000004
    82   1      4.0585985400000002      9.3717771800000005     0.80082061000000004
    83   1      8.1175070500000004      9.3725002699999997     0.80149060999999999
    84   1      12.176590020000001      9.3733583399999993     0.80088261999999999
    85   1             16.23512199      9.3733789200000004              0.80106506
    86   1             20.29401433      9.3733789200000004              0.80106506
    87   1      24.352546289999999      9.3733583399999993     0.80088261999999999
    88   1      28.411629269999999      9.3725002699999997     0.80149060999999999
    89   1      2.0293964600000001             12.88692854     0.80220621000000003
    90   1      6.0883212999999996             12.88743848     0.80138414999999996
    91   1      10.147128609999999             12.88859852     0.80085256000000005
    92   1             14.20571782      12.888558189999999     0.80113791000000001
    93   1             18.26456816      12.888409899999999     0.80109381000000002
    94   1      22.323418490000002      12.888558189999999     0.80113791000000001
    95   1             26.38200771             12.88859852     0.80085256000000005
    96   1      30.440815019999999             12.88743848     0.80138414999999996
    97   1              0.00012365      16.403222639999999     0.80145666999999998
    98   1      4.0586692700000002      16.403222639999999     0.80145666999999998
    99   1      8.1174337899999998      16.403825260000001     0.80097196999999998
   100   1              12.1761021             16.40390721     0.80133072000000005
   101   1             16.23503496      16.403861750000001     0.80140014999999998
   102   1      20.294101359999999      16.403861750000001     0.80140014999999998
   103   1      24.353034220000001             16.40390721     0.80133072000000005
   104   1      28.411702529999999      16.403825260000001     0.80097196999999998
   105   1      2.0293964600000001      19.919205120000001     0.80066369999999998
   106   1              6.08752564             19.91894023     0.80122479000000002
   107   1      10.146078839999999             19.91919038     0.80159137999999996
   108   1      14.204993419999999              19.9192584     0.80178742000000003
   109   1             18.26456816      19.919377350000001     0.80194975999999996
   110   1      22.324142899999998              19.9192584     0.80178742000000003
   111   1      26.383057470000001             19.91919038     0.80159137999999996
   112   1      30.441610669999999             19.91894023     0.80122479000000002
   113   1              0.00142012      23.434536609999999     0.80178442000000005
   114   1      4.0573728100000004      23.434536609999999     0.80178442000000005
   115   1      8.1165862000000004      23.433936769999999     0.80182306000000003
   116   1             12.17555218      23.433996919999998     0.80156656000000004
   117   1             16.23465491      23.434040110000002     0.80170828999999999
   118   1      20.294481409999999      23.434040110000002     0.80170828999999999
   119   1      24.353584130000002      23.433996919999998     0.80156656000000004
   120   1      28.412550110000002      23.433936769999999     0.80182306000000003
   121   1      2.0293964600000001      26.949875330000001              0.80297246
   122   1      6.0858208300000003      26.950066320000001              0.80215291
   123   1             10.14598146      26.949241430000001     0.80165810000000004
   124   1             14.20520604      26.948673230000001     0.80131923999999999
   125   1             18.26456816             26.94858318     0.80108193999999999
   126   1      22.323930279999999      26.948673230000001     0.80131923999999999
   127   1      26.383154860000001      26.949241430000001     0.80165810000000004
   128   1             30.44331549      26.950066320000001              0.80215291
   129   1      32.594928369999998              28.1182135              1.50148646
   130   1      4.0788463300000002              0.02450946              1.38991486
   131   1      8.0997816999999994      28.143860060000002              1.46975144
   132   1             12.12178619    0.081865880000000002      1.4673169800000001
   133   1             16.44129513      28.151016890000001      1.4561634299999999
   134   1      20.253702910000001   -0.076215340000000006      1.5854051199999999
   135   1      24.298533169999999  -0.0066552199999999999              1.38030535
   136   1      28.392534260000001      28.025369649999998              1.44361154
   137   1      2.0481915000000002      3.4772952500000001              1.36351372
   138   1      6.0926928199999999              3.53722081      1.3264362599999999
   139   1             10.25143096      3.3997735699999998      1.4467103400000001
   140   1      14.227078990000001      3.5334654799999998      1.3826045899999999
   141   1      18.223661880000002      3.4669082900000001              1.53866426
   142   1      22.309394789999999      3.4735539100000001      1.4539246100000001
   143   1      26.473775499999999              3.47437978      1.4244752300000001
   144   1      30.448479750000001      3.4162631700000001              1.42770405
   145   1      32.394003419999997      7.0213874499999998              1.33692027
   146   1      4.1353039699999998      6.9582538899999999              1.41336583
   147   1      8.1610860400000007      6.9643645599999999      1.5247802699999999
   148   1              12.2055995      6.9622120199999999      1.4342797899999999
   149   1      16.256276029999999      6.9538639599999996      1.5460900099999999
   150   1      20.259145910000001      7.0319919300000002              1.57352515
   151   1      24.434557600000002      6.9319473199999999      1.4969235299999999
   152   1      28.420710060000001      6.9582440600000002              1.40828054
   153   1              2.11391858      10.426328120000001              1.57738987
   154   1      6.1077821400000003              10.5571503      1.3603247300000001
   155   1             10.18202322      10.601164219999999      1.4817739299999999
   156   1              14.2147899             10.48267684              1.42006411
   157   1      18.257161849999999             10.44763126      1.5198647199999999
   158   1      22.292242160000001             10.51946161      1.4544416600000001
   159   1      26.336661920000001      10.540997129999999      1.5784489900000001
   160   1      30.469408179999999      10.589773080000001      1.3711960700000001
   161   1      32.478664289999998             14.04716436      1.5037350599999999
   162   1      4.0877855099999998      14.088859250000001      1.5223721800000001
   163   1      8.0288278799999997             14.05020494              1.41049848
   164   1             12.18987385             14.05342834              1.59302122
   165   1      16.166266100000001             13.99494297      1.4074313700000001
   166   1      20.325591200000002      14.027516840000001      1.4816307200000001
   167   1             24.43795347      14.117046719999999      1.3726518000000001
   168   1             28.31495335             14.00289645      1.3710819999999999
   169   1      2.0849074000000001      17.603312849999998      1.4724693799999999
   170   1      6.1013133499999999             17.52804472      1.4706895799999999
   171   1             10.16567736      17.583214439999999      1.4381196000000001
   172   1             14.14154302      17.493137090000001      1.4349269899999999
   173   1      18.294927049999998      17.590283289999999              1.41903812
   174   1             22.20223988      17.654547780000001              1.44845891
   175   1             26.33446489      17.617707289999998              1.46590442
   176   1             30.45141246      17.543076060000001      1.5023941599999999
   177   1      32.541245459999999              21.0289185      1.5555227599999999
   178   1      4.0747284700000002             21.04902212      1.3592412899999999
   179   1      8.1619177100000009             21.08208303      1.4718143400000001
   180   1              12.1855498      21.094632959999998      1.3793495899999999
   181   1      16.224357269999999      21.177848260000001              1.42780891
   182   1      20.321610840000002      21.094384590000001      1.4373990000000001
   183   1      24.392368309999998      21.025967619999999      1.4373011600000001
   184   1      28.485341999999999             21.04990239      1.5138486200000001
   185   1              2.13177539      24.589692920000001              1.45085993
   186   1      6.0046991399999996      24.530162879999999      1.4848108200000001
   187   1      10.155202360000001             24.67622055      1.4380031799999999
   188   1             14.15210003      24.602442610000001              1.45430496
   189   1             18.26126996      24.558516730000001      1.4554802600000001
   190   1      22.354427359999999      24.551215729999999      1.4845542899999999
   191   1      26.362147480000001      24.485072259999999      1.4813159300000001
   192   1      30.325070920000002      24.602151559999999              1.36524841
   193   1              2.01297791      1.2590813599999999      2.3955767400000001
   194   1      6.1772805899999996      1.2143584599999999      2.4391054699999999
   195   1      10.078252750000001      1.1733311900000001      2.4154794399999999
   196   1             14.26940269      1.1298894399999999      2.4323205799999998
   197   1      18.161695940000001              1.27342373               2.5520136
   198   1      22.359329750000001      1.0799553799999999      2.4867500900000001
   199   1      26.410375739999999              1.17517768      2.3170074600000001
   200   1      30.410691709999998      1.0710492300000001      2.4315416600000002
   201   1    0.097749100000000005              4.65390455      2.4490349600000001
   202   1      4.2447758699999998      4.7633071899999999              2.38455153
   203   1      8.2103123399999998      4.6505779399999998      2.3189994999999999
   204   1      12.259883589999999      4.6028567999999996      2.4776713400000001
   205   1             16.27318446      4.6025527100000003      2.3242949099999999
   206   1      20.272813769999999      4.5948318700000002      2.4325737599999999
   207   1      24.370525619999999      4.5948253599999997      2.4538444899999998
   208   1      28.439893850000001      4.6415579600000001      2.3999865800000002
   209   1      2.0757904900000002      8.0062742300000007      2.3521882399999998
   210   1      6.1473078599999997      8.2333710700000005              2.40837367
   211   1      10.158035269999999              8.21594391      2.3358699700000001
   212   1             14.18382199      8.1362464200000009      2.3194327000000001
   213   1      18.239070959999999      8.2599782899999994              2.53743549
   214   1      22.323678430000001      8.1490436600000002      2.3919381300000002
   215   1      26.319462990000002      8.1688254800000006              2.44479063
   216   1      30.420478580000001      8.1426476700000006              2.40017397
   217   1             -0.00105933             11.51116058              2.51219846
   218   1      4.0681505099999997             11.68417193              2.42167149
   219   1      8.2006923399999998      11.818913119999999      2.3537011799999998
   220   1      12.242497350000001             11.65994529              2.40778465
   221   1      16.351351709999999      11.627742359999999      2.3994672700000002
   222   1      20.282389349999999      11.653597639999999      2.3564239900000001
   223   1      24.259921259999999      11.689146900000001              2.43398995
   224   1      28.301591519999999      11.680798080000001              2.44976678
   225   1              2.08154854      15.184341570000001      2.4525798999999999
   226   1      6.1627929799999999      15.242923619999999      2.4545102000000001
   227   1      10.166760679999999             15.24178764      2.4130378299999999
   228   1                14.13326      15.174640439999999      2.4923352200000002
   229   1      18.169617330000001             15.30052583      2.2599990000000001
   230   1      22.260294900000002      15.327583519999999              2.48721953
   231   1      26.386963649999998             15.21374288      2.5137864400000001
   232   1      30.399194049999998             15.17745451      2.3964258200000002
   233   1    0.075563459999999999      18.773413189999999      2.4374037199999998
   234   1      4.0923186600000001      18.759556010000001      2.3430501800000001
   235   1      8.1341678700000006      18.659897319999999      2.3959859699999999
   236   1             12.06287674      18.722319330000001              2.34443263
   237   1      16.225249130000002      18.842298589999999      2.3219207499999999
   238   1      20.234750179999999      18.752534140000002      2.3627777299999999
   239   1             24.32707181              18.7858734      2.4738764400000002
   240   1      28.407546329999999             18.66044647      2.4275536400000002
   241   1      2.0456626999999998      22.289404789999999      2.3794468000000002
   242   1      5.9277473799999996             22.12174267      2.4361962099999999
   243   1      10.178783689999999      22.339416830000001      2.4309177399999999
   244   1             14.19795083      22.292607440000001      2.4120569000000001
   245   1      18.354417099999999      22.158038560000001      2.4649137699999999
   246   1             22.31505537      22.142155030000001                2.432375
   247   1      26.371523790000001      22.348191450000002              2.51009138
   248   1      30.440649789999998             22.28202593      2.4427767500000002
   249   1      32.445227359999997             25.65104277              2.38289931
   250   1      4.0124272599999999      25.841315909999999      2.3333515600000001
   251   1              8.09444388      25.844876169999999              2.48223006
   252   1      12.317838030000001      25.782785019999999      2.3833335899999999
   253   1      16.280953459999999      25.708998090000001      2.4531759599999998
   254   1      20.358484969999999      25.822524619999999      2.5540787900000002
   255   1      24.401892490000002      25.834343050000001      2.3917772300000002
   256   1      28.391905999999999      25.681897190000001      2.4124468800000001
   257   1      32.402254900000003      2.3013611799999998      3.1997161699999999
   258   1      4.0702542199999998      2.3946147899999999      3.2310208600000001
   259   1      8.1323343399999999              2.36596984              3.32016161
   260   1              12.2336302              2.31742596      3.2174207699999999
   261   1             16.27858861      2.4339290600000001      3.3000273999999998
   262   1      20.412813310000001      2.3184612100000002      3.3168258399999999
   263   1      24.360659829999999      2.3264292599999998      3.2809382199999999
   264   1             28.38581988      2.2727244799999999      3.2401108399999998
   265   1              2.00952975      5.7669605900000001      3.2753793099999999
   266   1      6.1828301899999998      5.9152146500000002      3.2161849199999999
   267   1             10.10278638      5.6808194800000003      3.2595782400000002
   268   1      14.230587679999999      5.9037306999999997      3.2357295499999998
   269   1      18.329268670000001      5.8145000199999997      3.2983157400000001
   270   1      22.321139370000001      5.7226122999999998      3.2771842599999998
   271   1      26.378589949999999      5.7914680900000004      3.2467252700000002
   272   1      30.477035300000001      5.7493104199999996      3.3365531000000002
   273   1    0.028007669999999998      9.1558442699999993      3.2729531600000001
   274   1      3.9888841899999998      9.1669805600000007      3.2133591400000001
   275   1      8.0447048900000002      9.3679083999999992      3.1926334299999999
   276   1      12.231936019999999      9.2911027700000002      3.2902539800000001
   277   1      16.058996130000001      9.3160604399999993      3.1381325599999998
   278   1             20.32224768      9.4072479599999994      3.2163375699999999
   279   1      24.343676240000001      9.3140737599999994               3.2318292
   280   1      28.359852889999999      9.3098875099999994              3.18883055
   281   1      2.0168703899999998             12.90893516              3.19071609
   282   1      6.1305196300000002              12.8516944      3.2100647200000001
   283   1             10.18094913             12.92051989              3.29295231
   284   1             14.10170967      12.744024530000001              3.14668825
   285   1      18.338850770000001             12.95544027      3.1703634699999999
   286   1             22.27771186             12.82463864      3.1829609699999999
   287   1      26.291174999999999             12.89515858      3.2775409199999999
   288   1      30.394431430000001      12.778715030000001      3.2421011200000001
   289   1   -0.051299900000000002      16.340959160000001      3.1909522300000002
   290   1      4.1300129700000001      16.455378549999999      3.2713587999999998
   291   1      8.1661510499999999              16.4712399      3.2753549899999999
   292   1      12.189703789999999      16.416611629999998      3.2444501899999998
   293   1      16.274285819999999             16.44924469      3.2603462300000001
   294   1             20.21329574              16.3920666               3.2484484
   295   1      24.396627580000001             16.48441725      3.4029715199999999
   296   1             28.39192177             16.25295242      3.2816773499999998
   297   1              2.14444408      19.973969969999999      3.1510722499999999
   298   1      6.1769548700000003      19.823961430000001      3.2460431600000001
   299   1              10.1632561      19.939921760000001      3.2067133999999999
   300   1      14.197767300000001      19.964606839999998      3.2280851799999999
   301   1      18.358746159999999             19.93947335      3.2801823300000001
   302   1      22.260143899999999             19.85889826              3.39561482
   303   1      26.359465239999999      19.958075390000001              3.32846872
   304   1      30.287397080000002             19.88174484      3.2019352300000001
   305   1   -0.082059069999999998      23.398729360000001      3.2467595199999999
   306   1      3.9655986699999999      23.293014339999999      3.3081216900000001
   307   1      8.0500059900000007      23.413770230000001      3.1113484599999999
   308   1             12.22428013      23.485441940000001      3.1685094700000001
   309   1      16.209115529999998      23.367540689999998      3.3458230100000002
   310   1             20.30132918      23.452976020000001              3.15275002
   311   1      24.294080699999999      23.402402110000001              3.23244854
   312   1      28.484898959999999      23.417641339999999      3.3119253199999998
   313   1      2.1213853399999998      26.933257739999998      3.3499773899999998
   314   1      6.1190326800000001             26.87628917      3.2189263800000001
   315   1      10.172362789999999      26.931438140000001      3.3192673699999999
   316   1      14.230428399999999      26.840406640000001      3.2521066099999998
   317   1      18.239638979999999      26.864464080000001      3.3064292900000001
   318   1      22.365653420000001             26.90434441              3.18560036
   319   1      26.359456430000002              26.9073545      3.1653956999999999
   320   1      30.394571809999999      26.923350899999999      3.2022227600000002
   321   1      32.487790510000004             28.01886459      4.0148115500000001
   322   1      4.1233112700000003              0.12205444      4.0019210899999997
   323   1      7.9706991199999999             -0.11651336      4.0781706099999999
   324   1             12.19849784   -0.066037460000000006      3.9894316700000001
   325   1             16.20085722             28.05710955      3.9970893599999999
   326   1             20.29616133      28.061749129999999      4.1158542699999998
   327   1      24.402770629999999    0.036774729999999999      4.0032359800000004
   328   1      28.462412960000002             -0.10553508      4.0667355499999998
   329   1              1.94143376      3.4276217099999999      4.0489731899999999
   330   1      6.0843294200000004      3.4617576099999998      4.0527419900000003
   331   1             10.20708013      3.3461568599999998      4.0194890599999997
   332   1      14.185283310000001      3.5814395700000001              4.03529509
   333   1      18.307237879999999      3.5320810200000001      4.1298393300000003
   334   1             22.35342709      3.5311107900000001      4.0816818599999998
   335   1             26.36935304              3.42937833              4.04130447
   336   1      30.397843470000002      3.3695987600000001      4.1112378400000003
   337   1      32.364251340000003      6.8875971800000002      4.0100857000000003
   338   1      4.1546494999999997      6.8527655200000002      4.1276873500000004
   339   1      8.2246848099999994      7.0141599100000001      3.9085607100000002
   340   1             12.19319155      6.9563976399999996      4.0124531299999999
   341   1      16.236004860000001      7.0820571399999999      4.0290298299999998
   342   1      20.320826019999998      7.0776677499999998      4.1535232400000002
   343   1             24.30523372      7.0136393300000002      4.0638349900000001
   344   1      28.438750049999999      6.9506199799999999      4.0889113699999999
   345   1      2.0370686099999999             10.54394608      4.1047488899999998
   346   1      6.0334885600000003      10.372406590000001      3.9978637199999998
   347   1              10.2669546      10.511793490000001      3.9933073700000001
   348   1             14.24967811             10.51431846      4.0399934899999996
   349   1      18.156360629999998      10.561533000000001      4.0430492200000003
   350   1      22.256243170000001      10.433477829999999      4.1008620100000002
   351   1      26.328924499999999             10.57514604              4.10774799
   352   1      30.495481600000002             10.48489794      4.1092970299999996
   353   1      32.424167730000001             13.92901773      4.0548325099999998
   354   1      4.0323401900000002             14.06785492      4.0770178000000001
   355   1      8.1674113800000008             14.06778817      3.9751573900000001
   356   1      12.107523199999999      13.988076919999999      3.9596993199999999
   357   1      16.137312170000001      13.985859639999999      4.0628890000000002
   358   1      20.276783649999999      14.063481100000001      4.0142527799999996
   359   1      24.283077519999999             14.09678912      3.9664262199999998
   360   1             28.36580683      13.962733200000001      4.0312144200000004
   361   1              2.07740422      17.556160080000001      3.9175855899999998
   362   1      6.1854631900000001      17.602012219999999      4.1077661699999997
   363   1      10.119823090000001      17.698218839999999      4.1061754300000004
   364   1             14.16170565      17.586142720000002      3.9592698899999998
   365   1      18.269104559999999      17.642251330000001      4.0656654999999997
   366   1             22.24199896      17.540211029999998      4.1552829400000002
   367   1      26.391998480000002             17.54865414              4.11914392
   368   1      30.351575520000001      17.436166879999998      4.0692290499999997
   369   1      32.420779629999998      20.992494449999999      4.0471034499999998
   370   1      4.1739545700000003      20.907399640000001              4.11046055
   371   1      8.2040706399999994      21.095152240000001      4.0313628699999997
   372   1      12.145514240000001      21.108256269999998      3.9807209100000001
   373   1      16.284962790000002      21.057885970000001      4.0648800899999999
   374   1      20.283767090000001             21.07857817      4.0174577100000004
   375   1             24.35835376      21.085430559999999      4.2111591700000002
   376   1      28.392124190000001      21.106049800000001      4.1163740400000002
   377   1              2.03230734      24.467926349999999      4.0497672099999997
   378   1              6.04904946      24.588391349999998               4.0566293
   379   1             10.16822528             24.47145429      3.9628452200000002
   380   1             14.20337857      24.600954210000001      4.0249692399999999
   381   1      18.394035389999999      24.690917420000002      4.0947434400000002
   382   1      22.294441819999999      24.601926880000001      4.0719073100000003
   383   1      26.348347140000001             24.55211997      4.0461585900000001
   384   1      30.517794599999998      24.671822280000001      4.0855546900000004
   385   1      2.0453906499999999              1.14795223      5.0172022800000002
   386   1      6.0734967700000002      1.1820626599999999              4.96507641
   387   1             10.15913149      1.0306370499999999      4.9034946000000001
   388   1      14.292526759999999              1.12272105      4.8882112400000004
   389   1      18.245413060000001              1.16120774      5.0367214200000001
   390   1      22.355641840000001              1.14666183              4.92201412
   391   1      26.338804889999999      1.0276590400000001      4.9277708899999997
   392   1             30.45106638      1.1618972400000001              4.97222337
   393   1      32.522570649999999      4.5643567799999998      4.8373343499999999
   394   1              3.98573186      4.6068042299999998      4.9278877799999998
   395   1      8.2166810800000007      4.5688419199999997      4.8062755099999999
   396   1             12.03678339      4.6616672100000001      4.9784911100000002
   397   1             16.20405706      4.7456159199999997      4.9422498900000003
   398   1      20.321278070000002              4.65834087              4.87035149
   399   1      24.461549869999999      4.5736049200000002      4.9832269800000004
   400   1      28.320568510000001      4.5888455500000003      4.8886158599999998
   401   1      1.9939394800000001               8.1337332      4.9546985599999998
   402   1      6.1044155599999996      8.0194941600000007      4.7992498799999996
   403   1             10.23538623      8.1580657999999993      4.7275701100000003
   404   1             14.09312444      8.0187136500000005      4.9509609799999996
   405   1             18.30523359      8.2591302500000001      5.0021187999999999
   406   1      22.329707039999999      8.0651527099999996      5.0444081499999998
   407   1      26.403093299999998      8.1029577100000001      4.9646054299999998
   408   1      30.450041599999999      8.0736562799999998      4.9125072999999997
   409   1      32.527654460000001      11.669162500000001              4.98435776
   410   1      4.0740999799999997             11.69934381              4.97293948
   411   1      8.0909407600000005              11.5786307      4.8406703999999996
   412   1      12.334214210000001      11.635418789999999      4.8759156399999997
   413   1      16.148536050000001             11.66729398      4.8835484300000003
   414   1      20.145226390000001      11.729981970000001      4.8617053400000003
   415   1             24.35177758             11.68878439      4.8652423699999998
   416   1      28.484026490000002             11.75621883      4.9017081500000002
   417   1      2.0415364399999998      15.191379769999999      4.8361736500000001
   418   1      6.0319909200000001             15.22610216      4.8572197900000003
   419   1             10.21123225             15.32321851      5.0190599200000001
   420   1             14.22712372      15.258004980000001              4.83099788
   421   1      18.146679850000002      15.263339070000001              4.86294133
   422   1             22.20247509             15.20180339      4.9450621999999997
   423   1      26.283990769999999             15.27072605      4.9684439999999999
   424   1      30.383662529999999             15.13617464      4.8343793799999997
   425   1      32.529462019999997             18.54155961      4.9161794600000004
   426   1      4.1659641000000001      18.644013579999999      4.9353130399999996
   427   1      8.0454199400000004      18.728124229999999      4.9558576099999998
   428   1             12.18668761      18.774815579999999      4.7935140699999996
   429   1      16.177577800000002             18.71047789      4.9526432800000002
   430   1      20.273770410000001      18.680221759999998      4.9259007400000003
   431   1      24.255240629999999             18.69908701      5.0849182099999997
   432   1             28.47947572      18.774596320000001      4.9488774900000001
   433   1              2.04138077      22.108439239999999              4.85872232
   434   1      6.0696716999999998      22.272853189999999      4.8155267799999999
   435   1             10.15928242      22.301401210000002      4.9459502899999999
   436   1      14.234182280000001      22.195889340000001      4.9436600000000004
   437   1             18.20720863      22.363466729999999      4.9354867999999996
   438   1      22.373491319999999      22.107194530000001      4.9492658699999996
   439   1             26.42646268             22.16821384      4.9291883500000004
   440   1      30.505923129999999             22.31246518      4.9937315499999997
   441   1      32.530763090000001      25.813809689999999      4.8524812199999996
   442   1      4.1154461500000004      25.883278189999999      4.9342375900000004
   443   1      8.0634944399999995      25.760182539999999      4.8835438800000004
   444   1             12.21944762      25.716761739999999      4.9190903700000002
   445   1             16.27040517      25.712049530000002      4.9151366100000002
   446   1      20.338661219999999      25.839376649999998      4.9675021199999998
   447   1              24.1594646      25.790786709999999      4.9074787899999999
   448   1      28.478193009999998      25.623321399999998              4.81337321
   449   1      32.520266999999997      2.3598120499999999      5.7665962799999999
   450   1      4.1205770800000003      2.2549674899999999      5.7457865000000004
   451   1      8.2146896100000006              2.22489458      5.6958494699999997
   452   1      12.254573389999999      2.3098905300000001      5.6767365700000001
   453   1      16.278639380000001      2.4169311200000001      5.7450463599999999
   454   1             20.41105709      2.4630475600000001      5.7040922399999996
   455   1      24.366055859999999      2.2999896099999999      5.8186213699999998
   456   1      28.320415400000002              2.21292439      5.6924611599999997
   457   1      2.0252854400000002      5.7865858899999996      5.7069339100000001
   458   1      6.1104910600000002      5.6740291799999998              5.62526131
   459   1             10.02421751      5.7292218100000003              5.75654456
   460   1      14.118839380000001      5.7256379300000004      5.7333792399999997
   461   1             18.34690466              5.73493399      5.7691994600000003
   462   1      22.368290269999999      5.8470842599999999      5.7684029499999996
   463   1             26.41889273      5.8044087900000001      5.7510365600000002
   464   1      30.485693449999999      5.7785753499999997      5.8027212099999996
   465   1      32.492064409999998      9.3189720999999999      5.7831681699999997
   466   1      4.0789075099999996      9.2440691400000006      5.5806138199999999
   467   1      8.1429280899999998      9.2088823600000005      5.5703366699999997
   468   1      12.140019540000001              9.15867757      5.6870056599999996
   469   1             16.17062808      9.3077689100000001              5.69675274
   470   1      20.304246559999999      9.3665717599999994      5.8315759900000002
   471   1      24.554742739999998      9.3823761599999997      5.7021897700000004
   472   1             28.49641226      9.3448326900000005      5.6858356099999998
   473   1              2.02143658             12.78777955              5.69634748
   474   1      6.0291546299999998             12.81170515      5.6612836700000004
   475   1             10.16284111      12.737622460000001               5.7882251
   476   1      14.223080810000001             12.73443483      5.7631785500000001
   477   1      18.088143909999999             12.88083323              5.61043994
   478   1      22.327882280000001             12.93544243      5.7659405399999999
   479   1             26.30921004             12.88957087      5.7385127799999998
   480   1      30.488063700000001             12.99415252              5.72577303
   481   1     0.14848019000000001      16.308124320000001      5.5891025799999996
   482   1              3.97995951              16.3368571      5.7142960699999996
   483   1      8.2500081699999992      16.480986430000002      5.7881415900000004
   484   1             12.24431309      16.469257020000001              5.72923764
   485   1      16.238345630000001      16.376376350000001      5.7813149399999997
   486   1      20.249072949999999      16.368505710000001              5.70872578
   487   1      24.329934359999999      16.389740110000002      5.8216833100000001
   488   1             28.36381737             16.36142259      5.6268254200000003
   489   1              1.98578488      19.759226720000001      5.6647459900000001
   490   1      6.0601729200000003             19.87860907      5.7805419300000001
   491   1             10.14045593      20.031216879999999      5.6146235200000003
   492   1      14.232818050000001      19.805179679999998      5.8595071000000001
   493   1      18.354268690000001      19.936159969999999      5.6347255399999998
   494   1             22.39901901             19.77527546      5.8504093299999997
   495   1      26.360845579999999      19.870598810000001      5.7308039300000004
   496   1             30.48036063      19.908879989999999      5.7474773800000003
   497   1             32.44229799      23.460604230000001      5.6889585199999999
   498   1      4.0222062200000002      23.502712519999999      5.5594273999999997
   499   1      8.0632405400000007             23.36870115      5.6549303699999998
   500   1             12.11630411      23.447796459999999              5.63243969
   501   1             16.26205586              23.4469478      5.9108263399999998
   502   1      20.256573679999999             23.36540282      5.8230541599999999
   503   1      24.250103800000002             23.31822682      5.6978033100000003
   504   1      28.457139250000001             23.37656277      5.7077287099999996
   505   1      2.0161568399999998      27.043639469999999      5.8198599700000004
   506   1      6.1416610499999997      26.857407689999999              5.71359701
   507   1      10.078045510000001      26.809332640000001              5.71386094
   508   1             14.25849404      26.911380879999999      5.7793339100000001
   509   1             18.28442244             26.91592618      5.7728797299999997
   510   1      22.220768400000001      26.937439000000001      5.7857000899999997
   511   1             26.34482306             26.77780503      5.6193076399999997
   512   1      30.505139239999998      26.963367739999999      5.6631225499999998
   513   1      32.584530469999997               28.202261      6.5434096100000003
   514   1      4.0671520499999998             28.12019626      6.5970826100000002
   515   1      8.2859935900000004      28.039918239999999      6.6758108500000004
   516   1             12.31518389   -0.088901480000000005      6.6064354300000003
   517   1      16.290920379999999             28.00785582      6.5979847899999999
   518   1      20.128275299999999    0.053096860000000003      6.6736254099999996
   519   1             24.28071242             28.02204764      6.4455046999999999
   520   1             28.42334133   -0.078933690000000001      6.5086666500000003
   521   1      2.0013578700000001      3.4083282100000001      6.5579979899999996
   522   1              6.12718645      3.3843373099999998      6.6350938599999996
   523   1              10.1390966      3.4786730100000001      6.5301750900000002
   524   1      14.159561289999999              3.48765941      6.7075366900000004
   525   1               18.360557      3.4323204399999998      6.5547652599999999
   526   1      22.411980249999999      3.4396792199999999      6.6443851399999998
   527   1      26.363530310000002      3.4057846999999999      6.5127515499999999
   528   1      30.379698260000001      3.5170083499999998      6.6804700500000003
   529   1             32.52055833      7.0446109899999998      6.5018203200000002
   530   1      4.0806972400000001      6.8897153800000002      6.4746263800000001
   531   1      8.1309274499999997      6.8808618600000004      6.5326444400000003
   532   1      12.080886810000001      6.9871926699999998              6.44263867
   533   1      16.287048779999999      6.9591108899999998              6.49513111
   534   1             20.31403942              7.00458757      6.6947916200000002
   535   1      24.344293270000001      7.1472960399999996      6.5558210900000002
   536   1             28.38809904      7.0989639200000001      6.5264196099999996
   537   1      2.0674018900000002             10.50325379      6.6342425900000004
   538   1      6.1111061299999996             10.38225124      6.5279614099999996
   539   1      10.148144070000001      10.376249700000001      6.4721088800000004
   540   1      14.158214449999999      10.493059239999999      6.6340508700000003
   541   1             18.30914172      10.658381739999999      6.6561994599999998
   542   1      22.411627630000002      10.471083889999999      6.6033791400000004
   543   1      26.482524049999999      10.569700640000001      6.7546865499999997
   544   1              30.4803766             10.52764097      6.5886489199999998
   545   1    0.032794030000000002             14.00377838      6.5178082100000001
   546   1      4.1011478600000002      13.977980049999999      6.5557031099999996
   547   1      8.1193514699999998      14.052608210000001      6.4266233399999999
   548   1             12.15222224      14.069814709999999      6.4970163200000002
   549   1      16.152354949999999             14.14623742      6.6345404800000001
   550   1      20.233877769999999      14.040875570000001      6.5860059199999998
   551   1      24.373169870000002              14.1011617      6.5953006900000002
   552   1      28.494245540000001             14.00287909      6.5626899300000003
   553   1      2.0125582099999999             17.59240775      6.4817212399999997
   554   1      6.1132607300000004      17.461473460000001      6.5650197400000003
   555   1             10.19761405      17.591385410000001      6.6013885800000001
   556   1      14.135613299999999      17.560154000000001      6.6093897500000001
   557   1      18.230018569999999      17.518816709999999      6.5957669499999998
   558   1      22.178203679999999             17.35695934      6.6135410600000002
   559   1      26.357974389999999      17.479258349999999      6.6977186700000004
   560   1             30.47784146      17.411919529999999              6.41018387
   561   1      32.537579239999999      21.031150270000001      6.5607249400000001
   562   1      3.9792491700000001      21.038570329999999      6.5642003799999999
   563   1      8.0811445200000005             21.07158634      6.6062374100000003
   564   1      12.193629659999999      21.074083739999999      6.5284863299999998
   565   1      16.252697690000002      21.094697270000001      6.5866079800000001
   566   1      20.378878109999999      20.996585499999998      6.5139655899999998
   567   1      24.307753730000002             20.99818982              6.56984411
   568   1      28.377861169999999      21.063503269999998      6.6015152099999996
   569   1              1.95268471             24.61711949              6.48003164
   570   1      6.1580089200000003      24.652799810000001      6.5435215099999997
   571   1             10.05738438             24.43375374      6.5145616999999998
   572   1      14.141404980000001      24.522153620000001      6.6933610100000003
   573   1              18.2320925      24.649047199999998      6.6625644299999998
   574   1      22.305310890000001      24.469135949999998      6.6924114000000001
   575   1      26.454506179999999             24.42568288      6.4470681599999997
   576   1      30.474987689999999              24.6080647      6.5967610199999998
   577   1      2.0675838999999998              1.10765201      7.6619473200000003
   578   1      6.2239288000000004              1.12932101      7.5988064299999998
   579   1             10.36763569              1.09133719      7.2736547099999997
   580   1      14.323204970000001      1.0617178599999999      7.5923119999999997
   581   1      18.254993679999998      1.1810277899999999      7.6324229399999997
   582   1      22.324459829999999      1.1389681199999999      7.5330981899999996
   583   1      26.366651919999999              1.08120554      7.6170678399999998
   584   1             30.44336586      1.1937450199999999      7.4924050299999996
   585   1      32.411139120000001      4.6635426500000001      7.5009985199999996
   586   1      4.0872817299999999      4.5822910600000002              7.39065057
   587   1      8.0989367100000003      4.5400043500000002      7.5138945699999997
   588   1             12.20289401      4.6229682800000003      7.7070326199999997
   589   1              16.1076446      4.6432864599999997      7.5893071000000001
   590   1      20.416005429999998      4.6691166800000001      7.5385880900000002
   591   1      24.374007020000001              4.69744428      7.4650922599999996
   592   1      28.455089560000001      4.6786736500000004      7.3898700000000002
   593   1              2.05171532      8.2467982699999993      7.4544526199999996
   594   1      6.1154098899999996      8.0344653299999997      7.4970106999999997
   595   1             10.13813796      8.1809443799999997      7.1902928099999999
   596   1      14.216309519999999      8.1389786100000006              7.44255625
   597   1      18.245226779999999      8.0861312200000004      7.4872536900000002
   598   1      22.243554790000001      8.2314621100000007      7.5553707299999999
   599   1      26.420605309999999      8.2081038900000003      7.4794270799999998
   600   1      30.482147250000001      8.0654820300000001      7.4893655800000003
   601   1    0.097554619999999995             11.62676523      7.4902442799999998
   602   1      4.0829419600000003      11.605872160000001      7.4297657199999998
   603   1      8.1446693799999998             11.65891882      7.3690203900000002
   604   1             12.07984716             11.69318329      7.4021313900000001
   605   1             16.23319343             11.66886854      7.3486602400000001
   606   1      20.291823579999999             11.78867625      7.4780021799999998
   607   1      24.415145500000001      11.706854379999999      7.5897450400000004
   608   1      28.596348519999999      11.747466729999999      7.6329796999999999
   609   1      2.0901959799999998             15.27460365      7.5099728499999996
   610   1      6.0287560400000002             15.02710229              7.45489567
   611   1      10.170087199999999      15.214164719999999      7.5875069999999996
   612   1             14.11975305      15.144787579999999              7.53198787
   613   1             18.19108739      15.200938969999999      7.5417709100000003
   614   1      22.178662289999998             15.20879532      7.5713126500000003
   615   1             26.30674432             15.17847415      7.4816771299999996
   616   1             30.46181399             15.24506622      7.5547766899999997
   617   1      32.450078599999998      18.663175039999999      7.4813856200000002
   618   1      3.9987442600000001             18.70901057      7.3439261900000004
   619   1      8.0412776400000006             18.71057596      7.5511791800000001
   620   1             12.25811257      18.757872670000001      7.4900956399999998
   621   1      16.148616359999998      18.702396159999999      7.5813965200000002
   622   1      20.274121310000002             18.75303469      7.5272862299999996
   623   1      24.280374850000001             18.64545021      7.6557308300000004
   624   1      28.397951840000001      18.654777249999999      7.4898654000000002
   625   1      2.1401913000000001      22.295293059999999      7.3707875600000001
   626   1      6.0106255099999997      22.363524659999999               7.3660036
   627   1      10.095695020000001             22.19550211               7.4626592
   628   1             14.27582123      22.213118980000001      7.5919411300000004
   629   1      18.431475559999999      22.293276089999999      7.5303345999999998
   630   1      22.334521949999999      22.099384180000001      7.6594080800000004
   631   1             26.36783715             22.16112832      7.4779095299999998
   632   1      30.657078779999999      22.272300860000001      7.5650990499999997
   633   1             32.46978343      25.833221850000001      7.5930924500000003
   634   1      4.0264309699999998             25.76537355      7.4568448299999996
   635   1      8.1322934900000003             25.72683997      7.5396095399999998
   636   1             12.12378606             25.63813279      7.3692080100000004
   637   1             16.21353555      25.666803359999999              7.54106261
   638   1             20.27127226             25.83342476      7.4189686699999999
   639   1             24.50683751      25.653696180000001      7.5525121500000001
   640   1             28.41591923      25.684505609999999      7.5474876200000001
   641   1      32.462945730000001      2.3473132799999998      8.2007914300000007
   642   1              4.15507502      2.3047052200000002      8.3313963700000002
   643   1      8.2962900600000005      2.1969474999999998      8.2244680799999994
   644   1             12.37713142      2.2684545800000002      8.0558238299999996
   645   1      16.159846609999999      2.3837822800000001      8.4744363699999994
   646   1      20.337828080000001      2.2413992299999999      8.1089928199999992
   647   1      24.396247939999999      2.2236803799999998      8.0869958799999999
   648   1      28.474028140000001      2.2916000300000001      8.1118061699999995
   649   1               2.0968282      5.7990394199999997      8.0974837999999991
   650   1      6.0161536800000004      5.7103024900000001              8.17082862
   651   1      9.9569328299999995      5.7684494600000003      8.1269180599999995
   652   1             14.21216735      5.7895713600000001      8.1862861999999996
   653   1             18.27894495               5.6969699      8.2417848599999992
   654   1      22.329688610000002      5.8183072999999998      8.2064947099999994
   655   1      26.339451669999999      5.8552136900000002      8.0226814300000004
   656   1             30.43378311      5.8192069799999997      8.1534938700000001
   657   1   -0.028686779999999999      9.2985185099999992      8.2961235200000001
   658   1              4.14970281      9.2604906899999992      8.0843179999999997
   659   1      8.2847662599999996      9.2828661599999993      7.9884705399999998
   660   1             12.27383116      9.4493062499999994      8.1464685499999998
   661   1      16.267061399999999      9.2038660199999995      8.1317806699999995
   662   1      20.222416590000002      9.3666961000000004      8.3340335999999997
   663   1      24.331193259999999      9.5076449099999998      8.2225441999999997
   664   1      28.475715009999998      9.3844698500000003      8.1082233600000002
   665   1      2.0266362099999999      12.879073890000001      8.1142011400000005
   666   1      6.0650765800000004             12.80789154              8.19126902
   667   1             10.16390855             12.84184286      8.1855602300000001
   668   1      14.183998300000001      12.750708339999999      8.0712314299999992
   669   1      18.218905150000001             12.93204244      8.1213535599999993
   670   1             22.37698619             12.82427189      8.2798745900000004
   671   1             26.57712033              12.8768905      8.2505264999999994
   672   1      30.563097549999998             12.95464993      8.1618825000000008
   673   1             -0.01997968      16.402369929999999      8.2723270899999992
   674   1      4.1377717699999996      16.299018830000001      8.0771691600000004
   675   1      7.9446613499999996      16.330562499999999               8.0741692
   676   1      12.220264090000001      16.430462559999999      8.1749302900000007
   677   1      16.178939490000001             16.33581143      8.2310659400000006
   678   1             20.19566635             16.43992557      8.1195008800000004
   679   1      24.188245970000001      16.341929520000001      8.1914032399999996
   680   1      28.327268010000001      16.257373350000002      8.1768283200000003
   681   1      2.0139882600000001      20.093885960000001      8.1884659400000004
   682   1      5.9744106099999996             19.99349935      8.2863440399999995
   683   1             10.21921122      19.844131010000002      8.1157825599999995
   684   1             14.21137734      19.933806669999999      8.3520880799999997
   685   1             18.14314929      19.920649829999999      8.0353687699999998
   686   1      22.336445900000001      19.817062839999998      8.3067697700000007
   687   1             26.44077811             19.77721335      8.1921331599999991
   688   1      30.463511019999999      19.904198130000001      8.0139256000000003
   689   1              0.10693421             23.49598027              8.10072978
   690   1      4.1274342900000001      23.377942990000001      8.1212424300000006
   691   1      8.0004863499999992      23.367461349999999      8.1760657499999994
   692   1      12.128160980000001             23.34596453      8.2083987700000005
   693   1      16.289640810000002      23.361045470000001      8.3781965300000003
   694   1      20.298777810000001      23.410324719999998      8.2048585000000003
   695   1             24.42485241             23.28257705      8.1154552800000008
   696   1             28.54107277      23.408818459999999      8.2383858199999995
   697   1      2.0603201699999998      26.863818330000001              8.14991545
   698   1      5.9286469899999998      26.930305650000001      8.2019742200000003
   699   1             10.25424037             26.86918283      8.1552568099999991
   700   1      14.272480509999999      26.914379140000001      8.2765997299999992
   701   1      18.346184610000002             27.00700041      8.2298323199999999
   702   1      22.420433599999999      26.764797250000001               8.0039897
   703   1      26.418424170000002             26.86464913      8.1461649000000005
   704   1      30.332097130000001             26.88042583      8.0995250999999993
   705   1    -0.28511929000000003              28.1986043      8.8679957900000002
   706   1      3.7505621499999999      28.090859699999999      9.0873305599999998
   707   1      8.1406287600000002    -0.36551937000000001      9.0691746500000008
   708   1             12.20063244      28.141906460000001      8.9454761000000005
   709   1             16.31469899              28.2376425      8.9127168900000004
   710   1      20.562237750000001             28.02426152      8.9814524299999992
   711   1      24.329248249999999             -0.16292239      8.8861056699999992
   712   1      28.364740189999999             28.16084725      8.9414725500000003
   713   1      2.0715312899999998              3.60293062      8.9212388399999991
   714   1      6.2004611199999999      3.4102506699999999      9.1716438500000006
   715   1             10.39707724      3.4240592099999998      8.9075730199999992
   716   1             14.11329068      3.6666695800000002      9.1829943800000002
   717   1      18.434768349999999      3.3600941199999999      9.0120758799999994
   718   1      22.220615859999999      3.4913148299999999      9.0461352000000002
   719   1              26.6104424              3.62731212      8.9788814800000001
   720   1      30.425269060000002      3.6943041600000002      9.0421246400000008
   721   1   -0.080067979999999997              6.87210315      9.0120032200000004
   722   1      4.0790979099999998      7.1526686599999998      8.7952302299999996
   723   1      7.8751421600000002      7.0193574099999996      8.8965657100000008
   724   1             12.15463329      7.0739111899999996      8.9594845000000003
   725   1      16.207299299999999      6.9774702499999997      8.8790224999999996
   726   1      20.256260309999998      6.9190680599999999      9.0305969000000008
   727   1      24.355492479999999      7.0005673599999998      8.9831328999999993
   728   1      28.369806919999998      6.9765113699999999      8.9152405300000002
   729   1              1.95633447              10.4007933      8.9648308199999995
   730   1      6.2243103299999998             10.36001119      8.8557136399999994
   731   1      10.104255350000001               10.450222      8.8659021500000001
   732   1             14.33227239      10.437067300000001      9.1845118499999998
   733   1      18.179541029999999              10.6164729      9.0377840000000003
   734   1             22.41266637             10.58762752      9.0190013899999997
   735   1      26.423882389999999             10.62401244      9.0233286199999991
   736   1      30.461732829999999             10.55751199      8.9759612400000002
   737   1      32.487497779999998             14.16753915      8.9637144699999993
   738   1      4.1090276699999997             14.13072208      9.0466292500000005
   739   1      8.1100169999999991      14.140351320000001      8.8513358400000008
   740   1             12.29346074      13.965929129999999      8.8089559000000008
   741   1      16.177542370000001             13.95444515      9.0296239400000005
   742   1             20.23416272              13.8944358      8.9247754399999994
   743   1      24.438656630000001      14.120878299999999      8.9055180699999994
   744   1      28.575931520000001      14.097308379999999      8.9518273900000001
   745   1              2.08157294             17.53112939      8.8107828000000001
   746   1      6.0036545800000001             17.67999077      8.9136855100000005
   747   1              10.1963952             17.56554642      8.9587549200000005
   748   1      14.161079429999999      17.694101880000002      9.0046542600000006
   749   1             18.15571984      17.514825009999999      8.9366416999999991
   750   1             22.13880511      17.555693059999999      9.1409151200000007
   751   1      26.146763180000001      17.554255909999998      9.0455237499999992
   752   1      30.360412190000002      17.685637639999999      8.8895725799999994
   753   1   -0.069989670000000004             21.03517635      8.8767672999999991
   754   1      3.9687417800000002             21.18700591      9.0745468599999999
   755   1      8.2479090999999993      21.093506519999998      8.9326729500000006
   756   1      12.076063919999999      21.080214250000001      8.9139794299999995
   757   1      16.382867390000001      21.025802209999998      8.9942190400000008
   758   1      20.048858939999999             21.02998857      8.9503842500000008
   759   1             24.50764925      20.926937649999999      8.9347741200000002
   760   1      28.488942210000001             21.15725247      9.1077928900000007
   761   1      2.1532026700000002      24.590913560000001      8.9233488699999999
   762   1      5.9038978599999998      24.645868960000001      8.9725877700000005
   763   1             10.00721074      24.586203680000001      8.9544899600000001
   764   1             14.18118619      24.547638129999999      9.0397040299999993
   765   1             18.35623335             24.65773802      9.1473592299999993
   766   1      22.500226940000001      24.560616580000001      8.9803975200000004
   767   1      26.392696340000001      24.346384109999999      8.9577466099999992
   768   1      30.625467029999999      24.633379770000001      9.0803247000000002
   769   2             15.43435882      12.119947079999999      9.4367813500000004
   770   2      16.318700920000001             10.57013383              9.40875518
