N2-dn2-coord-10bar/300K/snapshots/frame-59893/run-000/../data.lammps (written by ASE) 

770 	 atoms 
2  atom types
0.0      32.470343392086264  xlo xhi
0.0      28.120142247150884  ylo yhi
0.0      31.213473999158239  zlo zhi


Atoms 

     1   1      2.0293964600000001      1.1716090800000001    0.023552650000000001
     2   1      6.0880008999999999              1.17168918              0.02556874
     3   1      10.146952280000001              1.17170328    0.025416459999999998
     4   1      14.205754900000001      1.1716496700000001              0.02501565
     5   1             18.26456816              1.17166478              0.02504435
     6   1             22.32338141      1.1716496700000001              0.02501565
     7   1      26.382184030000001              1.17170328    0.025416459999999998
     8   1      30.441135410000001              1.17168918              0.02556874
     9   1  9.1780000000000006e-05      4.6866847900000002    0.025581599999999999
    10   1      4.0587011400000002      4.6866847900000002    0.025581599999999999
    11   1      8.1174961000000003      4.6866290399999997    0.025584639999999999
    12   1             12.17638011      4.6866852999999997              0.02491202
    13   1             16.23517979      4.6866942700000003    0.025006210000000001
    14   1      20.293956519999998      4.6866942700000003    0.025006210000000001
    15   1      24.352756209999999      4.6866852999999997              0.02491202
    16   1      28.411640219999999      4.6866290399999997    0.025584639999999999
    17   1      2.0293964600000001      8.2016395800000002    0.026613040000000001
    18   1      6.0881071599999999      8.2016314300000008              0.02543782
    19   1             10.14701835               8.2017045    0.025156850000000001
    20   1      14.205766049999999      8.2017080900000003    0.024990459999999999
    21   1             18.26456816      8.2017077599999997    0.025091249999999999
    22   1      22.323370260000001      8.2017080900000003    0.024990459999999999
    23   1      26.382117969999999               8.2017045    0.025156850000000001
    24   1      30.441029149999999      8.2016314300000008              0.02543782
    25   1  9.2789999999999998e-05             11.71671873    0.025573410000000001
    26   1              4.05870014             11.71671873    0.025573410000000001
    27   1      8.1176017700000003             11.71668698              0.02497914
    28   1             12.17637068             11.71673069    0.025001590000000001
    29   1      16.235177310000001      11.716730249999999    0.025074039999999999
    30   1      20.293959009999998      11.716730249999999    0.025074039999999999
    31   1      24.352765640000001             11.71673069    0.025001590000000001
    32   1      28.411534549999999             11.71668698              0.02497914
    33   1      2.0293964600000001             15.23167155              0.02525285
    34   1      6.0881728300000004      15.231678799999999    0.025062859999999999
    35   1             10.14698486      15.231762639999999               0.0250786
    36   1             14.20578841             15.23176782    0.025201990000000001
    37   1             18.26456816              15.2317707    0.025149979999999999
    38   1      22.323347900000002             15.23176782    0.025201990000000001
    39   1      26.382151459999999      15.231762639999999               0.0250786
    40   1      30.440963480000001      15.231678799999999    0.025062859999999999
    41   1      32.470327990000001      18.746748629999999    0.024951939999999999
    42   1      4.0588083299999997      18.746748629999999    0.024951939999999999
    43   1      8.1175770200000006      18.746803499999999    0.025222040000000001
    44   1             12.17637459      18.746799750000001    0.025428470000000002
    45   1      16.235159400000001      18.746805200000001    0.025487360000000001
    46   1      20.293976919999999      18.746805200000001    0.025487360000000001
    47   1      24.352761730000001      18.746799750000001    0.025428470000000002
    48   1             28.41155929      18.746803499999999    0.025222040000000001
    49   1      2.0293964600000001      22.261939099999999    0.025844880000000001
    50   1      6.0881419299999999      22.261841799999999    0.025489439999999999
    51   1             10.14692954             22.26176895              0.02551757
    52   1             14.20573559      22.261804690000002    0.025639160000000001
    53   1             18.26456816             22.26178625    0.025640119999999999
    54   1      22.323400729999999      22.261804690000002    0.025639160000000001
    55   1      26.382206780000001             22.26176895              0.02551757
    56   1             30.44099439      22.261841799999999    0.025489439999999999
    57   1  5.6450000000000003e-05      25.776936450000001              0.02613327
    58   1      4.0587364700000004      25.776936450000001              0.02613327
    59   1      8.1175325399999991              25.7767713    0.024734180000000001
    60   1      12.176376469999999      25.776831090000002              0.02545323
    61   1      16.235145939999999      25.776775220000001    0.025273360000000002
    62   1             20.29399038      25.776775220000001    0.025273360000000002
    63   1      24.352759840000001      25.776831090000002              0.02545323
    64   1      28.411603769999999              25.7767713    0.024734180000000001
    65   1  0.00024266000000000001              2.34304215     0.80166565000000001
    66   1      4.0585502699999996              2.34304215     0.80166565000000001
    67   1      8.1157394600000003              2.34454954     0.80169402000000001
    68   1             12.17601256      2.3433829099999999     0.80116898000000003
    69   1      16.235258170000002      2.3433209100000001     0.80090046999999998
    70   1      20.293878150000001      2.3433209100000001     0.80090046999999998
    71   1      24.353123750000002      2.3433829099999999     0.80116898000000003
    72   1      28.413396859999999              2.34454954     0.80169402000000001
    73   1      2.0293964600000001      5.8582218700000004     0.80119762000000005
    74   1      6.0870566899999998      5.8583336700000004              0.80194851
    75   1             10.14649655              5.85853131     0.80121584000000001
    76   1             14.20597894      5.8582938599999999     0.80086840999999998
    77   1             18.26456816      5.8583798500000004               0.8010794
    78   1      22.323157380000001      5.8582938599999999     0.80086840999999998
    79   1             26.38263976              5.85853131     0.80121584000000001
    80   1      30.442079629999999      5.8583336700000004              0.80194851
    81   1  0.00019438999999999999      9.3717771800000005     0.80082061000000004
    82   1      4.0585985400000002      9.3717771800000005     0.80082061000000004
    83   1      8.1175070500000004      9.3725002699999997     0.80149060999999999
    84   1      12.176590020000001      9.3733583399999993     0.80088261999999999
    85   1             16.23512199      9.3733789200000004              0.80106506
    86   1             20.29401433      9.3733789200000004              0.80106506
    87   1      24.352546289999999      9.3733583399999993     0.80088261999999999
    88   1      28.411629269999999      9.3725002699999997     0.80149060999999999
    89   1      2.0293964600000001             12.88692854     0.80220621000000003
    90   1      6.0883212999999996             12.88743848     0.80138414999999996
    91   1      10.147128609999999             12.88859852     0.80085256000000005
    92   1             14.20571782      12.888558189999999     0.80113791000000001
    93   1             18.26456816      12.888409899999999     0.80109381000000002
    94   1      22.323418490000002      12.888558189999999     0.80113791000000001
    95   1             26.38200771             12.88859852     0.80085256000000005
    96   1      30.440815019999999             12.88743848     0.80138414999999996
    97   1              0.00012365      16.403222639999999     0.80145666999999998
    98   1      4.0586692700000002      16.403222639999999     0.80145666999999998
    99   1      8.1174337899999998      16.403825260000001     0.80097196999999998
   100   1              12.1761021             16.40390721     0.80133072000000005
   101   1             16.23503496      16.403861750000001     0.80140014999999998
   102   1      20.294101359999999      16.403861750000001     0.80140014999999998
   103   1      24.353034220000001             16.40390721     0.80133072000000005
   104   1      28.411702529999999      16.403825260000001     0.80097196999999998
   105   1      2.0293964600000001      19.919205120000001     0.80066369999999998
   106   1              6.08752564             19.91894023     0.80122479000000002
   107   1      10.146078839999999             19.91919038     0.80159137999999996
   108   1      14.204993419999999              19.9192584     0.80178742000000003
   109   1             18.26456816      19.919377350000001     0.80194975999999996
   110   1      22.324142899999998              19.9192584     0.80178742000000003
   111   1      26.383057470000001             19.91919038     0.80159137999999996
   112   1      30.441610669999999             19.91894023     0.80122479000000002
   113   1              0.00142012      23.434536609999999     0.80178442000000005
   114   1      4.0573728100000004      23.434536609999999     0.80178442000000005
   115   1      8.1165862000000004      23.433936769999999     0.80182306000000003
   116   1             12.17555218      23.433996919999998     0.80156656000000004
   117   1             16.23465491      23.434040110000002     0.80170828999999999
   118   1      20.294481409999999      23.434040110000002     0.80170828999999999
   119   1      24.353584130000002      23.433996919999998     0.80156656000000004
   120   1      28.412550110000002      23.433936769999999     0.80182306000000003
   121   1      2.0293964600000001      26.949875330000001              0.80297246
   122   1      6.0858208300000003      26.950066320000001              0.80215291
   123   1             10.14598146      26.949241430000001     0.80165810000000004
   124   1             14.20520604      26.948673230000001     0.80131923999999999
   125   1             18.26456816             26.94858318     0.80108193999999999
   126   1      22.323930279999999      26.948673230000001     0.80131923999999999
   127   1      26.383154860000001      26.949241430000001     0.80165810000000004
   128   1             30.44331549      26.950066320000001              0.80215291
   129   1      32.528463420000001      28.172350519999998      1.5143317300000001
   130   1      4.1232501700000004      28.185144009999998               1.5101475
   131   1      8.1715432900000007             28.12245648              1.56036073
   132   1             12.24758038      28.152443460000001      1.4795906000000001
   133   1             16.17294223             -0.11135135              1.49945263
   134   1      20.177317630000001             28.15720812              1.51825275
   135   1      24.402112540000001             28.20753015              1.51610249
   136   1      28.365075220000001    0.041463750000000001               1.4071353
   137   1      2.0124845200000001              3.44960187              1.42439542
   138   1              6.01626452      3.5930095799999999      1.4924282799999999
   139   1             10.10938543      3.4440164599999998              1.48985319
   140   1      14.108115099999999      3.4372294700000001              1.52618962
   141   1      18.200313179999998      3.4077076000000002              1.38315353
   142   1      22.282594939999999              3.56097851      1.4455085400000001
   143   1             26.44460733      3.4316309999999999              1.47100831
   144   1      30.397030409999999      3.4162622100000002              1.43465742
   145   1    0.072084910000000002      6.9683317300000001      1.4437008099999999
   146   1      4.1584666600000002      7.0851849500000004      1.3702980600000001
   147   1               8.0891351      7.0205652900000004      1.3789388199999999
   148   1             12.06998366      6.9773134399999996      1.5245400600000001
   149   1               16.225019      6.9695627699999996      1.4630407599999999
   150   1             20.26778856              7.00480649      1.4294788700000001
   151   1      24.365799509999999      6.9842399999999998      1.4061309799999999
   152   1             28.32875391      6.9455104499999996      1.3742965700000001
   153   1              1.97709534      10.420542510000001      1.4922517799999999
   154   1      6.0631576599999999      10.476722560000001      1.4705604000000001
   155   1             10.11320858             10.50260016              1.48425491
   156   1             14.11428963             10.48523378              1.57020286
   157   1      18.287354690000001      10.585898909999999              1.45131352
   158   1      22.291554829999999             10.53321133      1.3915352999999999
   159   1      26.387389590000002              10.5505707      1.4452997000000001
   160   1      30.404606579999999             10.45122523              1.39298974
   161   1   -0.026565140000000001      14.072566480000001              1.47057696
   162   1      3.8944701500000001             14.07743078              1.47888039
   163   1      8.1810706799999995      14.104113480000001              1.47493886
   164   1             12.11863217             13.97471142      1.4595323200000001
   165   1             16.26353245             13.95755306      1.6010244600000001
   166   1             20.35508519      14.058061049999999      1.4782909500000001
   167   1      24.248630290000001             13.99701237              1.50219539
   168   1      28.402245409999999             14.10763519              1.55420008
   169   1      1.9888119399999999      17.663675730000001      1.5490076500000001
   170   1      6.0973088799999999             17.60534586      1.3738455199999999
   171   1             10.13024004             17.67315266      1.5049028499999999
   172   1      14.268580979999999      17.553134979999999              1.58977206
   173   1      18.290777240000001      17.488686269999999              1.58710285
   174   1      22.311496380000001             17.53926075      1.4419255600000001
   175   1      26.365458360000002      17.576882900000001      1.2718246799999999
   176   1      30.440941819999999      17.557581389999999              1.53419733
   177   1      32.552886020000003      21.085553659999999      1.4443864399999999
   178   1      4.0612338299999999      21.157178399999999      1.5394896499999999
   179   1      8.1155123600000003             21.06315172      1.6239037199999999
   180   1      12.136733169999999      21.068154239999998      1.5025613600000001
   181   1      16.318197139999999             21.18733009      1.5036939199999999
   182   1             20.27172667      21.108744909999999              1.35708125
   183   1      24.286438570000001      21.064030599999999              1.43635029
   184   1             28.38127609      21.031865809999999              1.50227745
   185   1      2.1258201200000002      24.613726360000001      1.3199563299999999
   186   1      6.1450358300000003      24.556512510000001              1.57069963
   187   1      10.037842960000001             24.66297853              1.44649139
   188   1             14.18327629      24.613638730000002      1.4011254399999999
   189   1      18.323375349999999      24.661123360000001              1.44815399
   190   1      22.389297190000001      24.580065820000002      1.4832566899999999
   191   1      26.361856880000001      24.629673369999999              1.46101141
   192   1      30.461946309999998      24.695885480000001              1.52882575
   193   1      2.0940145499999998              1.21250535      2.4886250900000002
   194   1      6.0179812999999998      1.2709409599999999              2.48007636
   195   1      10.107262649999999              1.15415932              2.43176258
   196   1             14.18749427      1.1260680599999999              2.49851066
   197   1      18.261284759999999     0.96106592999999996      2.3694777500000002
   198   1      22.323611639999999      1.1998152799999999      2.4072562400000002
   199   1      26.358528809999999               1.1501716      2.3767734599999999
   200   1      30.426272789999999      1.1480542600000001              2.39724724
   201   1    -0.13525279000000001      4.6491128599999998      2.4330712399999999
   202   1      3.9867046899999998      4.7353377600000002      2.3985997999999999
   203   1      8.1102809400000009      4.6284126700000003              2.38222523
   204   1             12.22411713      4.7457393400000001              2.49932146
   205   1      16.127641199999999      4.5370977799999999      2.3844339899999998
   206   1              20.0793575      4.5730237200000001              2.36568947
   207   1      24.444366500000001              4.65019866      2.3789581499999999
   208   1      28.443524589999999      4.5841468799999996              2.43673881
   209   1              2.06202686      8.0393388199999993      2.3879876100000001
   210   1      6.1025800700000001      8.3030693099999997      2.4185814400000001
   211   1      10.046538699999999      8.2484383000000001      2.4284965399999998
   212   1      14.199087159999999      8.1892832799999997      2.4052659300000001
   213   1      18.185278109999999      8.0907101499999996              2.48144353
   214   1      22.325547830000001      8.1246160599999993      2.3020532299999998
   215   1      26.329719109999999      8.1915521800000004      2.4670404499999998
   216   1             30.48805334      8.1493804599999997              2.41471459
   217   1      32.412163820000004      11.693202319999999      2.4234567600000001
   218   1      3.8498382699999998      11.712565420000001      2.4716814999999999
   219   1      8.2173124200000007      11.622376989999999              2.45943902
   220   1             12.15629541      11.725066269999999      2.4118673500000001
   221   1      16.216598380000001      11.751144869999999      2.4456935099999999
   222   1      20.253603030000001              11.7497904      2.4572626099999999
   223   1      24.207081760000001             11.74670877      2.4484881700000001
   224   1      28.329326550000001      11.732587349999999      2.4114644099999998
   225   1      1.9497302400000001             15.31402302      2.4813641999999998
   226   1      6.0539756200000001             15.14828969      2.3913154799999998
   227   1             10.06420935             15.24832279      2.4888905700000001
   228   1      14.120071250000001      15.203459219999999              2.40788402
   229   1      18.164853879999999             15.24205375      2.3914824800000001
   230   1             22.36464848      15.175194919999999      2.4583779400000001
   231   1      26.301140830000001             15.24913173      2.3905314799999999
   232   1      30.438503730000001      15.226088430000001      2.4085286899999998
   233   1    0.051362980000000003      18.662785679999999      2.4176269100000001
   234   1      4.0963889800000004      18.803539220000001      2.4360605799999999
   235   1      8.1704445200000002      18.653229580000001      2.5181457300000001
   236   1             12.27774073      18.838498000000001      2.4132640200000002
   237   1             16.25706344              18.6755365      2.4204332700000002
   238   1      20.230756509999999      18.757652759999999      2.3625919500000001
   239   1      24.336477420000001      18.815954380000001      2.3564634199999999
   240   1      28.348494330000001      18.714801699999999                2.477204
   241   1      2.0255426999999999              22.2731642      2.4282534199999999
   242   1      6.0785896299999997      22.204662330000001      2.4744029300000001
   243   1             10.20370924      22.296253759999999      2.4320359599999999
   244   1      14.258326240000001      22.290701640000002      2.4258676499999998
   245   1      18.333674680000001      22.245043590000002      2.3651748700000002
   246   1      22.394109480000001      22.286072189999999      2.3994223300000002
   247   1      26.386736379999999      22.355277449999999      2.4648923100000002
   248   1             30.45763182      22.287926989999999      2.4719927099999999
   249   1    0.029934180000000001      25.809650860000001              2.40633594
   250   1      4.1012068800000003      25.726038020000001      2.4688622800000002
   251   1      8.1058148400000007      25.851847209999999      2.4339484499999999
   252   1             12.26745552      25.802069230000001              2.39274721
   253   1      16.291115909999998      25.706478820000001              2.37341187
   254   1              20.2778369      25.786755880000001      2.3590397599999999
   255   1      24.283244839999998      25.894900310000001              2.43798644
   256   1             28.36665751             25.69793992              2.38909437
   257   1             -0.11696589              2.32595631      3.3397853500000001
   258   1      4.0527735500000004              2.34801759      3.2723016899999999
   259   1      8.1610839500000001      2.3977324100000001      3.2901842800000001
   260   1             12.10727717      2.3860392400000001      3.2198092300000001
   261   1      16.169383580000002      2.2984304799999999      3.1344803400000001
   262   1      20.203824600000001      2.2729232100000001      3.2077772599999999
   263   1      24.323892229999998      2.3496771600000002      3.2160702400000001
   264   1             28.35800893              2.40666117      3.2025001099999999
   265   1      1.9592475600000001              5.85406344      3.2058893500000001
   266   1      6.1623766699999996      5.8875901700000002      3.2749478500000002
   267   1             10.18952532      5.9560902799999997      3.1788294600000002
   268   1      14.353002050000001      5.7547146099999997      3.2291962999999999
   269   1      18.174722450000001      5.7473825400000003              3.26069874
   270   1      22.184384860000002      5.6991764199999997      3.1584894600000002
   271   1      26.414497260000001      5.8940109400000003              3.32053479
   272   1      30.321360970000001      5.8628874599999996      3.3298829099999998
   273   1              0.06525984      9.3842647899999996      3.3224649500000001
   274   1      4.0171885600000001      9.3505303899999994      3.3200004700000001
   275   1      8.0934961199999993      9.2773570299999992      3.3149191099999999
   276   1             12.03626699      9.3243357000000007      3.1754680899999999
   277   1      16.227351420000002      9.3264112600000004      3.3209851100000001
   278   1      20.199064140000001      9.3403034900000002      3.2447243299999999
   279   1      24.252135339999999      9.2106240600000007              3.24509771
   280   1      28.407011270000002      9.2623947199999996      3.2549387599999999
   281   1              1.92697801      12.888200830000001      3.2441171199999999
   282   1      6.0251830799999997      12.842959329999999      3.1528749899999999
   283   1      10.122388669999999             12.78515179      3.4232474399999999
   284   1             14.19791216             12.89078278      3.2739891299999999
   285   1      18.302298669999999      12.828139439999999      3.1973014900000001
   286   1      22.240483860000001                12.84623      3.3175870500000002
   287   1             26.37212482             12.86608206      3.2142464300000002
   288   1      30.414061530000001      12.929388250000001      3.2576543099999999
   289   1      32.488415189999998      16.358614159999998              3.38956013
   290   1      4.1113172699999998      16.434761940000001      3.3375144799999998
   291   1      8.0528446999999996      16.325597479999999      3.3010415399999999
   292   1      12.134793569999999      16.454157590000001      3.1831269099999999
   293   1      16.277881050000001      16.348054950000002              3.29109915
   294   1      20.447297559999999      16.348856919999999      3.2581323000000002
   295   1             24.36417265      16.427239889999999              3.28287328
   296   1      28.418825519999999      16.379651490000001              3.21206171
   297   1      2.1035807000000002      19.933069270000001      3.1742261799999998
   298   1      6.0384485000000003             19.91977382      3.2624178100000001
   299   1             10.04405848      19.887947820000001      3.2745980499999998
   300   1             14.23216161      19.897732399999999      3.2632202100000001
   301   1      18.234667930000001      19.986658630000001      3.2034152599999999
   302   1      22.320206049999999      20.005134309999999      3.2146137800000001
   303   1      26.370797249999999             20.00589913      3.2183030700000002
   304   1      30.460456199999999      19.905467949999998      3.1477886700000002
   305   1   -0.060657570000000001      23.575729710000001      3.2566270099999999
   306   1      4.0542047600000002      23.443940789999999      3.2709618300000001
   307   1      8.0601929099999996      23.413085240000001      3.2824499199999999
   308   1             12.22630382      23.420654899999999      3.2281714300000002
   309   1             16.29378208      23.295310050000001      3.2769016899999999
   310   1      20.273654709999999      23.414423339999999              3.11674688
   311   1      24.312270949999998      23.451969980000001      3.2333629899999998
   312   1      28.430779040000001      23.353613280000001      3.1685331699999999
   313   1      1.9275616799999999      26.983654250000001      3.2381982599999999
   314   1      6.1385093199999998      26.889604309999999      3.3380856400000001
   315   1             10.10012188      26.869951230000002      3.2953547099999998
   316   1      14.152202819999999      26.966735480000001      3.2783822499999999
   317   1             18.30408808      26.864306460000002      3.2257989600000001
   318   1             22.34168932             26.97152264      3.2218767599999998
   319   1      26.442649889999998             26.93365884      3.2751477100000002
   320   1             30.43038357      26.959797200000001      3.3419154099999999
   321   1      32.365091509999999      28.186371099999999      4.0534297400000003
   322   1              3.94827357   -0.037390949999999999      4.0163918799999996
   323   1      8.0326028800000007  0.00011167000000000001      4.1112327999999998
   324   1      12.089472710000001    0.047150980000000002      4.0744210299999999
   325   1      16.204970679999999      28.124187330000002      4.0559815400000003
   326   1             20.28077807   -0.053606750000000002      4.0450125799999999
   327   1      24.328447140000002 -0.00028998000000000001              4.08883698
   328   1      28.457308210000001              0.10408285      4.1038235399999996
   329   1      2.0908817399999999      3.4986156300000002      4.1338763399999996
   330   1      6.0350128200000004              3.58855382      4.1665743199999996
   331   1      10.227506760000001      3.5672589700000001      4.0026703299999999
   332   1             14.20236317      3.4409936399999999      4.0104813300000002
   333   1             18.20291155      3.4021925300000002      4.0424193800000001
   334   1      22.279965829999998      3.5313666499999998      3.9572967999999999
   335   1      26.468708660000001      3.5096438399999998      4.0352799900000003
   336   1             30.39385888      3.4890582299999999      4.0685851199999998
   337   1      32.255195800000003      7.0720046099999996      4.0680793199999998
   338   1      4.0499357900000001      7.0240654100000004      4.1352549300000003
   339   1      8.1377378700000005      6.9607091199999997      4.0390510099999997
   340   1             12.22518108      6.9540733899999996      4.0323519399999999
   341   1             16.24309208      6.9424597500000003              3.98501255
   342   1             20.22998741      6.9264247499999998      4.0466685699999996
   343   1             24.25613899      6.8657973500000002      3.9817917700000001
   344   1      28.493512920000001      7.0538705000000004      4.1821069700000004
   345   1              1.94822947      10.592696180000001      4.1109835600000002
   346   1      6.1491555699999996      10.609987009999999      4.1146152799999998
   347   1              10.0648304      10.390714880000001      4.1467181399999999
   348   1             14.10718522      10.386473069999999      4.0438923600000001
   349   1      18.244743660000001      10.529376539999999      3.9877422600000001
   350   1             22.23395507              10.5014339      4.1051961300000004
   351   1      26.302618859999999      10.459955430000001      3.9897293299999999
   352   1      30.454516479999999             10.59585394      4.0066717799999996
   353   1   -0.060788500000000002      14.098277059999999      4.1315524300000002
   354   1      3.9666188299999998             14.04010514      4.1473753200000001
   355   1      8.1608380300000007             13.99194808      4.1057800799999997
   356   1              12.1148638             14.10376651              3.98142445
   357   1      16.134865170000001             14.08764586      4.1227733799999999
   358   1      20.325815169999998      14.048200189999999      4.1191653099999996
   359   1      24.320856070000001             14.05387824      4.0018277800000002
   360   1             28.39690062      13.998205219999999      4.0689045799999999
   361   1              2.00170424      17.584129010000002              4.13631875
   362   1      6.1851466899999998             17.60409224      4.0173958799999996
   363   1             10.10229552      17.570955080000001      4.0900422299999999
   364   1      14.241758450000001      17.533988730000001      4.0819154500000003
   365   1      18.328558130000001             17.55959816      4.0389022299999997
   366   1      22.389733499999998      17.682380909999999      4.1719729900000004
   367   1      26.443017179999998      17.578398190000001      4.0755756600000002
   368   1      30.425955030000001             17.56699811      4.0208775599999997
   369   1     0.15024551999999999      21.126405290000001      3.9763302199999999
   370   1      4.0564618399999999      21.043109149999999      4.1456061200000001
   371   1      8.0976344000000005             21.14531839      4.0975149499999999
   372   1      12.230145909999999      21.092396690000001      4.0472655499999997
   373   1      16.241422879999998      21.091912019999999              3.98636905
   374   1      20.407817189999999      21.065905669999999      4.0218702799999999
   375   1             24.38084345      21.151258009999999      4.0149706600000004
   376   1      28.423684189999999             21.01077149      4.1401240399999999
   377   1      1.9275649100000001             24.71647948      4.1019056100000002
   378   1              6.08072429             24.63365829              4.15891096
   379   1             10.08330773      24.554193430000002              4.01870028
   380   1             14.21438854      24.576175240000001      3.9662939100000001
   381   1      18.263708609999998      24.616546830000001      4.0625664199999996
   382   1             22.39865284      24.595348520000002      4.0907923899999998
   383   1      26.431261190000001      24.656670420000001      3.9951342799999998
   384   1      30.380316629999999      24.707079830000001      4.0904005999999997
   385   1      2.0048346800000001      1.1553252300000001      4.8755347000000002
   386   1      5.9614990099999998      1.1483168399999999      4.9854190599999999
   387   1              10.0962841              1.20406726      4.9289331000000001
   388   1      14.244259599999999      1.0542588500000001      4.9675027800000002
   389   1             18.28581763      1.0886905899999999      4.9115803400000004
   390   1      22.281000630000001      1.1392517900000001      4.8655299100000002
   391   1      26.375728429999999              1.23716413      4.8706723900000002
   392   1      30.406725850000001              1.24936454      4.8859570400000001
   393   1   -0.086699600000000002              4.75327666      4.8976033699999997
   394   1      4.1018092499999996      4.7074256800000001      4.8995907699999997
   395   1      8.0657828699999996      4.7676759100000003      4.8536140400000001
   396   1             12.19637079      4.6520343100000003              4.90290362
   397   1      16.154052180000001      4.5736477799999999      4.9201939499999998
   398   1             20.34467699      4.6804560999999998      4.9620649400000003
   399   1      24.304589969999999              4.50001914      4.8707278599999997
   400   1      28.476781089999999      4.6957169199999997      4.9752584799999999
   401   1      2.0103377299999998      8.1528153400000001      4.8663619100000002
   402   1              6.12634189      8.2640710500000001      4.9389468299999999
   403   1             10.03435625      8.1675959200000001      4.9663465599999999
   404   1      14.102072079999999      8.1189943800000002      4.9499022100000003
   405   1      18.289191020000001      8.0292281499999998              4.90376631
   406   1      22.296467369999998      8.0377464700000001      4.8505342300000001
   407   1      26.406107309999999      8.1913076399999998      4.9334158400000003
   408   1      30.400257620000001      8.2609233500000006               4.9402982
   409   1      32.381892120000003             11.75032429      4.8970740700000004
   410   1      4.0799766499999999      11.682665589999999      4.9104155799999996
   411   1      8.0811301499999999             11.61926113              4.96357918
   412   1      12.162109429999999      11.770015280000001      4.9190688299999996
   413   1             16.18347799             11.61859168      4.9622911099999998
   414   1      20.263497439999998             11.61481062      4.9286227199999999
   415   1      24.372379500000001      11.714867079999999      4.8575304299999997
   416   1             28.48407023             11.81934691      4.9314570099999999
   417   1              2.10133473             15.23130063      5.0460975299999999
   418   1      6.0941545699999997      15.174831790000001      4.9463318999999997
   419   1      10.150422989999999             15.03597562      4.9382278199999998
   420   1             14.11687285             15.15410018      4.9433756500000001
   421   1      18.279140519999999      15.147689290000001      4.8197034399999996
   422   1      22.354321939999998             15.14575498      4.9269628799999996
   423   1      26.281847429999999             15.19018829      4.9244236600000004
   424   1      30.418431680000001      15.236196850000001              4.93596754
   425   1  -0.0028656300000000001      18.802739389999999      4.8784969900000004
   426   1      4.1366512100000001      18.704173040000001      5.0000437499999997
   427   1      8.1285043699999999      18.715197029999999      4.9699968800000001
   428   1      12.253950010000001      18.660608109999998      4.9277192599999999
   429   1      16.237113269999998             18.75803037      4.8897761700000002
   430   1      20.237681640000002      18.666371030000001      4.8277234699999996
   431   1      24.414106660000002             18.75509727      5.0529211900000002
   432   1      28.343024190000001              18.6458996      4.9711829999999999
   433   1      1.9930435900000001             22.34935273      4.8526605900000002
   434   1      6.0793645600000001      22.351926160000001      5.0312632500000003
   435   1              10.1167391      22.302802499999999      4.8549396800000002
   436   1      14.191797859999999      22.172983680000002      4.9349471899999999
   437   1      18.448190629999999             22.18436659      4.8629776299999996
   438   1      22.285587899999999      22.263576950000001              4.99689096
   439   1      26.339018020000001      22.148129749999999      4.9394839900000003
   440   1             30.38099776             22.19582428      4.8754960599999997
   441   1             32.40287988      25.786729510000001      4.8669297699999996
   442   1      3.9837779800000002      25.797782680000001      4.9198279100000004
   443   1      8.0551015699999997      25.798896880000001      4.9836359799999999
   444   1             12.15560647      25.659550670000002              4.87858386
   445   1      16.346257269999999      25.788351639999998              5.04215108
   446   1             20.32445482              25.8921651      4.9095929800000002
   447   1      24.506708100000001      25.737308280000001      5.0116231200000003
   448   1      28.343621079999998      25.766241279999999      4.9264893299999999
   449   1              -0.0534542              2.28783352      5.6707611199999999
   450   1      4.0305288199999998      2.3475508700000001      5.7152110699999996
   451   1      8.0521758899999991      2.4340950299999999      5.7597629399999999
   452   1             12.24851716              2.36977642      5.6674434600000003
   453   1             16.35990383      2.2700011500000001              5.68830101
   454   1             20.36596222      2.3694373400000002      5.7205622900000002
   455   1      24.347292339999999      2.2466515500000002      5.7430060000000003
   456   1             28.47706629      2.2616937300000002      5.7468738100000003
   457   1      2.0103298500000002              5.76291055      5.7272230400000002
   458   1      6.0557742299999999      5.8069844699999997      5.7349253300000003
   459   1             10.09456746      5.8073646200000004      5.7382869599999999
   460   1      14.173341710000001              5.79595737      5.8212489200000004
   461   1             18.33381237      5.7880482400000002      5.6916911399999996
   462   1      22.293238710000001              5.72237756      5.8460488499999999
   463   1      26.295819000000002      5.8920502800000003      5.7950748399999998
   464   1      30.429998040000001      5.9195275399999998      5.8481720800000003
   465   1      32.265966830000004      9.4535973000000002      5.8326222400000001
   466   1      4.0702370800000001      9.2721309699999992      5.8692960100000002
   467   1      8.0912124399999996      9.3314215600000008      5.7749026099999998
   468   1      12.192744149999999      9.3620548200000009      5.9438975899999997
   469   1             16.18988761      9.3247894000000002      5.6693290999999997
   470   1      20.305521030000001      9.3231400400000002      5.7491590099999996
   471   1      24.477716109999999      9.4376491999999992      5.7064416900000001
   472   1             28.32999526      9.4932142400000004      5.7881988499999997
   473   1      1.9753978699999999      12.667554389999999      5.8228277400000001
   474   1      5.9655020600000004      12.741165820000001      5.7305792699999998
   475   1      10.102968260000001      12.839668769999999      5.7844978500000002
   476   1      14.286441740000001      12.848167520000001      5.7780376100000002
   477   1      18.220351170000001      12.858905590000001      5.6940706700000003
   478   1      22.285241899999999             12.84976434      5.6591341399999999
   479   1      26.357907279999999      12.865197029999999      5.6301825799999996
   480   1      30.452015410000001             12.85126693      5.7309371699999998
   481   1   -0.049517760000000001             16.42828944      5.7391209300000003
   482   1      4.1616550200000004             16.28435868      5.8046144599999998
   483   1      8.1332628499999995      16.306552719999999      5.9329806400000002
   484   1      12.179004040000001               16.446479      5.7372026900000002
   485   1             16.08541628             16.46329965      5.5715419300000004
   486   1      20.279609799999999      16.359151959999998      5.7564747000000001
   487   1      24.279963939999998      16.383063060000001      5.8025807499999997
   488   1      28.404691799999998      16.302465460000001              5.70637741
   489   1      2.0217258500000002      19.888622510000001      5.7324214500000004
   490   1      6.2260691699999997      19.937590969999999      5.6831481400000001
   491   1             10.27913719      19.901048190000001      5.6977089599999999
   492   1             14.22380255      19.975738589999999      5.6972057100000004
   493   1             18.20262821      19.839855249999999      5.6975638000000002
   494   1      22.316686870000002      20.002264199999999      5.7395289500000004
   495   1      26.396195509999998      19.809303450000002      5.7310097200000003
   496   1      30.386498270000001      19.918482040000001      5.6189528099999997
   497   1      32.391116400000001      23.402397730000001      5.7052026900000001
   498   1      3.9142542800000002      23.435108790000001      5.7402837399999997
   499   1              8.09039617      23.445418620000002      5.7699296599999998
   500   1             12.20370795             23.40909095      5.7485388000000004
   501   1      16.244682789999999      23.401795060000001      5.6578168199999999
   502   1      20.438886199999999             23.45093314      5.6319374699999996
   503   1             24.32945368      23.368067780000001      5.7331606099999997
   504   1      28.448814349999999      23.346400549999998      5.8045218800000002
   505   1      2.0540868200000002      27.060137640000001      5.8041039699999999
   506   1      6.0309428699999996      26.948000690000001      5.7163214499999997
   507   1      10.177462159999999             26.87372942      5.7818300999999996
   508   1      14.173434350000001      26.889238020000001              5.70657675
   509   1      18.377292449999999      26.918886390000001      5.6891693500000002
   510   1      22.338634620000001      26.906035639999999      5.6699617199999999
   511   1      26.471219229999999      26.995222829999999      5.7804915000000001
   512   1             30.43570686      26.972165100000002      5.7703255499999999
   513   1      32.431706339999998   -0.069902249999999999      6.6253721499999996
   514   1      4.1075127199999999    0.044143759999999997      6.6036331300000004
   515   1      8.1069764600000003      28.147846529999999      6.7082248299999998
   516   1             12.08304014             -0.00127202              6.56708728
   517   1      16.219026639999999   -0.050991330000000001              6.43074324
   518   1      20.325384029999999   -0.085081320000000002      6.5526406100000001
   519   1      24.397019830000001      28.074628180000001      6.6901177199999999
   520   1      28.387041459999999   -0.020721719999999999              6.63250779
   521   1              1.88966419      3.5171755600000001      6.5037198600000004
   522   1              6.03010775      3.4536540100000002      6.6153008900000003
   523   1             10.14360258              3.46266096      6.5752358199999996
   524   1      14.256403730000001      3.5407053899999998      6.7029923599999996
   525   1             18.31658075      3.4258772799999999      6.5462199500000002
   526   1      22.384908379999999      3.3996624400000002      6.7635614200000003
   527   1      26.326371529999999              3.55719246      6.5431388699999999
   528   1             30.41717307      3.5167830699999998      6.6005864299999999
   529   1             32.44248236      7.0202221800000002      6.5334052099999997
   530   1      4.0585927999999996      7.0158951500000004      6.6418143399999998
   531   1      8.1257738400000008      6.9902919099999998      6.6073316699999998
   532   1      12.224840479999999      6.9834761900000002      6.5661313000000003
   533   1      16.430816409999998      6.9060711699999997      6.4783657300000002
   534   1             20.32544927      6.9760866899999998              6.64277476
   535   1             24.28768977      6.9770871799999998      6.4082772400000003
   536   1             28.34364072      7.0631478300000001      6.7025168700000002
   537   1              1.99741748             10.47389476      6.6002478399999998
   538   1      6.0073229699999997             10.41999238              6.60299602
   539   1      9.9680195900000008      10.485744479999999      6.6713846600000002
   540   1             14.12900576      10.458047710000001      6.6779208800000003
   541   1      18.326997209999998      10.514864729999999              6.58214364
   542   1      22.409144900000001             10.51342928      6.5880142900000003
   543   1      26.417174169999999             10.62263538              6.63998709
   544   1      30.415421219999999             10.53169926      6.7174747799999999
   545   1             32.53399486      14.020063390000001      6.5626738299999996
   546   1      3.9997269499999999      13.905259790000001              6.69513465
   547   1              8.10256781      13.973084739999999      6.6653057100000002
   548   1             12.23192835      14.124786390000001      6.5284070999999999
   549   1      16.286261369999998             14.15598784      6.4535866300000002
   550   1             20.23208275      13.947290280000001      6.6423112900000003
   551   1      24.327013959999999              14.0406706               6.5937256
   552   1      28.439130469999998             13.99481785      6.5799191199999996
   553   1              1.98355295             17.48065403      6.6605739799999997
   554   1      6.2027496600000003      17.633432460000002              6.56804729
   555   1             10.22111166      17.498941240000001      6.5402203999999999
   556   1             14.19294313      17.600652960000001      6.5219268100000001
   557   1             18.25932113      17.456863850000001      6.5388042300000002
   558   1              22.3225069             17.51038934      6.6806079699999996
   559   1             26.36392876      17.560379520000001      6.5452695800000003
   560   1      30.376506809999999      17.629548119999999      6.4930681899999998
   561   1    0.084361980000000003      21.033814620000001              6.43296168
   562   1              4.09910935             21.04857423      6.6740280099999998
   563   1      8.2560878399999993      21.108842320000001      6.5737057999999999
   564   1      12.260729059999999      21.142005999999999      6.5947138599999997
   565   1      16.263450250000002      21.115990870000001      6.5815154099999997
   566   1      20.290897510000001      21.079338230000001      6.6092598200000001
   567   1      24.290926580000001      21.006383140000001      6.6298591299999998
   568   1      28.426025809999999             20.99782871      6.5643309199999997
   569   1      1.9415399099999999      24.588513599999999      6.6800696899999998
   570   1      6.1069016500000002      24.642135880000001      6.6417251400000001
   571   1             10.20310435             24.65993168              6.67143131
   572   1      14.257888790000001      24.528814740000001      6.4488179399999996
   573   1      18.350191800000001      24.667726630000001      6.5493795800000001
   574   1      22.319376389999999      24.642802809999999      6.6514419199999999
   575   1             26.40891967      24.558663970000001      6.5795419500000003
   576   1             30.38919374      24.555918120000001      6.5577470599999996
   577   1      1.8888126599999999              1.14280962      7.5021055700000003
   578   1      6.0090980500000004      1.1599427499999999      7.5549531099999996
   579   1      10.178872309999999      1.1847594299999999              7.50122775
   580   1              14.1808459      1.0913056400000001      7.4679918699999996
   581   1      18.305834749999999      1.1477404899999999      7.4799827099999998
   582   1             22.15108575              1.03502698      7.4606645399999998
   583   1             26.24431998      1.1967700299999999      7.5189234799999998
   584   1             30.32954793              1.14349707      7.4688237400000004
   585   1      32.365918790000002      4.7777498200000004      7.5467587500000004
   586   1      4.0082875299999996      4.6209353999999996      7.5211664300000001
   587   1      8.1756897399999993      4.6975522600000001      7.3224926100000003
   588   1      12.196129689999999              4.63257093              7.44304465
   589   1      16.211889880000001      4.4907948800000002      7.5530083799999996
   590   1      20.304283550000001              4.69082972      7.6031491600000001
   591   1      24.426151359999999      4.6901440000000001      7.5335567499999998
   592   1             28.36546401      4.8392050600000003      7.5936165999999998
   593   1      1.9623768500000001      8.1134578400000006      7.5366844500000001
   594   1      6.0561255699999998      8.1839478900000007      7.5630923000000001
   595   1             10.24071558      8.1046922699999993      7.7875783800000002
   596   1             14.23516849      8.1764474600000003      7.4810545099999999
   597   1      18.282549530000001      8.0803782099999992               7.5420061
   598   1             22.37902411      8.0894288499999991              7.41738608
   599   1             26.29533107      8.2692179899999996      7.6130526200000004
   600   1      30.289338520000001      8.1676526000000003      7.6175796699999996
   601   1   -0.033420369999999998      11.683389139999999      7.4681897199999998
   602   1      4.0277534599999996             11.54603183      7.5863949599999998
   603   1      8.0974441099999996      11.670045699999999      7.6315865799999996
   604   1             12.21265301             11.68853049      7.4625716899999999
   605   1             16.24502974      11.728221509999999      7.4815251099999998
   606   1      20.301737800000001             11.57869968      7.3548225699999996
   607   1      24.359636080000001             11.74557607      7.3875278499999997
   608   1      28.361042189999999             11.71086049      7.5037751899999998
   609   1      2.1559649300000001             15.08758725              7.55597282
   610   1      6.0817487799999999             15.20228723      7.5716833799999996
   611   1             10.18855812             15.11141978      7.4986193200000004
   612   1      14.117192640000001             15.12341835      7.5350295699999998
   613   1      18.263790239999999      15.137359229999999      7.6163303600000001
   614   1      22.234626469999998             15.15416971      7.5627446100000002
   615   1      26.351731019999999             15.13086959      7.5948774099999996
   616   1             30.46691083             15.26807135      7.5759945799999997
   617   1      32.492524279999998             18.77594367              7.52687726
   618   1      4.0516114300000003      18.661785330000001      7.5873436400000003
   619   1              8.33075674             18.78869027              7.54999369
   620   1      12.219084929999999      18.858044549999999      7.5053641200000003
   621   1      16.118518380000001      18.784174360000002      7.5073504399999997
   622   1      20.181334379999999      18.799271529999999      7.3093232199999996
   623   1      24.270246539999999      18.572241519999999              7.67264006
   624   1      28.447642510000001      18.768629399999998      7.4726699099999996
   625   1      2.0379981900000002      22.300123500000002      7.4116606599999999
   626   1      6.1498598800000002      22.247023980000002      7.4242619599999999
   627   1      10.246551849999999      22.302959179999998      7.5735325900000001
   628   1      14.303231179999999             22.25014432      7.3913257000000003
   629   1      18.384034060000001      22.299552670000001              7.49836977
   630   1      22.278976969999999             22.24706596      7.5544420499999996
   631   1      26.435103850000001             22.18949503      7.4869374300000002
   632   1      30.413986390000002      22.220306870000002      7.4548419499999996
   633   1    -0.17546958000000001      25.793345670000001      7.4784754900000001
   634   1      3.9884696599999998             25.62875777      7.5605475200000001
   635   1      8.1549527299999998      25.819097750000001              7.45861427
   636   1      12.179610419999999      25.820734470000001               7.4756174
   637   1      16.350982739999999      25.714760600000002      7.4041157200000001
   638   1      20.383661570000001      25.890138409999999      7.5725441699999996
   639   1      24.358689800000001      25.751003239999999      7.5430427900000003
   640   1      28.416846889999999      25.749617560000001      7.6233453500000001
   641   1   -0.021391230000000001      2.3285582499999999              8.18570435
   642   1      4.0549943600000002      2.1855269399999999      8.2526287899999993
   643   1      8.0686369399999993              2.29855565      8.2670551900000007
   644   1             12.30589522      2.3878929200000001      8.1865561499999995
   645   1              16.2064506              2.17276734      8.1857436999999997
   646   1             20.34433932      2.3517593099999998      8.1554947099999993
   647   1             24.30211156      2.3048968699999999      8.2871987899999997
   648   1      28.288317030000002      2.3929475600000001      8.0938789599999996
   649   1               1.9355544      5.7904873800000001      8.1667261900000003
   650   1      6.0621273200000001              5.66597361      8.1025967300000001
   651   1      10.301915230000001      5.6963459700000003      8.2376599400000003
   652   1             14.15499067      5.8311877599999997      8.2063649699999992
   653   1      18.183740499999999      5.7796990399999997      8.0600374499999994
   654   1      22.174615039999999      5.9225546700000002      8.4127844700000001
   655   1      26.320280780000001              6.02544082      8.3189133200000001
   656   1      30.364511289999999      5.8538846099999997      8.1762631700000004
   657   1      32.400251859999997      9.2450488199999992      8.2125690999999996
   658   1      3.9492002500000001      9.3665447000000004      8.2667516899999995
   659   1      8.0390573100000005      9.2499314399999992      8.3181433899999995
   660   1             12.34842074      9.3091869599999999      8.2496643299999999
   661   1      16.083686650000001              9.44556942      8.0210459699999994
   662   1      20.373482660000001      9.2880171399999991      8.1317893699999999
   663   1      24.363436790000002      9.5775536900000002      8.2779149299999997
   664   1      28.385055529999999      9.4166161099999997      8.4102511500000006
   665   1      2.0389707700000002             12.69476678      8.2198944699999998
   666   1      6.1323998499999997             12.83779461      8.1542822000000008
   667   1      10.286989480000001      12.835891309999999      8.2832753199999996
   668   1             14.15657918             12.77544443      8.2082943099999994
   669   1      18.282985199999999              12.7265792              8.11315761
   670   1             22.13639839             12.85063313      8.0905253699999999
   671   1      26.364613609999999      12.827177839999999      8.0866124900000003
   672   1             30.47088445      12.934814510000001      8.2023089900000006
   673   1      32.578781030000002      16.389672430000001      8.1312161500000002
   674   1      4.1135741100000001             16.36192329      8.2654151999999996
   675   1      8.1969738599999999      16.390499210000002      8.3535663200000005
   676   1      12.094725349999999      16.466827949999999      8.0754438200000003
   677   1             16.05119432      16.371720310000001      8.1671133000000005
   678   1             20.28889384      16.413104489999998      8.1931414100000008
   679   1      24.244866720000001             16.18064863      8.3358238300000007
   680   1      28.393975569999998      16.331730650000001      8.1249291199999991
   681   1               2.0284342             19.96995888      8.2820540299999994
   682   1      6.1749714600000001      19.949814969999998      8.1372339300000007
   683   1      10.410041379999999      20.006438989999999      8.0891435900000008
   684   1      14.309567080000001      19.997583550000002      8.1224114699999994
   685   1      18.136263320000001      19.866108390000001      8.0354203799999997
   686   1      22.269890010000001             19.91668889      8.0531181699999994
   687   1      26.382780830000002              19.8114116      8.2277551399999993
   688   1      30.555290159999998      19.948418029999999      8.0703479999999992
   689   1      32.301741679999999             23.48845464      7.9303658400000003
   690   1      4.0723480600000004      23.312630250000002      8.2796540099999998
   691   1      8.1445852700000003      23.440971940000001      8.1575983399999998
   692   1      12.086815440000001      23.565234289999999      8.2068524600000003
   693   1             16.20312418      23.507641939999999      8.1109876300000003
   694   1              20.2399551      23.550613479999999      8.1297164500000001
   695   1             24.45115126      23.266240079999999      8.1789139500000001
   696   1      28.434420370000002      23.356994369999999      8.2740826500000004
   697   1      1.9413195599999999             26.73456646      8.2372675100000006
   698   1      5.9979670199999999      26.937813559999999      8.1361522300000004
   699   1      10.107243309999999      26.976587089999999      8.1465916299999996
   700   1             14.15554114      26.887515239999999      8.2725635799999999
   701   1      18.375537949999998      26.858001430000002      8.1569598299999999
   702   1      22.419104690000001      26.941100670000001      8.1668627699999998
   703   1      26.454926700000001      26.908590180000001      8.2761109699999995
   704   1      30.397218970000001      26.802194799999999      8.3063834599999993
   705   1             -0.09569677      28.165176460000001      8.9411487300000001
   706   1      4.0093239599999997      27.975364079999999              9.02411663
   707   1      8.0491076800000005    -0.10534312999999999      9.0064972300000008
   708   1      12.202817250000001             28.20074361      9.0723893400000009
   709   1      16.405020159999999    -0.22409609999999999      8.8884223700000007
   710   1      20.372667669999998      28.144136920000001      9.0883885800000002
   711   1      24.314541200000001             28.12334581              9.02211477
   712   1      28.540024849999998      28.214850729999998      8.9330584000000002
   713   1              2.01575536      3.5492688299999999      8.9755054399999992
   714   1      6.0010541000000002      3.3778576199999999      9.1534167600000007
   715   1             10.11890494      3.4247645599999998      8.9224704999999993
   716   1             14.31385755      3.3551216400000001      9.0376872200000005
   717   1             18.21840796      3.3875032300000001      8.9572412200000002
   718   1      22.205618359999999              3.54173559      9.1124020300000002
   719   1             26.25015411               3.4209627      9.0674726200000002
   720   1             30.36190981               3.5282969      8.8695850200000006
   721   1      32.493840570000003      6.9603033300000003              8.91094294
   722   1              3.99495055      6.7736162000000002      9.0225852399999997
   723   1      8.0335146099999992      6.8098580499999999      9.0343752399999993
   724   1             12.05644633      6.9769949499999999      9.1692278799999993
   725   1             16.26321544              7.03103254      8.7690407100000005
   726   1      20.008569739999999      6.9521170200000002      8.9948225199999996
   727   1      24.292476480000001      7.1277778100000004      8.8184194199999997
   728   1      28.276340319999999      7.0544634899999998      9.0562879499999998
   729   1      1.8530595999999999      10.382589960000001      8.9685945100000009
   730   1      6.0453939700000001             10.52799132      9.0408359100000002
   731   1             10.28509519              10.4788701      9.0919331299999993
   732   1      14.109355170000001             10.55430172      9.0772703200000002
   733   1             18.19233535      10.319621890000001      8.7966636600000001
   734   1      22.227923499999999             10.63076856      9.0187301299999998
   735   1             26.43120073             10.55064833      9.0766790799999999
   736   1             30.58358535             10.50371243      9.0305578700000009
   737   1     0.10347642999999999             14.06970404      8.8983810000000005
   738   1              4.15732006             14.00389054      9.0400521600000001
   739   1      8.0403413199999996      14.003571839999999      8.9580791499999997
   740   1             12.23034945              13.9861749      8.9096298800000007
   741   1             16.37598212             14.11415321      9.0060730299999996
   742   1             20.12742618      14.027110410000001      9.0199052799999997
   743   1      24.157214629999999      13.616431589999999      9.0383023799999993
   744   1      28.192045709999999      14.016494249999999              9.04995759
   745   1              2.13164387      17.688852199999999      9.0972893300000006
   746   1      6.2294597400000002      17.639526069999999              8.92565776
   747   1      10.188219910000001      17.847522999999999      8.8754830800000004
   748   1      14.074397810000001      17.563526759999998      8.9531235099999993
   749   1      18.036909529999999              17.5090547      8.9903097800000005
   750   1      22.264064300000001      17.567901190000001      8.9752738500000007
   751   1      26.446041820000001             17.37068193      9.0171102699999999
   752   1             30.40183004      17.604227009999999      8.9938777499999993
   753   1    0.023229340000000001      21.068177299999999      8.8861703599999995
   754   1      4.0971149200000001      21.030923720000001      9.0081695499999999
   755   1              8.40767138      21.021674690000001      9.0843187200000006
   756   1      12.421881109999999      21.175816560000001      9.0276821100000006
   757   1      16.301706580000001      21.106989089999999      8.9596813999999991
   758   1      20.123357800000001      21.101096399999999      8.8835923799999996
   759   1             24.21720646             20.82035393      8.9759065099999997
   760   1             28.46893086             20.93254808      8.9664695999999999
   761   1      1.8134667200000001      24.399891740000001      8.8954341800000005
   762   1              5.92583182      24.556083770000001              8.99082078
   763   1      9.9563287999999996             24.67187616      8.9839237199999999
   764   1      14.155012169999999             24.55905701      8.8465582099999995
   765   1      18.295523339999999             24.33076831      9.0135863599999997
   766   1      22.342028849999998             24.61148159      8.9677743299999992
   767   1      26.314929639999999      24.543108360000002      8.9293185899999994
   768   1             30.39217584             24.55034659      9.0472607800000002
   769   2             29.30921695      19.220395180000001      9.3282275800000001
   770   2             27.64216553             18.87502164      9.3020735000000005
