N2-dn2-coord-10bar/700K/snapshots/frame-55499/run-000/../data.lammps (written by ASE) 

770 	 atoms 
2  atom types
0.0      32.470343392086264  xlo xhi
0.0      28.120142247150884  ylo yhi
0.0      31.213473999158239  zlo zhi


Atoms 

     1   1      2.0293964600000001      1.1716090800000001    0.023552650000000001
     2   1      6.0880008999999999              1.17168918              0.02556874
     3   1      10.146952280000001              1.17170328    0.025416459999999998
     4   1      14.205754900000001      1.1716496700000001              0.02501565
     5   1             18.26456816              1.17166478              0.02504435
     6   1             22.32338141      1.1716496700000001              0.02501565
     7   1      26.382184030000001              1.17170328    0.025416459999999998
     8   1      30.441135410000001              1.17168918              0.02556874
     9   1  9.1780000000000006e-05      4.6866847900000002    0.025581599999999999
    10   1      4.0587011400000002      4.6866847900000002    0.025581599999999999
    11   1      8.1174961000000003      4.6866290399999997    0.025584639999999999
    12   1             12.17638011      4.6866852999999997              0.02491202
    13   1             16.23517979      4.6866942700000003    0.025006210000000001
    14   1      20.293956519999998      4.6866942700000003    0.025006210000000001
    15   1      24.352756209999999      4.6866852999999997              0.02491202
    16   1      28.411640219999999      4.6866290399999997    0.025584639999999999
    17   1      2.0293964600000001      8.2016395800000002    0.026613040000000001
    18   1      6.0881071599999999      8.2016314300000008              0.02543782
    19   1             10.14701835               8.2017045    0.025156850000000001
    20   1      14.205766049999999      8.2017080900000003    0.024990459999999999
    21   1             18.26456816      8.2017077599999997    0.025091249999999999
    22   1      22.323370260000001      8.2017080900000003    0.024990459999999999
    23   1      26.382117969999999               8.2017045    0.025156850000000001
    24   1      30.441029149999999      8.2016314300000008              0.02543782
    25   1  9.2789999999999998e-05             11.71671873    0.025573410000000001
    26   1              4.05870014             11.71671873    0.025573410000000001
    27   1      8.1176017700000003             11.71668698              0.02497914
    28   1             12.17637068             11.71673069    0.025001590000000001
    29   1      16.235177310000001      11.716730249999999    0.025074039999999999
    30   1      20.293959009999998      11.716730249999999    0.025074039999999999
    31   1      24.352765640000001             11.71673069    0.025001590000000001
    32   1      28.411534549999999             11.71668698              0.02497914
    33   1      2.0293964600000001             15.23167155              0.02525285
    34   1      6.0881728300000004      15.231678799999999    0.025062859999999999
    35   1             10.14698486      15.231762639999999               0.0250786
    36   1             14.20578841             15.23176782    0.025201990000000001
    37   1             18.26456816              15.2317707    0.025149979999999999
    38   1      22.323347900000002             15.23176782    0.025201990000000001
    39   1      26.382151459999999      15.231762639999999               0.0250786
    40   1      30.440963480000001      15.231678799999999    0.025062859999999999
    41   1      32.470327990000001      18.746748629999999    0.024951939999999999
    42   1      4.0588083299999997      18.746748629999999    0.024951939999999999
    43   1      8.1175770200000006      18.746803499999999    0.025222040000000001
    44   1             12.17637459      18.746799750000001    0.025428470000000002
    45   1      16.235159400000001      18.746805200000001    0.025487360000000001
    46   1      20.293976919999999      18.746805200000001    0.025487360000000001
    47   1      24.352761730000001      18.746799750000001    0.025428470000000002
    48   1             28.41155929      18.746803499999999    0.025222040000000001
    49   1      2.0293964600000001      22.261939099999999    0.025844880000000001
    50   1      6.0881419299999999      22.261841799999999    0.025489439999999999
    51   1             10.14692954             22.26176895              0.02551757
    52   1             14.20573559      22.261804690000002    0.025639160000000001
    53   1             18.26456816             22.26178625    0.025640119999999999
    54   1      22.323400729999999      22.261804690000002    0.025639160000000001
    55   1      26.382206780000001             22.26176895              0.02551757
    56   1             30.44099439      22.261841799999999    0.025489439999999999
    57   1  5.6450000000000003e-05      25.776936450000001              0.02613327
    58   1      4.0587364700000004      25.776936450000001              0.02613327
    59   1      8.1175325399999991              25.7767713    0.024734180000000001
    60   1      12.176376469999999      25.776831090000002              0.02545323
    61   1      16.235145939999999      25.776775220000001    0.025273360000000002
    62   1             20.29399038      25.776775220000001    0.025273360000000002
    63   1      24.352759840000001      25.776831090000002              0.02545323
    64   1      28.411603769999999              25.7767713    0.024734180000000001
    65   1  0.00024266000000000001              2.34304215     0.80166565000000001
    66   1      4.0585502699999996              2.34304215     0.80166565000000001
    67   1      8.1157394600000003              2.34454954     0.80169402000000001
    68   1             12.17601256      2.3433829099999999     0.80116898000000003
    69   1      16.235258170000002      2.3433209100000001     0.80090046999999998
    70   1      20.293878150000001      2.3433209100000001     0.80090046999999998
    71   1      24.353123750000002      2.3433829099999999     0.80116898000000003
    72   1      28.413396859999999              2.34454954     0.80169402000000001
    73   1      2.0293964600000001      5.8582218700000004     0.80119762000000005
    74   1      6.0870566899999998      5.8583336700000004              0.80194851
    75   1             10.14649655              5.85853131     0.80121584000000001
    76   1             14.20597894      5.8582938599999999     0.80086840999999998
    77   1             18.26456816      5.8583798500000004               0.8010794
    78   1      22.323157380000001      5.8582938599999999     0.80086840999999998
    79   1             26.38263976              5.85853131     0.80121584000000001
    80   1      30.442079629999999      5.8583336700000004              0.80194851
    81   1  0.00019438999999999999      9.3717771800000005     0.80082061000000004
    82   1      4.0585985400000002      9.3717771800000005     0.80082061000000004
    83   1      8.1175070500000004      9.3725002699999997     0.80149060999999999
    84   1      12.176590020000001      9.3733583399999993     0.80088261999999999
    85   1             16.23512199      9.3733789200000004              0.80106506
    86   1             20.29401433      9.3733789200000004              0.80106506
    87   1      24.352546289999999      9.3733583399999993     0.80088261999999999
    88   1      28.411629269999999      9.3725002699999997     0.80149060999999999
    89   1      2.0293964600000001             12.88692854     0.80220621000000003
    90   1      6.0883212999999996             12.88743848     0.80138414999999996
    91   1      10.147128609999999             12.88859852     0.80085256000000005
    92   1             14.20571782      12.888558189999999     0.80113791000000001
    93   1             18.26456816      12.888409899999999     0.80109381000000002
    94   1      22.323418490000002      12.888558189999999     0.80113791000000001
    95   1             26.38200771             12.88859852     0.80085256000000005
    96   1      30.440815019999999             12.88743848     0.80138414999999996
    97   1              0.00012365      16.403222639999999     0.80145666999999998
    98   1      4.0586692700000002      16.403222639999999     0.80145666999999998
    99   1      8.1174337899999998      16.403825260000001     0.80097196999999998
   100   1              12.1761021             16.40390721     0.80133072000000005
   101   1             16.23503496      16.403861750000001     0.80140014999999998
   102   1      20.294101359999999      16.403861750000001     0.80140014999999998
   103   1      24.353034220000001             16.40390721     0.80133072000000005
   104   1      28.411702529999999      16.403825260000001     0.80097196999999998
   105   1      2.0293964600000001      19.919205120000001     0.80066369999999998
   106   1              6.08752564             19.91894023     0.80122479000000002
   107   1      10.146078839999999             19.91919038     0.80159137999999996
   108   1      14.204993419999999              19.9192584     0.80178742000000003
   109   1             18.26456816      19.919377350000001     0.80194975999999996
   110   1      22.324142899999998              19.9192584     0.80178742000000003
   111   1      26.383057470000001             19.91919038     0.80159137999999996
   112   1      30.441610669999999             19.91894023     0.80122479000000002
   113   1              0.00142012      23.434536609999999     0.80178442000000005
   114   1      4.0573728100000004      23.434536609999999     0.80178442000000005
   115   1      8.1165862000000004      23.433936769999999     0.80182306000000003
   116   1             12.17555218      23.433996919999998     0.80156656000000004
   117   1             16.23465491      23.434040110000002     0.80170828999999999
   118   1      20.294481409999999      23.434040110000002     0.80170828999999999
   119   1      24.353584130000002      23.433996919999998     0.80156656000000004
   120   1      28.412550110000002      23.433936769999999     0.80182306000000003
   121   1      2.0293964600000001      26.949875330000001              0.80297246
   122   1      6.0858208300000003      26.950066320000001              0.80215291
   123   1             10.14598146      26.949241430000001     0.80165810000000004
   124   1             14.20520604      26.948673230000001     0.80131923999999999
   125   1             18.26456816             26.94858318     0.80108193999999999
   126   1      22.323930279999999      26.948673230000001     0.80131923999999999
   127   1      26.383154860000001      26.949241430000001     0.80165810000000004
   128   1             30.44331549      26.950066320000001              0.80215291
   129   1    -0.16330641000000001     0.13115441999999999              1.45468989
   130   1      4.0043237100000004      28.246965029999998      1.5157882300000001
   131   1      8.0161343400000007             28.06611118              1.40961793
   132   1      12.064675769999999      27.939016429999999      1.5815016799999999
   133   1      16.041682260000002      28.253482080000001              1.64148523
   134   1      20.092644679999999             28.13647138              1.37925454
   135   1      24.430209900000001      28.132421539999999              1.47480547
   136   1             28.34945669             28.01376149      1.2303912400000001
   137   1      2.1089283999999999      3.3868384800000002               1.2806157
   138   1      6.0150033399999998      3.5390545100000002              1.54016986
   139   1      10.177647479999999      3.6012562300000002              1.68245456
   140   1      14.155407739999999      3.5239875199999999      1.4615772899999999
   141   1      18.318648360000001      3.4511575799999998      1.5542547799999999
   142   1             22.29927807      3.3774612500000001      1.6424229699999999
   143   1      26.322970420000001      3.4256512300000002              1.21083539
   144   1      30.347488609999999      3.6561625100000001              1.46055153
   145   1    0.057538850000000002      7.1054951600000003      1.3001657900000001
   146   1      4.0868237599999997      6.8744708499999998      1.5922380199999999
   147   1      8.1541487799999999      6.9321173199999997              1.37150076
   148   1              12.1440792      6.8783568099999997              1.63298659
   149   1             16.12296843              6.97694408               1.3312804
   150   1      20.266030390000001      7.0448674999999996              1.63576064
   151   1      24.244731810000001      7.0592751700000003              1.31960707
   152   1      28.282519780000001      6.8709814099999997      1.6450429799999999
   153   1      1.9611580900000001             10.64137491      1.5282956599999999
   154   1      6.1497140000000003             10.46679331              1.48116446
   155   1      9.9797598399999998             10.60648842      1.4327933399999999
   156   1      14.232360140000001             10.74413852      1.5048896300000001
   157   1      18.281293860000002      10.613191799999999      1.5253824499999999
   158   1      22.429799190000001             10.39688232              1.27925716
   159   1             26.33001758      10.506806170000001      1.4663508199999999
   160   1      30.389708590000001             10.45812862      1.4020366799999999
   161   1   -0.082862530000000004      14.040093499999999              1.58133886
   162   1      3.9955745600000001             13.97828458      1.4615491599999999
   163   1      8.0291308499999996             14.01344946               1.3132377
   164   1             12.28545027      14.155989979999999      1.5650541499999999
   165   1      16.278623970000002             14.11501852      1.3905908499999999
   166   1             20.23294662      13.947384749999999      1.4345056599999999
   167   1             24.30972371      14.020274779999999      1.3850455699999999
   168   1      28.368632850000001      14.130424120000001               1.4357548
   169   1      2.1047070400000001      17.636079070000001      1.6326253900000001
   170   1      6.3005212899999998      17.515914420000001              1.44846111
   171   1      10.149030659999999      17.575091260000001              1.45342635
   172   1      14.090533260000001               17.603562              1.60718012
   173   1             18.33982967      17.622046619999999              1.43825078
   174   1      22.344283900000001      17.607344520000002      1.3592447299999999
   175   1      26.387327760000002      17.577533089999999              1.52133735
   176   1      30.304754200000001      17.624434040000001      1.2228220599999999
   177   1   -0.044930230000000002      20.909103259999998      1.5235883800000001
   178   1      3.9931764300000001      21.092569090000001      1.5223876999999999
   179   1      8.1917014500000001             21.07133382              1.75043595
   180   1             12.23451056             21.09560419              1.49264883
   181   1      16.323516909999999      21.197190729999999      1.4003585199999999
   182   1      20.474541210000002      21.242946830000001      1.4796840099999999
   183   1      24.250985010000001             21.18042492      1.5987300200000001
   184   1             28.23456667      21.199867340000001              1.55844005
   185   1              1.97099337             24.70759069      1.4538205399999999
   186   1      6.1265877399999997      24.687305720000001              1.67458207
   187   1             10.25046592      24.641835010000001              1.19926778
   188   1             14.27633659      24.628076069999999      1.5045705899999999
   189   1      18.411716670000001      24.530084410000001      1.5162218700000001
   190   1      22.328752869999999      24.627332020000001              1.49214599
   191   1      26.298102969999999      24.550669750000001              1.60906796
   192   1      30.479331800000001      24.636514500000001      1.5216441700000001
   193   1      1.8852948599999999      1.1451223699999999      2.3800127500000001
   194   1      5.9609658100000003      1.2575125599999999              2.45883188
   195   1             10.11434728              1.18900742      2.2532533300000002
   196   1             14.07110473      1.0054204200000001              2.34648886
   197   1             18.08865832     0.98992345999999998              2.38962407
   198   1      21.939338930000002              1.07633175      2.4528294599999998
   199   1             26.35575863              1.17798197      2.4121176100000001
   200   1      30.237498819999999      1.1261121700000001      2.3266326400000001
   201   1   -0.031394480000000002      4.8627649499999999      2.6071416300000001
   202   1      3.9534246099999999      4.6807912199999997      2.4643232799999999
   203   1              8.01845842      4.6924259399999997      2.5036909999999999
   204   1      12.223002920000001      4.7082816300000001              2.40851178
   205   1      16.278932080000001      4.6931392799999996      2.3229564900000002
   206   1      20.253488310000002      4.6541606199999999      2.6134348300000001
   207   1             24.25791675      4.7516093499999998      2.5540347400000001
   208   1      28.269015039999999      4.7395932399999996      2.5113693100000001
   209   1      1.9622023200000001      8.2431408899999994      2.4432990499999998
   210   1      6.0797249100000004      8.2229722400000007              2.43161571
   211   1             10.17084215      8.2885406400000008      2.4717190699999998
   212   1               14.044599      8.2827317399999991      2.3156232000000001
   213   1      18.131260910000002      7.8638460400000003      2.3524324700000001
   214   1             22.15663709      8.2680013500000005      2.4253896899999998
   215   1      26.395284440000001      8.1953960200000004      2.5339085400000001
   216   1      30.518208229999999      8.0956718100000007      2.3393827100000002
   217   1      32.431907500000001      11.755138499999999      2.3900600399999998
   218   1      4.0788846400000001             11.67604714      2.4722835600000002
   219   1      8.2620026400000004      11.847175160000001      2.5077337700000002
   220   1             12.14569949             11.58128468      2.3755979300000001
   221   1      16.288916140000001      11.745628160000001      2.3569837499999999
   222   1      20.390016800000001                11.79083      2.4285628899999998
   223   1             24.32648962             11.63284977      2.4700992099999999
   224   1      28.418000920000001             11.68016212      2.2846740099999998
   225   1      2.1083683899999999             15.17972438              2.29546487
   226   1      6.0806336999999999             15.16078151      2.4060600299999999
   227   1      10.203598120000001      15.296272610000001      2.4762888699999999
   228   1             14.21887957             15.22017883               2.3221273
   229   1             18.24978205      15.182025700000001      2.4391611599999998
   230   1      22.286286520000001      15.291001019999999      2.3517057600000002
   231   1             26.34550952      15.204585489999999      2.3776691699999999
   232   1      30.577030019999999             15.33936931      2.5259355000000001
   233   1   -0.061086719999999997      18.624228460000001              2.33737701
   234   1      4.1566836499999997      18.739927590000001      2.4731486899999999
   235   1      8.1062452900000004              18.9554349      2.5745760099999999
   236   1      12.162251319999999             18.90133209      2.3979643899999998
   237   1      16.306998879999998             18.79963433      2.3960377799999999
   238   1      20.543860469999998      18.860771620000001      2.5501337899999998
   239   1      24.485721219999999      18.593214339999999      2.3352932599999998
   240   1             28.38111885      18.778231460000001      2.3651141099999999
   241   1      1.9521763400000001      22.081584960000001      2.5275235299999999
   242   1      5.9817346899999997      22.317393859999999              2.39337014
   243   1             10.21540948      22.452764389999999              2.52070778
   244   1             14.18382463             22.24670231      2.4163165499999999
   245   1      18.213982609999999      22.372302560000001      2.5223022400000001
   246   1             22.25989835      22.292914809999999      2.5011085300000002
   247   1      26.273091619999999      22.175064020000001      2.3731201500000001
   248   1      30.520447399999998      22.197878209999999              2.57581031
   249   1      32.652788350000002      25.932378010000001      2.3675529900000001
   250   1      4.1291421599999998             25.91763881      2.4085912700000001
   251   1      8.0328335499999994      25.820810259999998               2.4843598
   252   1      12.310572240000001      25.625618679999999               2.2855786
   253   1             16.26866888      25.602404150000002      2.5845088500000002
   254   1             20.28102329             25.81930762      2.4991069800000001
   255   1      24.386150449999999      25.746068739999998      2.3880230099999999
   256   1      28.421620390000001      25.787429209999999      2.4521115199999999
   257   1      32.380617919999999              2.27149672              3.20411877
   258   1              3.97757819      2.4686162299999999      3.1749025199999998
   259   1      8.0856552300000004      2.3596515299999998               3.0945128
   260   1      12.176661960000001              2.40581325      3.3064833600000001
   261   1      16.160262849999999      2.3201673700000001              3.09239328
   262   1             20.29492643      2.1619679199999999      3.4296605200000001
   263   1             24.23625281              2.21080305      3.2306658100000001
   264   1      28.315455490000002      2.4095362200000001      3.2447634299999999
   265   1      2.0852489699999999      5.9136196500000002      3.3042365299999998
   266   1      6.1171876599999999      5.8653281799999997      3.2675918099999999
   267   1      10.050721709999999      5.7241914999999999      3.1503499399999999
   268   1      14.146157280000001      5.8764488400000001              3.38844813
   269   1             18.12568744      6.0147628400000004               3.4351886
   270   1      22.287400510000001      5.7884870199999998              3.32892404
   271   1      26.287370889999998      5.8602042900000004      3.3046536199999998
   272   1      30.372434080000001      5.9105919299999998      3.2850874700000001
   273   1   -0.051150939999999999      9.4341981199999996              3.22265186
   274   1      4.0626483100000002      9.3523512100000001              3.31988518
   275   1      8.0005305999999994      9.5173449600000009      3.3182688100000002
   276   1             12.05976954              9.23023068              3.32282017
   277   1      16.313272609999999      9.2968612700000008      3.1560419899999999
   278   1      20.078004669999999      9.3872269999999993      3.1166410400000002
   279   1             24.26690383      9.3829767000000004      3.2699578800000002
   280   1      28.358838380000002      9.3365921299999997      3.2761277400000002
   281   1      2.0969301900000001      12.803408559999999      3.2227635700000001
   282   1      6.1904024800000004      12.887966309999999      3.2969432599999999
   283   1             10.21299366             12.88524889              3.26241447
   284   1              14.2731048      13.003773130000001              3.30450036
   285   1      18.214792549999999      12.910531089999999      3.3124401400000001
   286   1      22.429372650000001             12.95354826      3.2861186099999999
   287   1             26.54743534      12.900949369999999      3.2853276999999999
   288   1      30.457219139999999      12.988912429999999      3.3587032699999999
   289   1   -0.025495690000000001             16.39992543      3.2986982600000001
   290   1      4.2298292200000001      16.592827150000002              3.33522688
   291   1      8.1456271200000003      16.234517619999998      3.2465325200000001
   292   1             12.03699411      16.631622440000001      3.3252397299999998
   293   1      16.116799329999999      16.457460009999998      3.3663807499999998
   294   1      20.515328490000002             16.44885764      3.1729024400000001
   295   1      24.435104450000001      16.436524680000002              3.14598859
   296   1      28.267196569999999             16.55876452      3.1921956499999999
   297   1      2.1028125499999999      19.692958610000002      3.5168323300000002
   298   1      6.0896157799999999             19.89921167      3.3581376199999999
   299   1             10.11606639      19.967493940000001      3.3299713099999999
   300   1             14.11727323      19.903490959999999              3.19081708
   301   1             18.15751917      19.950140409999999      3.3045276700000001
   302   1      22.490261180000001      19.935316400000001      3.2275693599999999
   303   1             26.34864395      19.837544510000001      3.3633094200000002
   304   1      30.545428040000001      19.801675230000001      3.3052301499999999
   305   1      32.439254200000001             23.48424597      3.2341298300000001
   306   1      4.0860659799999999      23.528047879999999      3.4249419699999999
   307   1      8.1573033299999995      23.422167049999999      3.2077012300000001
   308   1      12.186296219999999             23.34035239              3.27152888
   309   1      16.115807279999999             23.41884529      3.3557385900000001
   310   1      20.213868949999998      23.692846370000002      3.4534101700000002
   311   1             24.36088312             23.56586278              3.30779421
   312   1             28.42598512      23.527012089999999              3.26473894
   313   1      2.0098794400000002      26.928206540000001      3.3099862199999999
   314   1      6.1404525200000002      26.960011569999999      3.1254040199999999
   315   1      10.120597739999999      26.908911700000001               3.1261204
   316   1      14.360369329999999             26.95014089              3.33084471
   317   1      18.094842839999998             27.05549997      3.2962496400000001
   318   1             22.42653095      26.949326370000001      3.2808494399999999
   319   1             26.39562965             26.97710197      3.2885401700000001
   320   1             30.47263929      26.927887689999999              3.29920825
   321   1   -0.096402920000000003      28.223425819999999      4.1656790499999996
   322   1      3.9664739500000001             28.19256751              4.19283567
   323   1      7.9587332899999996      28.366448269999999      3.9205129300000001
   324   1              12.2450613      28.192342830000001      4.0506332699999996
   325   1      16.172393339999999             -0.11229051      4.2266741999999997
   326   1              20.2731888             28.13773874      4.3073284300000001
   327   1             24.33457383      27.882973119999999      4.0601975299999999
   328   1      28.399470260000001              28.2761408      3.8624904400000002
   329   1      2.0107635699999999      3.5768052199999998      4.0357494000000003
   330   1      6.0572225099999999      3.7569662400000001      4.1029411700000002
   331   1      10.095139250000001      3.5318436100000001      4.2017803100000002
   332   1              14.2738142      3.4884391799999999              4.14583908
   333   1      18.206918160000001      3.4610289399999998      4.0658644300000004
   334   1             22.15860391              3.63931388      4.3431401699999999
   335   1      26.266394999999999      3.4535113200000001      4.2280038700000002
   336   1      30.412956640000001      3.6821298900000001      4.0513478899999997
   337   1      32.401180979999999      7.0556987700000002              3.95549616
   338   1      4.0410908399999999      6.9323681600000002              4.03679582
   339   1      8.0110575700000002      7.1380383099999998              4.09267804
   340   1      11.999135949999999      6.9095533700000002      4.1216341600000002
   341   1             16.27665799              7.01517722      4.1859157299999996
   342   1      20.175858560000002      7.1958982899999997      4.2378026200000001
   343   1      24.285246300000001      7.0178364699999998              4.26571692
   344   1      28.294632020000002      7.0888456800000004      4.1457931500000003
   345   1      2.0409265699999999             10.50882195      4.0596771399999998
   346   1      5.8974227199999998      10.731458569999999      4.1185735000000001
   347   1      10.092237219999999             10.62159159      4.1923630999999997
   348   1      14.045462540000001             10.54455112      4.0122093200000002
   349   1      18.152581099999999             10.59607162              3.99002211
   350   1      22.254267909999999      10.592505129999999      4.1455496900000002
   351   1             26.25733877             10.51386714      3.9615924100000002
   352   1      30.401697209999998      10.518030850000001      3.8046640599999999
   353   1              0.10907314             14.16885424              3.88020634
   354   1      4.1515194500000003      13.958246259999999      4.2308279000000004
   355   1      8.2988407800000008      14.040789889999999      4.2275650200000001
   356   1             12.20935909      14.125371660000001              3.90856242
   357   1      16.273578539999999      14.018226050000001      4.1444557199999998
   358   1              20.3609996             14.01602471      3.9728040400000002
   359   1      24.466644559999999             13.95381924              3.86641506
   360   1      28.352106030000002             14.13529144      4.0351157200000003
   361   1              2.08499575      17.457682819999999      3.9813339800000001
   362   1      6.2596178599999996             17.54395478      4.1339329500000002
   363   1      9.9572567099999993      17.473542890000001      4.1797323100000003
   364   1      14.146729779999999      17.616574849999999      4.2608104200000003
   365   1      18.461753229999999      17.795898099999999      4.1566589799999996
   366   1      22.547427760000001      17.575741690000001      3.8605244399999998
   367   1               26.314301      17.623609219999999      4.1085098200000001
   368   1      30.295272099999998      17.642038490000001      3.9190258299999998
   369   1    0.074487079999999997             21.09790971      4.0425582599999998
   370   1      4.0243081800000002      20.989276799999999      4.1996566700000004
   371   1      8.1376220900000007      21.249555369999999              4.04975196
   372   1      12.231507000000001      20.993890919999998      4.1190524899999996
   373   1             16.04049908             21.10882118      4.1678427500000002
   374   1      20.431011609999999      21.215242880000002      4.1671727900000004
   375   1             24.44304073      21.191242720000002      4.1824529000000004
   376   1             28.32092024      21.212452559999999      4.0953747500000004
   377   1      1.9840005300000001      24.613718089999999      3.9556930100000001
   378   1      6.0356132999999996      24.540854840000002      4.2440585999999998
   379   1             10.09303922      24.821195710000001      4.2101178299999997
   380   1             14.22364192      24.727385569999999      4.0652433400000003
   381   1      18.075096729999999      24.561266440000001      4.3575268700000001
   382   1      22.422857759999999      24.727457080000001      4.0695262999999997
   383   1      26.333726479999999      24.761419750000002      4.1467916300000001
   384   1             30.35713406      24.738522540000002      4.0644143599999998
   385   1      1.9514540600000001              1.13583287      4.8687692299999998
   386   1      6.0429266699999999               1.3235701      4.9275392900000003
   387   1      10.118935820000001              1.27384743              5.01210018
   388   1             14.04490938              1.19945294              4.77803413
   389   1      18.293149119999999     0.91513624000000005              5.13761826
   390   1             22.32583369              1.27594582      5.0746842000000001
   391   1             26.50472611      1.2152048099999999      5.0119035600000004
   392   1      30.352961019999999      1.1059041000000001      5.0917111400000001
   393   1      32.491963560000002      4.6448303700000002      4.8739828100000002
   394   1      3.9589743799999999      4.6562281399999996      4.9151506500000002
   395   1      7.9886714799999998      4.7110800499999996      5.0371051199999997
   396   1      12.105813700000001      4.7988545299999998      4.8732968000000003
   397   1      16.207331580000002      4.6123745700000001      5.1247416899999996
   398   1      20.104356719999998      4.7599821599999999      5.2247088499999998
   399   1      24.231008150000001      4.6214907900000002      4.8180247999999999
   400   1      28.409980109999999      4.6829496900000001      4.9273836900000001
   401   1              1.99357955      8.2814402000000005      4.9789118300000004
   402   1      6.0482526300000004      8.2833832199999993              4.97080448
   403   1      9.9403522899999999      7.9493526499999998      4.9953091299999999
   404   1      14.269092690000001      8.1349733200000003      4.8713218500000002
   405   1      18.103763570000002      8.3144114299999998      4.8795452900000003
   406   1      22.210247240000001      8.1858620799999997      4.9442902799999997
   407   1      26.237441969999999      8.0530340200000001      4.9312676299999998
   408   1      30.135647939999998      8.2739675899999998      5.0193340099999997
   409   1      32.381109410000001             11.77333827              4.72348634
   410   1      4.0086246499999998             11.86463919      5.0545282800000004
   411   1      8.1264625499999994      11.618876589999999               5.0773921
   412   1      12.243817010000001      11.727621689999999      5.0535671999999998
   413   1      16.130546930000001      11.683950530000001      4.9697120200000002
   414   1      20.138731480000001      11.647872230000001      5.0811319800000003
   415   1      24.212343600000001      11.791253299999999      5.0130498599999997
   416   1      28.474917779999998      11.690404089999999      4.7164063799999996
   417   1      2.1963662799999999      15.363351010000001      4.7962718799999999
   418   1      6.0068583000000002             15.23205521      5.0492087400000001
   419   1      10.328319349999999             14.99465524      5.0915418700000004
   420   1             14.11650259             15.30340693      4.8052689800000001
   421   1      18.241946209999998      15.175922290000001      4.8736727999999996
   422   1      22.359835360000002             15.36371454      4.8196317200000003
   423   1             26.36239072      15.022086180000001      5.0156019599999997
   424   1      30.383960070000001      15.453826250000001      4.9407634399999996
   425   1             32.44599238      18.721545880000001      4.9488633599999998
   426   1      3.8963421399999998      18.678331589999999      5.1463561000000002
   427   1      8.2405120600000004      18.829357510000001      5.0943309000000001
   428   1      12.106014630000001      18.743646649999999      4.8589484199999999
   429   1      16.223762480000001      18.678215510000001      4.8354252899999999
   430   1      20.537482170000001      18.828655479999998      5.0243368999999998
   431   1             24.47437549      18.772037229999999      5.0055507700000001
   432   1      28.412614219999998      18.785211539999999      4.8810144099999997
   433   1              2.12800667      22.157313949999999      4.8724269400000004
   434   1      6.0553840799999996      22.165044689999998      5.0010350199999998
   435   1             10.16755178      22.289468360000001      4.8113858299999999
   436   1             14.12455434      22.328142069999998      5.0659128000000004
   437   1      18.357653710000001      22.290349320000001      5.1760542200000002
   438   1      22.521363999999998      22.428884570000001      4.9890011999999997
   439   1             26.37568984      22.452439559999998              4.82295988
   440   1      30.604418939999999      22.105800410000001      5.1482450599999998
   441   1    -0.16481021000000001      25.822342710000001      4.8342527000000004
   442   1      4.0981406500000004             25.70570408      4.9841037999999998
   443   1      8.1870165499999992             25.82728161      4.6940403799999997
   444   1      12.274468779999999      25.711553460000001      4.9689102900000002
   445   1      16.126081209999999             25.78719598      5.1135106400000003
   446   1      20.196795869999999             25.62214943      5.0766433800000001
   447   1      24.377949820000001      25.859705760000001      4.9854221000000001
   448   1      28.397401349999999      25.853409129999999      4.9913097000000004
   449   1      32.402309719999998      2.4140046900000001      5.7094008299999999
   450   1              3.93631653      2.2768122399999999              5.75940326
   451   1      8.0804493100000006      2.4060718900000002      5.8346306500000003
   452   1              12.0922263      2.4400494400000001      5.8779579599999998
   453   1             16.24957852      2.3275902099999999      5.7610931499999998
   454   1      20.224783559999999              2.41825264      6.0295398599999999
   455   1      24.472240500000002      2.3404235999999998      5.6791854800000001
   456   1             28.32173323      2.3451661399999999      5.9257956099999998
   457   1              1.95210566      6.0420545800000003              5.82467633
   458   1      5.8992837099999997      5.7794366899999998      5.7809592500000004
   459   1             10.20011527      5.8756272999999997      5.8862529800000001
   460   1              14.2012106      5.9198070300000003      6.0101118199999997
   461   1      18.250959989999998      5.8601270799999998      5.9934015599999997
   462   1      22.302504809999999      5.8197362300000002      5.8752827999999999
   463   1      26.253363709999999      5.7793593400000001      5.8075037099999998
   464   1      30.346407360000001      5.9052948299999999      5.7080147099999996
   465   1              0.02108459      9.4575452900000005      5.7665632000000002
   466   1      4.1492986500000004      9.2937661899999995      5.9069437799999998
   467   1      8.2551058400000006      9.3101149700000008      5.9964481599999999
   468   1             12.01579023      9.3355701900000003      5.6540385899999999
   469   1      16.082187430000001      9.4170162099999999      5.6717645900000004
   470   1             20.09367142      9.2757142800000008      5.7215855299999996
   471   1      24.259785019999999      9.3376490800000003              5.83663197
   472   1      28.243203820000002      9.2165137999999995      5.8887015099999998
   473   1      1.9773829700000001             12.95090952      5.6652778499999998
   474   1      6.3961653800000002             13.13065327      5.8140394400000002
   475   1      10.271899449999999      12.650468849999999      6.0105226099999998
   476   1      14.183134280000001             13.02755047      5.9068537399999999
   477   1      18.112764089999999             12.90363835      5.8157500600000001
   478   1             22.25597497             12.97874041      5.8216960100000001
   479   1      26.321240679999999      12.878940849999999              5.74290301
   480   1      30.448376710000002      13.045144580000001      5.6964281899999998
   481   1      32.718083630000002      16.478403740000001      5.8972073199999997
   482   1      4.0658709000000002      16.337173799999999      5.9102428099999997
   483   1      8.1411469899999993      16.178305470000002      5.8790357999999996
   484   1      12.148146069999999      16.356230490000002      5.9292890800000002
   485   1              16.1561381      16.413635540000001      5.8610665900000001
   486   1             20.32662462      16.430727050000002              5.65133055
   487   1      24.494942429999998      16.368200659999999      5.5072009399999997
   488   1             28.37475001             16.42819944      5.7428920000000003
   489   1              1.90296592      19.878820189999999      5.9587142100000001
   490   1      6.1567547400000002      19.771306719999998      5.9183044899999997
   491   1             10.09379077      20.020970609999999              5.81147115
   492   1             14.25995191      19.973103040000002      5.7531131999999996
   493   1      18.457375460000002             19.96450887      5.7399361899999999
   494   1      22.502364310000001             20.11395976      5.7275783699999998
   495   1      26.485280370000002             20.01886223      5.7669115599999996
   496   1             30.37279303             19.83467838      5.8859692600000004
   497   1    0.064001849999999999      23.556604140000001      5.6748428799999999
   498   1      4.1655955100000002             23.45536551      5.8388243400000004
   499   1      8.3112018600000006      23.470801399999999      5.8425395499999997
   500   1      12.248378580000001             23.29956833      5.7002574099999999
   501   1             16.09524974      23.476677120000002      5.8818043600000003
   502   1             20.43142598             23.33354855      5.8731375699999999
   503   1      24.470445900000001             23.58042846      5.8424603499999996
   504   1               28.342606      23.496280120000002      5.7051754700000004
   505   1              1.97186606      26.876105110000001      5.7798534899999998
   506   1      6.1396853499999997      26.992511879999999      5.7153511999999997
   507   1             10.37510801      27.179542569999999      5.5364760899999999
   508   1      14.227858230000001              26.9112337      5.8260056899999997
   509   1      18.263924970000001      26.701300759999999      5.7242530800000004
   510   1      22.149420249999999      26.953258959999999      5.8712740400000003
   511   1      26.307175640000001      27.191017519999999      5.8923319999999997
   512   1      30.522135169999999      27.073137150000001      5.5508526900000001
   513   1      32.521347460000001  -0.0090175700000000008              6.54064216
   514   1              4.05570802      28.111235820000001      6.5046846199999999
   515   1      7.9795197099999999      28.149966790000001      6.7959969100000004
   516   1             12.27686346      28.230136770000001      6.6395117299999997
   517   1      16.223769539999999              0.04151403      6.7367026000000001
   518   1             20.28473485      27.945029730000002      6.7060891900000001
   519   1      24.221840090000001     0.16226985999999999      6.7101052399999999
   520   1      28.417728109999999             28.20716376      6.7395777900000002
   521   1              2.03298004      3.5814228199999998      6.4957747799999996
   522   1      5.9235162600000004      3.3408948000000001      6.6016029600000001
   523   1             10.30062745      3.6692064000000002      6.6552049899999997
   524   1      14.138456039999999      3.4596300900000001              6.72620577
   525   1      18.100098750000001      3.3599362099999999      6.5659925299999999
   526   1      22.338246680000001      3.5253578299999999      6.8037658600000004
   527   1              26.3363798      3.6187975400000001               6.6540431
   528   1      30.506161259999999              3.32949377              6.44901517
   529   1      32.104843840000001      7.2521947500000001      6.5002157299999999
   530   1              3.93798724      6.9329292200000001      6.7691949600000001
   531   1      7.8561512000000002      6.9761812299999999      6.5875845799999997
   532   1      11.950881470000001      7.0388607099999998      6.6938625399999996
   533   1      16.228457070000001              7.26239744              6.89023129
   534   1      20.279252410000002      6.9340310399999998      6.8098967500000001
   535   1             24.24045795      7.1175204000000001      6.7308860700000004
   536   1      28.246954089999999      6.9227745599999997      6.7527492599999999
   537   1      2.0435710999999999      10.721947009999999      6.7588531700000001
   538   1      5.9470506299999997             10.69003244               6.6890551
   539   1             10.07581115      10.454014069999999      6.8570408699999996
   540   1      14.052606340000001             10.62848017      6.5777316099999998
   541   1             18.33471291             10.56500132      6.4167842999999998
   542   1             22.06152277      10.591040789999999      6.7470708200000002
   543   1      26.082400329999999             10.60735178      6.7668787000000004
   544   1      30.308308960000002      10.541101810000001      6.6043437100000002
   545   1    0.048707359999999998      14.124988849999999      6.3811446700000003
   546   1      4.3686953500000003      14.123277939999999      6.6313856900000001
   547   1      8.1642383699999996             13.92197797              6.97105014
   548   1      12.413061969999999      13.889965119999999      7.0424791899999999
   549   1      16.242442350000001             14.04906974      6.6895949400000001
   550   1      20.149360399999999             13.91886291      6.4888954999999999
   551   1      24.340533369999999      14.017349960000001      6.4488141900000002
   552   1             28.55027166             14.31267925      6.5792555400000001
   553   1              2.06456412      17.628194799999999      6.8020022200000003
   554   1      6.0369597400000004      17.622907919999999      6.8411662199999999
   555   1             10.17228572      17.477599680000001              6.82021385
   556   1      14.250017550000001             17.67609041      6.5859821299999997
   557   1      18.176699169999999      17.647186810000001              6.59266386
   558   1      22.343030769999999             17.60223482      6.3696654800000001
   559   1      26.436257170000001      17.519122339999999      6.5499529799999996
   560   1      30.488646920000001      17.685510449999999      6.6977373299999998
   561   1   -0.033948069999999997      21.152996300000002      6.5476959099999998
   562   1      4.2579007000000004      20.922423380000001      6.7734695599999997
   563   1      8.2045321900000001             21.34163324      6.6348194700000001
   564   1      12.100984970000001      21.071734660000001      6.5932108100000004
   565   1      16.463220069999998      20.949529420000001      6.4999709399999999
   566   1      20.380094719999999      21.023576649999999      6.5997788399999999
   567   1      24.331164489999999      21.171463559999999      6.6248827099999996
   568   1      28.556914760000002      21.040633620000001              6.70111568
   569   1      2.0934768899999998             24.59670912      6.5488913399999999
   570   1      6.1463557599999996      24.826340439999999      6.7696670399999999
   571   1      10.278203080000001      24.613215360000002      6.6248136400000002
   572   1      14.124628769999999      24.687551989999999      6.7109740699999998
   573   1             18.41316312      24.483038239999999      6.8496695399999998
   574   1      22.345239020000001              24.4565755      6.8178608199999999
   575   1      26.290132209999999      24.889794330000001      6.6045037100000004
   576   1      30.524683069999998      24.595555820000001      6.7415219000000004
   577   1              2.11883081               1.1498799      7.6651138200000002
   578   1               5.9123234               1.1711137              7.58385205
   579   1      10.147628709999999      1.2027546499999999      7.5668746699999998
   580   1      14.209992059999999              1.08802405              7.59691166
   581   1             18.32663222     0.98781560999999996      7.8468216699999997
   582   1             22.23586263      1.2013420100000001      7.6551284800000001
   583   1             26.30843252      1.1997321000000001      7.3247877299999997
   584   1      30.634229659999999      1.1371258799999999      7.7660300500000004
   585   1      32.483739370000002      4.6733142799999996      7.2615830700000004
   586   1      4.0823556400000003      4.6962693499999997      7.4013709299999997
   587   1      8.0652709399999996              4.76581952      7.5653784999999996
   588   1      12.311253260000001      4.9842355500000002      7.4723523600000004
   589   1      16.066840859999999      4.7623480200000001      7.6011860799999997
   590   1             19.99752075      4.4377211000000001              7.62976806
   591   1             24.39871896      4.8010325700000003      7.2969076800000003
   592   1      28.416564860000001      4.5799614200000001      7.3958383400000001
   593   1              1.83103689      8.1168413200000007      7.3384491399999998
   594   1      5.9014621199999997      8.4002622200000001      7.5527867000000004
   595   1             10.04920418      8.0901427199999993      7.6277444399999998
   596   1             13.94219638      8.1893549399999994      7.4573481199999998
   597   1      18.324589509999999      8.4931178999999997      7.2605884500000002
   598   1             22.31503846      8.1733443799999996      7.7400578199999996
   599   1      26.229714640000001      8.0274056599999994      7.5732720799999997
   600   1      30.143399689999999      8.1719842000000007      7.4628153900000003
   601   1             -0.11917856              11.7205096      7.2536050000000003
   602   1      4.0221351600000004             11.89772187      7.5071414299999999
   603   1      8.0703152899999999             11.55991122      7.5704135600000004
   604   1      12.092866989999999             11.59875693      7.6200348699999996
   605   1      18.106312169999999      13.071306290000001      8.3240980600000007
   606   1      20.197668220000001      11.550814369999999      7.6591323899999999
   607   1      24.145987219999999      11.815748749999999      7.5966723399999996
   608   1      28.358375779999999             12.01479211      7.3086963799999998
   609   1      2.0557960500000001             15.07077857      7.4582024499999999
   610   1               6.0892374             15.13935672      7.8279989099999998
   611   1             10.33043724             15.21139726      7.5339011400000002
   612   1      14.282279340000001      15.104140790000001      7.4484147099999998
   613   1      18.168574880000001      15.165121839999999      7.3049702300000003
   614   1      22.485397420000002             15.32186686      7.3766710099999999
   615   1      26.313434950000001             15.08373812      7.5078981999999996
   616   1      30.537047579999999             15.42669019      7.6178948699999998
   617   1   -0.053090579999999998             18.93851325              7.46874416
   618   1      4.3874976700000001      18.897224900000001      8.0700494999999997
   619   1      8.0771546000000001      18.768874490000002      7.5452776000000004
   620   1      12.335237790000001             18.82006836      7.6312361600000003
   621   1             16.30147646      18.697032020000002      7.4043942200000004
   622   1      20.451900640000002             18.49467156      7.6511368600000003
   623   1      24.413421209999999      18.806158010000001      7.3467478799999997
   624   1      28.464772830000001      18.648049189999998      7.5679086199999999
   625   1              2.18390621             22.14249431      7.5865008700000001
   626   1      6.1859776899999996      22.604706879999998              7.60888863
   627   1             10.24635294      22.111273000000001      7.5736988800000002
   628   1      14.130810540000001             22.13751203      7.2765202499999999
   629   1      18.273183119999999      22.230473870000001      7.5705220000000004
   630   1      22.408359959999999      22.126699169999998              7.67718788
   631   1             26.37704192             22.39680396      7.2265959400000002
   632   1      30.350049089999999      22.292103000000001      7.5073033499999999
   633   1      32.431918140000001      25.789328579999999      7.2486474799999998
   634   1      4.0899685799999999      25.838876750000001              7.46862052
   635   1      8.1048922099999992      25.893019349999999      7.7118059399999996
   636   1      12.116462759999999      25.886977850000001              7.52032714
   637   1              16.3109267      25.795800280000002      7.4938127100000003
   638   1      20.355958009999998      25.497506510000001      7.6752717199999996
   639   1      24.354871360000001             25.91329971      7.5303143600000002
   640   1      28.360267579999999      25.887505220000001              7.63134829
   641   1   -0.079098020000000005      6.9853331599999997      8.9498294000000005
   642   1      2.2111716299999999      3.6410599499999998      9.2144334400000005
   643   1             12.00078705      4.4614372800000002      9.8135838599999996
   644   1             12.18088039              2.33896433      8.5693111900000005
   645   1             12.15225105      27.973089349999999      9.2624271300000007
   646   1      16.265934000000001      2.3347724300000001      8.1951729400000008
   647   1             26.48515269      5.7968566700000004      8.1913139000000008
   648   1      30.368898170000001      3.5346309499999999      9.0717999500000008
   649   1      4.0849100600000003      4.8748883799999998      9.8420890399999994
   650   1      2.0248776400000001      26.924274960000002      8.1865340500000006
   651   1             14.23629955      3.6674633700000001      8.9826320400000004
   652   1      13.909383330000001      10.414534339999999               9.1716137
   653   1              24.5562334      9.4777549499999996      8.3635603399999994
   654   1      3.9314275099999998              0.03345936      9.1102570200000006
   655   1             17.95684967      3.5533415100000001      8.9698784600000003
   656   1      3.9136929899999999              7.26980585      9.1587538899999998
   657   1      8.0335043200000005      9.4000502899999994      8.4353317899999993
   658   1             10.04783658      12.986906019999999      8.5369843900000006
   659   1      6.1730450399999999              7.99172963      9.9820407699999993
   660   1      10.138745760000001      5.7546317199999999      8.5546296799999997
   661   1             14.68928006      19.975393960000002      8.3902984400000005
   662   1             28.07720909      9.6615203399999992      8.1666748800000004
   663   1      20.205822220000002      9.1352589799999997      8.3340513999999999
   664   1             30.37120986             10.29206677      9.0085432399999998
   665   1      12.133845170000001      9.1844382400000004      8.1450984299999991
   666   1      6.2131322300000003      17.318068950000001      9.1353175699999998
   667   1             12.28266189             16.40685895      8.3577619300000006
   668   1      16.203308759999999             11.72050089      7.3538727799999997
   669   1      20.314676380000002             15.89617404      8.1531318699999993
   670   1      26.283010969999999      12.604705510000001      8.3265280199999996
   671   1      28.277328019999999             14.28863035              9.06969417
   672   1      1.9013015799999999             12.73181531      8.3771926800000003
   673   1      30.359189610000001      17.444221519999999      9.0235278999999995
   674   1    0.026048000000000002      9.4921162300000006      8.2009242699999998
   675   1      7.9403518200000001      18.727628849999999             10.04068884
   676   1      10.145716119999999      19.680531609999999      8.0483171999999996
   677   1      12.334787589999999             13.93715944      9.4000962399999999
   678   1      22.258428840000001      17.233735589999998      8.8602585400000002
   679   1      24.164983759999998             14.10160928      9.0529949399999996
   680   1      28.168960049999999      16.326493159999998      8.1804626999999996
   681   1      3.9949428899999999             25.52755904      9.7571630999999996
   682   1      8.3119657399999998      16.402937319999999      8.1539307900000004
   683   1      5.9280245799999998             27.05206123      8.2636591100000008
   684   1      6.1955910899999997             12.80968176      8.3081152100000004
   685   1      22.421203370000001      19.667123549999999      8.3022793099999994
   686   1      24.304035859999999      21.084010920000001      9.2838797900000003
   687   1             26.17347371             15.47639723      9.6960912399999994
   688   1             30.36942985             19.84211062      8.3097377100000003
   689   1      24.142462699999999      18.616640149999998      9.7306903699999996
   690   1      4.2031277400000002      23.460496110000001      8.3197326300000007
   691   1      6.3022726599999999      3.5749240800000002      9.1553743099999991
   692   1      10.198433489999999      27.062712909999998      8.1309338600000007
   693   1      18.282661130000001      19.835795269999998              8.18189645
   694   1      16.195981769999999      16.552341500000001      8.2340481499999996
   695   1      24.428056359999999      23.311455500000001      8.3191334300000008
   696   1      28.318593719999999      23.308986600000001      8.3819031400000004
   697   1      4.1831967900000002      2.6013270300000002      8.2900150700000008
   698   1      6.2594811999999997      24.991977680000002      9.3024892799999996
   699   1      20.304112419999999             23.27826009      8.4382373200000007
   700   1      17.850067200000002             24.71574137      9.1367365100000004
   701   1             16.13646189    -0.16154760000000001      9.0571698499999993
   702   1      20.393695409999999   -0.056680729999999999      9.2812578499999994
   703   1             26.27811316             27.15868476      8.3532918699999996
   704   1      30.588211690000001      26.997717519999998      8.4943962200000005
   705   1      2.0855321400000002      5.7568228399999999      8.3561291099999995
   706   1      8.1040129200000006             27.74895952      9.2512229999999995
   707   1             14.52318987      6.1022779600000003      8.3064870499999994
   708   1      16.008039419999999             23.22590516      8.1654737900000001
   709   1              18.2977408      26.851711030000001      8.2132819700000006
   710   1      20.307910629999999             20.76894669      8.9703156100000001
   711   1             28.32175135      2.1859347800000002      8.2172010899999997
   712   1      32.729697450000003      25.650764649999999      9.5499486900000008
   713   1      32.560906719999998      2.3544445500000002      8.6072880699999992
   714   1      32.390194219999998             23.47223687      8.2067373999999997
   715   1      30.470348000000001             24.41716701      9.2901696099999995
   716   1      11.976433760000001      6.8806969599999999      9.3032946200000008
   717   1      24.468477279999998             28.33348998      9.0544942000000006
   718   1      24.371440280000002      2.6661634699999999      8.2709179299999995
   719   1      32.335975339999997              4.71696983      9.6340944400000001
   720   1      30.330320180000001      5.8156961100000002      8.0719274900000002
   721   1              3.81614392      9.5221716300000008      8.3043137599999994
   722   1             10.40408901      10.453732840000001      9.3167167800000001
   723   1      6.0464720400000003              5.85660325      8.4837171999999992
   724   1      9.8272508599999995               3.4032022      9.2908770100000009
   725   1      8.1053007800000003      7.0097323400000002      8.9730127199999998
   726   1      18.298171620000002      6.1613375599999998      8.2470334100000002
   727   1      14.147889940000001      26.819808259999999      8.4220993800000006
   728   1              0.14476201               14.304603      8.7692353099999991
   729   1     0.19055799000000001      16.462842590000001      8.1694554099999994
   730   1      8.1940038099999999      2.1736906899999999      8.2780318400000006
   731   1      16.015325820000001      9.3900760299999995      8.0533760500000007
   732   1      16.103694770000001      11.363098020000001      9.7500154899999991
   733   1      14.194184480000001      17.450025149999998      9.0694770400000007
   734   1    -0.13427571999999999    0.083051490000000006      9.0093973300000005
   735   1             22.53274523      5.6986669900000004      8.3355005700000007
   736   1      5.7891380400000001             10.47447835      9.0434127100000001
   737   1      28.181041570000001      18.376514579999998             10.26786401
   738   1      30.481941429999999             12.84293581      8.2428232900000005
   739   1             14.19413567             12.47163372      8.5600113199999992
   740   1             15.87096586             14.19731283      9.0720884099999992
   741   1      22.242350420000001             10.62685579      9.0903142500000005
   742   1             28.35807471      6.9157992699999999      9.0465153399999991
   743   1      18.139251560000002             10.51370618      8.7435752499999992
   744   1      4.0964746300000003      16.271532300000001      8.4930425500000002
   745   1      1.7892839300000001      19.746032230000001      8.6396728300000003
   746   1      3.9150039300000001             14.08901775      9.1532147399999992
   747   1      10.148908309999999      17.296710829999999      9.1951468300000005
   748   1      8.4540341100000003      21.037682449999998      9.1315735999999994
   749   1      22.093839989999999      13.089852520000001      8.1222060200000001
   750   1      26.405559319999998             17.60087188      9.1018624900000002
   751   1      24.377913060000001             16.46210507              8.20026777
   752   1   -0.045347510000000001      21.378113630000001      9.1214156000000006
   753   1      2.0785124599999998      24.239980889999998      9.0163861999999995
   754   1      8.0957330800000005      23.473682279999998      8.4022860099999992
   755   1              3.79899634      21.190673199999999      9.1111564499999993
   756   1             10.05234606      24.636216789999999      9.0653661999999997
   757   1             12.20695806      20.752196739999999      8.9997976099999999
   758   1      22.338804979999999      27.080630500000002      8.3234000699999999
   759   1      26.328870500000001             19.98004216      8.1310459999999996
   760   1      26.379172740000001      22.317664499999999      9.8229055499999998
   761   1      6.3432218899999997      20.073915849999999      8.6028245699999992
   762   1      26.058041559999999      19.616173270000001             10.58751794
   763   1      6.2391897299999997              1.17343504      10.064331510000001
   764   1             10.16896622     0.90317139000000002      9.8527267399999996
   765   1      12.161308350000001             23.54407192      8.3297272400000004
   766   1      20.171999580000001      2.3624458700000002      8.7152998499999992
   767   1             26.31293209             24.58160402      9.0745948300000006
   768   1      28.236123110000001             20.80355922      9.2917646499999993
   769   2      14.827859309999999      21.856166009999999      8.9199666299999993
   770   2      13.253444979999999             22.24219283      9.4895476799999994
