N2-dn2-coord-10bar/700K/snapshots/frame-79419/run-000/../data.lammps (written by ASE) 

770 	 atoms 
2  atom types
0.0      32.470343392086264  xlo xhi
0.0      28.120142247150884  ylo yhi
0.0      31.213473999158239  zlo zhi


Atoms 

     1   1      2.0293964600000001      1.1716090800000001    0.023552650000000001
     2   1      6.0880008999999999              1.17168918              0.02556874
     3   1      10.146952280000001              1.17170328    0.025416459999999998
     4   1      14.205754900000001      1.1716496700000001              0.02501565
     5   1             18.26456816              1.17166478              0.02504435
     6   1             22.32338141      1.1716496700000001              0.02501565
     7   1      26.382184030000001              1.17170328    0.025416459999999998
     8   1      30.441135410000001              1.17168918              0.02556874
     9   1  9.1780000000000006e-05      4.6866847900000002    0.025581599999999999
    10   1      4.0587011400000002      4.6866847900000002    0.025581599999999999
    11   1      8.1174961000000003      4.6866290399999997    0.025584639999999999
    12   1             12.17638011      4.6866852999999997              0.02491202
    13   1             16.23517979      4.6866942700000003    0.025006210000000001
    14   1      20.293956519999998      4.6866942700000003    0.025006210000000001
    15   1      24.352756209999999      4.6866852999999997              0.02491202
    16   1      28.411640219999999      4.6866290399999997    0.025584639999999999
    17   1      2.0293964600000001      8.2016395800000002    0.026613040000000001
    18   1      6.0881071599999999      8.2016314300000008              0.02543782
    19   1             10.14701835               8.2017045    0.025156850000000001
    20   1      14.205766049999999      8.2017080900000003    0.024990459999999999
    21   1             18.26456816      8.2017077599999997    0.025091249999999999
    22   1      22.323370260000001      8.2017080900000003    0.024990459999999999
    23   1      26.382117969999999               8.2017045    0.025156850000000001
    24   1      30.441029149999999      8.2016314300000008              0.02543782
    25   1  9.2789999999999998e-05             11.71671873    0.025573410000000001
    26   1              4.05870014             11.71671873    0.025573410000000001
    27   1      8.1176017700000003             11.71668698              0.02497914
    28   1             12.17637068             11.71673069    0.025001590000000001
    29   1      16.235177310000001      11.716730249999999    0.025074039999999999
    30   1      20.293959009999998      11.716730249999999    0.025074039999999999
    31   1      24.352765640000001             11.71673069    0.025001590000000001
    32   1      28.411534549999999             11.71668698              0.02497914
    33   1      2.0293964600000001             15.23167155              0.02525285
    34   1      6.0881728300000004      15.231678799999999    0.025062859999999999
    35   1             10.14698486      15.231762639999999               0.0250786
    36   1             14.20578841             15.23176782    0.025201990000000001
    37   1             18.26456816              15.2317707    0.025149979999999999
    38   1      22.323347900000002             15.23176782    0.025201990000000001
    39   1      26.382151459999999      15.231762639999999               0.0250786
    40   1      30.440963480000001      15.231678799999999    0.025062859999999999
    41   1      32.470327990000001      18.746748629999999    0.024951939999999999
    42   1      4.0588083299999997      18.746748629999999    0.024951939999999999
    43   1      8.1175770200000006      18.746803499999999    0.025222040000000001
    44   1             12.17637459      18.746799750000001    0.025428470000000002
    45   1      16.235159400000001      18.746805200000001    0.025487360000000001
    46   1      20.293976919999999      18.746805200000001    0.025487360000000001
    47   1      24.352761730000001      18.746799750000001    0.025428470000000002
    48   1             28.41155929      18.746803499999999    0.025222040000000001
    49   1      2.0293964600000001      22.261939099999999    0.025844880000000001
    50   1      6.0881419299999999      22.261841799999999    0.025489439999999999
    51   1             10.14692954             22.26176895              0.02551757
    52   1             14.20573559      22.261804690000002    0.025639160000000001
    53   1             18.26456816             22.26178625    0.025640119999999999
    54   1      22.323400729999999      22.261804690000002    0.025639160000000001
    55   1      26.382206780000001             22.26176895              0.02551757
    56   1             30.44099439      22.261841799999999    0.025489439999999999
    57   1  5.6450000000000003e-05      25.776936450000001              0.02613327
    58   1      4.0587364700000004      25.776936450000001              0.02613327
    59   1      8.1175325399999991              25.7767713    0.024734180000000001
    60   1      12.176376469999999      25.776831090000002              0.02545323
    61   1      16.235145939999999      25.776775220000001    0.025273360000000002
    62   1             20.29399038      25.776775220000001    0.025273360000000002
    63   1      24.352759840000001      25.776831090000002              0.02545323
    64   1      28.411603769999999              25.7767713    0.024734180000000001
    65   1  0.00024266000000000001              2.34304215     0.80166565000000001
    66   1      4.0585502699999996              2.34304215     0.80166565000000001
    67   1      8.1157394600000003              2.34454954     0.80169402000000001
    68   1             12.17601256      2.3433829099999999     0.80116898000000003
    69   1      16.235258170000002      2.3433209100000001     0.80090046999999998
    70   1      20.293878150000001      2.3433209100000001     0.80090046999999998
    71   1      24.353123750000002      2.3433829099999999     0.80116898000000003
    72   1      28.413396859999999              2.34454954     0.80169402000000001
    73   1      2.0293964600000001      5.8582218700000004     0.80119762000000005
    74   1      6.0870566899999998      5.8583336700000004              0.80194851
    75   1             10.14649655              5.85853131     0.80121584000000001
    76   1             14.20597894      5.8582938599999999     0.80086840999999998
    77   1             18.26456816      5.8583798500000004               0.8010794
    78   1      22.323157380000001      5.8582938599999999     0.80086840999999998
    79   1             26.38263976              5.85853131     0.80121584000000001
    80   1      30.442079629999999      5.8583336700000004              0.80194851
    81   1  0.00019438999999999999      9.3717771800000005     0.80082061000000004
    82   1      4.0585985400000002      9.3717771800000005     0.80082061000000004
    83   1      8.1175070500000004      9.3725002699999997     0.80149060999999999
    84   1      12.176590020000001      9.3733583399999993     0.80088261999999999
    85   1             16.23512199      9.3733789200000004              0.80106506
    86   1             20.29401433      9.3733789200000004              0.80106506
    87   1      24.352546289999999      9.3733583399999993     0.80088261999999999
    88   1      28.411629269999999      9.3725002699999997     0.80149060999999999
    89   1      2.0293964600000001             12.88692854     0.80220621000000003
    90   1      6.0883212999999996             12.88743848     0.80138414999999996
    91   1      10.147128609999999             12.88859852     0.80085256000000005
    92   1             14.20571782      12.888558189999999     0.80113791000000001
    93   1             18.26456816      12.888409899999999     0.80109381000000002
    94   1      22.323418490000002      12.888558189999999     0.80113791000000001
    95   1             26.38200771             12.88859852     0.80085256000000005
    96   1      30.440815019999999             12.88743848     0.80138414999999996
    97   1              0.00012365      16.403222639999999     0.80145666999999998
    98   1      4.0586692700000002      16.403222639999999     0.80145666999999998
    99   1      8.1174337899999998      16.403825260000001     0.80097196999999998
   100   1              12.1761021             16.40390721     0.80133072000000005
   101   1             16.23503496      16.403861750000001     0.80140014999999998
   102   1      20.294101359999999      16.403861750000001     0.80140014999999998
   103   1      24.353034220000001             16.40390721     0.80133072000000005
   104   1      28.411702529999999      16.403825260000001     0.80097196999999998
   105   1      2.0293964600000001      19.919205120000001     0.80066369999999998
   106   1              6.08752564             19.91894023     0.80122479000000002
   107   1      10.146078839999999             19.91919038     0.80159137999999996
   108   1      14.204993419999999              19.9192584     0.80178742000000003
   109   1             18.26456816      19.919377350000001     0.80194975999999996
   110   1      22.324142899999998              19.9192584     0.80178742000000003
   111   1      26.383057470000001             19.91919038     0.80159137999999996
   112   1      30.441610669999999             19.91894023     0.80122479000000002
   113   1              0.00142012      23.434536609999999     0.80178442000000005
   114   1      4.0573728100000004      23.434536609999999     0.80178442000000005
   115   1      8.1165862000000004      23.433936769999999     0.80182306000000003
   116   1             12.17555218      23.433996919999998     0.80156656000000004
   117   1             16.23465491      23.434040110000002     0.80170828999999999
   118   1      20.294481409999999      23.434040110000002     0.80170828999999999
   119   1      24.353584130000002      23.433996919999998     0.80156656000000004
   120   1      28.412550110000002      23.433936769999999     0.80182306000000003
   121   1      2.0293964600000001      26.949875330000001              0.80297246
   122   1      6.0858208300000003      26.950066320000001              0.80215291
   123   1             10.14598146      26.949241430000001     0.80165810000000004
   124   1             14.20520604      26.948673230000001     0.80131923999999999
   125   1             18.26456816             26.94858318     0.80108193999999999
   126   1      22.323930279999999      26.948673230000001     0.80131923999999999
   127   1      26.383154860000001      26.949241430000001     0.80165810000000004
   128   1             30.44331549      26.950066320000001              0.80215291
   129   1    0.069257159999999998      28.056412229999999      1.4427958599999999
   130   1      4.0245594599999999             -0.00145835      1.3594727200000001
   131   1              8.00910981      28.095369130000002      1.5166072399999999
   132   1      12.105651979999999   -0.018042450000000002      1.3316379599999999
   133   1      16.256109760000001      28.330151489999999              1.57543514
   134   1      20.169078679999998   -0.039492729999999997              1.38269888
   135   1      24.287222400000001      28.160099030000001              1.50836207
   136   1      28.401756249999998             28.13446849      1.4739782100000001
   137   1      2.1318698299999999      3.5263776299999998      1.3364497799999999
   138   1      5.9593587799999996      3.5509373100000001      1.4919344400000001
   139   1             10.20711079      3.4622882599999998               1.4444998
   140   1             14.28268987      3.5230009799999999              1.34111179
   141   1      18.261566899999998      3.3955161600000001      1.3927887299999999
   142   1      22.503406179999999      3.5466149100000002      1.3636309600000001
   143   1      26.519548790000002      3.4393356000000002      1.4970586100000001
   144   1             30.59039757      3.5013466599999998              1.36265082
   145   1    -0.21006024000000001      6.9443009399999998              1.38875795
   146   1      4.1105393499999998      7.0293457699999999      1.3171058200000001
   147   1      8.2230080599999997      6.9512570399999998      1.6009687800000001
   148   1      12.128101879999999      7.0363804099999996      1.4743354099999999
   149   1             16.27528787      6.9468979900000001      1.3485343299999999
   150   1      20.249692719999999      6.8757521199999996      1.3475229200000001
   151   1             24.09791225              7.00890302              1.48936208
   152   1              28.5052153      6.9753852800000002      1.3451200800000001
   153   1      1.9612994699999999      10.456543720000001              1.59856525
   154   1      6.1476987400000001             10.44923902              1.46964231
   155   1      10.134245870000001             10.44810916      1.4815351000000001
   156   1      14.287964089999999      10.589650990000001      1.4917626500000001
   157   1      18.187846350000001      10.377699420000001      1.5103937199999999
   158   1      22.208514619999999             10.53390682      1.3710582499999999
   159   1      26.350971980000001             10.41218668      1.5877356600000001
   160   1      30.402218909999998      10.396703240000001              1.58735789
   161   1      32.373120759999999      14.011110390000001               1.2566765
   162   1      4.0463611300000002      13.944147170000001      1.4542429299999999
   163   1      8.0899647699999999             14.10022515      1.4811463499999999
   164   1             12.04332157             14.06542106              1.76144006
   165   1      16.255542470000002             14.05102089              1.52143732
   166   1             20.29211656             13.88754235      1.4764415900000001
   167   1      24.329554779999999              14.1866913              1.40198237
   168   1      28.372376760000002      13.919059000000001      1.5927050300000001
   169   1      2.0327813799999999      17.506028929999999      1.5176336800000001
   170   1      6.1519209999999998              17.6220523      1.4050280399999999
   171   1             10.18593937      17.492274649999999              1.63289014
   172   1      14.290697829999999      17.432635189999999      1.3629733100000001
   173   1      18.367799909999999      17.497966909999999              1.45661866
   174   1             22.44943555              17.4918139      1.3765086900000001
   175   1      26.484794539999999      17.575076989999999              1.43038797
   176   1             30.35924082      17.506713380000001              1.69174007
   177   1              0.06945461      21.146634800000001              1.60570751
   178   1      4.1335203399999996             21.17172897               1.5114763
   179   1      8.0731934600000006             21.27380552      1.5967012199999999
   180   1             12.13895922      21.029360220000001      1.4105622200000001
   181   1      16.367171639999999             21.05582463              1.58092824
   182   1      20.268985319999999      21.014165590000001      1.6032780600000001
   183   1             24.31759637             20.88617069      1.3245029399999999
   184   1      28.334066700000001      21.062143079999998      1.6059316400000001
   185   1      1.9386914099999999      24.489722489999998              1.24197775
   186   1      6.0615108900000001      24.510637320000001      1.4474820399999999
   187   1             10.22861636      24.715309510000001      1.5544086399999999
   188   1      14.356109460000001      24.689039300000001              1.47928346
   189   1             18.26108159      24.431006109999998              1.67496672
   190   1             22.34562287      24.599809839999999      1.6168702100000001
   191   1             26.44551744      24.526508870000001              1.45754787
   192   1      30.448210710000001      24.608681019999999      1.4079343200000001
   193   1               1.9461108              1.12600846      2.4261929499999999
   194   1      6.0260487899999999               1.0756838              2.49272676
   195   1             10.10766404              1.16942506      2.4246314500000001
   196   1      14.271990779999999              1.22419034      2.4415293600000001
   197   1             18.29751091              1.17906942      2.4665957199999999
   198   1      22.266952929999999      1.0661718099999999               2.4000637
   199   1      26.270584849999999              1.11188525      2.5623263999999999
   200   1             30.33653284               1.2127861      2.4712591800000001
   201   1      32.457891400000001      4.8525077200000002              2.30842495
   202   1              4.09143729      4.6728373300000001      2.2585981400000001
   203   1      8.0071748800000009      4.3727611499999997              2.25965514
   204   1             12.22777546      4.6285687400000004      2.3701984299999999
   205   1      16.065827209999998      4.5433708700000004      2.4217868400000002
   206   1      20.319602039999999      4.8372107199999999      2.4854967700000001
   207   1      24.357362859999999      4.7016897000000002      2.3544659399999999
   208   1      28.548902959999999      4.6109068999999998      2.4224538299999998
   209   1      2.0232188500000001      8.2083380600000009              2.44350932
   210   1      6.2661151000000004      8.2274741700000007      2.2374794499999999
   211   1      10.188151039999999      8.0721977799999998      2.5643822599999999
   212   1      14.397213150000001      8.1817677900000003              2.29218286
   213   1      18.428922719999999      7.9954708600000002      2.5469652699999998
   214   1      22.154198699999998      8.3786293500000006      2.6483245800000002
   215   1      26.345530230000001      7.9380810400000001      2.4713645999999998
   216   1      30.450527879999999      8.1601893200000006              2.56773433
   217   1             32.34511277      11.637679970000001              2.35505443
   218   1      3.9997457600000001      11.637238350000001      2.4679917699999998
   219   1      8.1502452999999999      11.683436779999999      2.4657748000000002
   220   1             11.90355164             11.62891424              2.36352984
   221   1             16.11493007             11.71596094      2.3739361799999998
   222   1      20.319715460000001              11.7056176      2.3592029399999999
   223   1             24.42428306             11.66087256      2.3651915799999998
   224   1             28.31597974      11.725733140000001      2.4598809099999999
   225   1      2.0140687100000001      15.264836949999999      2.3954163999999998
   226   1      6.1626284199999999      15.141983700000001      2.4333493599999998
   227   1             10.16754197             15.27514935              2.50160334
   228   1             14.36856504             15.27975629      2.4219136799999998
   229   1              18.2868438              15.1837611      2.5485400399999998
   230   1             22.23335209      15.114529510000001      2.4326971799999999
   231   1             26.40357534      15.264889610000001              2.46786839
   232   1             30.13397209      15.189863000000001      2.4774109700000002
   233   1   -0.098562720000000006      18.662967600000002      2.3441268499999999
   234   1      4.0941807199999998      18.716084970000001      2.3413319600000002
   235   1              8.22855092             18.83199132              2.35350898
   236   1      12.153908619999999      18.720069559999999      2.5007469200000001
   237   1      16.207925100000001      18.580690350000001      2.4461521300000002
   238   1             20.38302766             18.71910403              2.34917759
   239   1      24.553493240000002      18.743823849999998              2.37280837
   240   1      28.462274610000001      18.697880420000001      2.4216062900000002
   241   1      2.0476331499999998      22.276348769999998      2.4652621799999999
   242   1      6.1237887899999999      22.376855469999999      2.6224477799999999
   243   1             10.10964736      22.267019529999999      2.5216223900000001
   244   1             14.18319676      22.351994909999998      2.4647584299999998
   245   1              18.2545751             22.33288782      2.3643206999999999
   246   1              22.1919176      22.138962029999998      2.4229956800000001
   247   1      26.218874100000001      22.173302499999998      2.5092356699999998
   248   1      30.318032850000002      22.258851190000001      2.5329832099999998
   249   1      32.494390209999999      25.815176919999999      2.4490515899999998
   250   1      4.0239354000000001              25.7387032              2.55069313
   251   1      8.2210691400000009      25.795979060000001      2.3923411400000001
   252   1             12.25889669      25.684530580000001              2.51154652
   253   1      16.345120000000001      25.873049680000001      2.3918705899999999
   254   1      20.260273529999999             25.84841175              2.37613546
   255   1      24.281962270000001             25.96993479      2.3040806800000002
   256   1      28.253536369999999      25.539897700000001      2.4098834400000002
   257   1              0.04982673              2.38989129      3.4009604000000002
   258   1              4.06163484      2.2425100599999999      3.2861777000000001
   259   1      8.0778803499999992      2.2306886800000001      3.3025498099999999
   260   1              12.1441216              2.11954405      3.2961744799999999
   261   1      16.200380320000001      2.3129584900000002      3.3709793800000001
   262   1      20.148946250000002      2.4504936000000002      3.1406285399999998
   263   1      24.180498969999999      2.1694617799999998      3.1136146299999998
   264   1             28.42838064      2.3454870400000001      3.4489056100000002
   265   1      2.0011114000000001      5.7420707000000002      3.2304913900000001
   266   1      6.1298013400000002      6.0212358300000002      3.1868720499999998
   267   1      10.021338950000001              5.73002565      3.1049936800000002
   268   1              14.2353956      6.0060369199999997              3.10857348
   269   1      17.994012869999999      5.6929528200000004      3.3994237200000001
   270   1      22.289509120000002      5.9034129999999996              3.29926458
   271   1      26.400260729999999      5.8012439000000002      3.3589005300000001
   272   1      30.407277029999999      5.9684301299999998      3.3514837499999999
   273   1   -0.099033120000000002      9.4891634800000002              3.30782007
   274   1              4.04313243      9.2297949700000004              3.28249579
   275   1      8.1333291600000006      9.3801496199999992      3.2767899800000002
   276   1             12.07143016      9.4216754700000003      3.2999647099999998
   277   1      16.248206190000001      9.2973166799999998              3.49694182
   278   1      20.124673309999999      9.4463316200000005      3.3190101400000001
   279   1             24.43015724      9.3448563199999999      3.1759246499999998
   280   1      28.412459160000001      9.2890324300000007      3.1010460000000002
   281   1      2.0464600499999999      12.911413270000001              3.40664027
   282   1      6.0944474099999999      12.795430270000001      3.2347801399999998
   283   1      10.227034290000001      12.919947219999999      3.3896569799999998
   284   1             14.10078313             12.82845133      3.2105515800000002
   285   1      18.195583039999999             12.90116338      3.0930502099999999
   286   1      22.325531120000001             12.74790432              3.28448238
   287   1             26.34752649      12.846235780000001      3.4615111999999999
   288   1      30.365603839999999             12.89804683      3.0915917400000001
   289   1   -0.025614749999999999      16.298240979999999              3.37804408
   290   1      4.0756839400000002      16.363676040000001      3.2627485900000002
   291   1      8.0664510200000006             16.40341579      3.2744378699999999
   292   1             12.18189701             16.47410803      3.4176475499999999
   293   1             16.23282721      16.328497649999999      3.3419446499999999
   294   1      20.227381149999999      16.344580329999999      3.1391518700000001
   295   1      24.253396330000001      16.261328219999999              3.23029513
   296   1      28.288079020000001      16.566083559999999      3.4541235100000001
   297   1      1.9378027099999999      19.971916400000001      3.3426849600000001
   298   1      6.1152711999999996             19.93084438      3.3316375699999998
   299   1      10.134924570000001      19.935788689999999      3.1699309900000001
   300   1             14.32990627      19.874744140000001      3.3031334000000001
   301   1      18.394533160000002      19.865097129999999      3.2020704200000001
   302   1      22.275434789999998      19.894546999999999      3.3879156300000002
   303   1      26.396394610000002      19.835739629999999      3.2726312000000002
   304   1      30.464651870000001             19.98025556      3.2250883199999998
   305   1   -0.091556200000000004      23.486570780000001      3.3620133499999998
   306   1      4.1497055200000004      23.250560660000001      3.4751375800000002
   307   1      8.0681198399999996             23.55384493      3.2481038899999999
   308   1             12.37211585      23.592718269999999      3.1220196599999999
   309   1             16.29271413      23.377754629999998      3.3691153100000002
   310   1      20.176634709999998      23.347552610000001              3.30705771
   311   1      24.146256109999999      23.301544450000002      3.2867114900000001
   312   1             28.25486145             23.30751923      3.4246047800000001
   313   1              1.98306224      26.924002120000001      3.1744398700000001
   314   1      6.0334277900000002             26.92560945      3.2684857599999999
   315   1      10.286067729999999              26.9276491              3.35830421
   316   1      14.215895039999999             26.86000452      3.2488309700000002
   317   1      18.154612199999999      26.996605670000001      3.3066707100000001
   318   1      22.145774070000002      27.071433410000001      3.2198838799999998
   319   1             26.30155499      26.775803679999999      3.3786222600000002
   320   1      30.642811859999998      26.766162770000001      3.3749895099999998
   321   1    0.064092389999999999      28.176416499999998      4.2121362500000004
   322   1      4.0074306699999998      28.228843820000002      3.9303805600000001
   323   1      8.1411991799999992    -0.17129941000000001      4.1913333399999999
   324   1      12.282073069999999   -0.063769859999999998      4.2436342600000003
   325   1             16.10453472             28.12228683      4.2820052100000003
   326   1             20.18154796      28.145415939999999              4.40377566
   327   1      24.112714629999999    0.045932279999999999              4.05917993
   328   1      28.416255970000002             -0.13912527      4.0835081500000001
   329   1      2.1270403899999999      3.4026009500000001      4.0992615700000004
   330   1      5.9890471300000003      3.3969056200000001      4.0695006500000002
   331   1      10.237515780000001              3.49543369      4.0493559599999998
   332   1      14.057276910000001      3.5088354900000001      4.0382562100000001
   333   1             18.28368695      3.5154225600000002      3.9607143800000002
   334   1      22.232871079999999      3.5628698399999998      3.8771231899999998
   335   1      26.224812020000002      3.2969644599999999      4.0394065499999998
   336   1      30.466863149999998      3.4463574800000001      4.1574172000000003
   337   1      32.425050079999998      6.8342413899999999              3.92128276
   338   1      3.9970297600000002      6.9077458900000002      3.9789007299999999
   339   1              7.95872943      7.0567747000000001      4.0306067199999998
   340   1      12.016823430000001              6.78724536              4.01902297
   341   1      16.123797589999999      6.9133084399999998      4.1084843400000004
   342   1             20.23672449               7.2068946      4.1082074300000002
   343   1             24.36395448      7.0227134099999997      4.0805070099999998
   344   1      28.261292910000002      6.8536453699999997      3.8741566399999998
   345   1              1.95477068      10.457846030000001      4.0429807799999997
   346   1      6.0323400700000001             10.69106878      4.2448834099999999
   347   1      9.9902862999999993      10.533542580000001      4.0536864499999998
   348   1      14.222712530000001             10.37763279              4.20920775
   349   1      18.274756709999998      10.709736230000001      4.0634902999999998
   350   1             22.15767993             10.52470683      4.0714275200000003
   351   1      26.294587880000002      10.478462309999999      4.0962627100000004
   352   1             30.34468884             10.59324782      4.2249911400000002
   353   1    0.010507890000000001      13.944108610000001      3.9231101599999998
   354   1      4.0624943699999996      14.079844039999999      4.0842564399999999
   355   1      8.1079995500000006      13.823458479999999      4.1280655900000003
   356   1             12.22145742             14.10871609      4.0889584699999997
   357   1      16.035275779999999             14.04211935              4.13992278
   358   1             20.34995065      13.915297669999999      4.2112649400000004
   359   1      24.148590460000001             14.05587349      4.0150087499999998
   360   1      28.206385149999999             14.16052736      4.1551789399999999
   361   1      2.0334588899999999      17.550099660000001      4.0194624399999999
   362   1      6.1270361199999996      17.698117589999999      4.0985188600000004
   363   1             10.10186139      17.694823769999999      4.1783722299999999
   364   1      14.260941389999999      17.623897880000001      4.1382182500000004
   365   1      18.277141520000001      17.566809070000001      4.0877365799999996
   366   1      22.410659020000001      17.564566710000001      4.0851902600000001
   367   1      26.244941019999999             17.56911509      4.1098536899999996
   368   1      30.386265420000001      17.671755340000001      4.3267853799999996
   369   1   -0.026706779999999999      21.153889809999999      4.4466867900000002
   370   1      4.0139556199999999      21.051033799999999      4.3167138200000004
   371   1      8.1086654300000003             21.07019923      4.0410128600000004
   372   1              12.2367729      21.036554049999999      3.9507091299999999
   373   1      16.383347690000001      20.960552570000001      4.2491815500000003
   374   1             20.32282287      21.206382640000001      4.2059882200000001
   375   1      24.410476039999999      21.006774109999999              4.12567956
   376   1              28.3700902      20.924028249999999      4.3092790799999996
   377   1      2.1157359499999999      24.498099450000002      3.9835809599999998
   378   1      6.1599479400000003      24.501648620000001              3.99128047
   379   1      10.179042040000001      24.542084719999998      4.0840074399999997
   380   1             14.17967531      24.543071699999999      4.1386179800000003
   381   1             18.12324796      24.506713510000001      4.0965499200000002
   382   1      22.302994689999998             24.41778841      4.1833592099999999
   383   1      26.259822159999999      24.467777349999999      4.0477870200000003
   384   1      30.297715360000002      24.607196210000001              4.03850117
   385   1      1.9666036099999999              1.14527439      5.0718469199999996
   386   1      6.0929863500000003     0.98774914999999996      4.9836079900000003
   387   1      9.9394532499999997              1.21336848      5.0875508900000002
   388   1             14.01845097      1.2677681300000001      4.9502897800000003
   389   1      18.152494480000001      1.3064768600000001      5.1396270900000003
   390   1      22.275746789999999      1.2488975200000001      4.8876702300000003
   391   1             26.41672397      1.0689908299999999      4.9576682099999996
   392   1      30.193305290000001              1.01602415      5.0838943299999997
   393   1   -0.025031640000000001      4.7480257899999998      4.9813485399999999
   394   1      4.2130479799999998      4.7715868199999996              4.99995864
   395   1      8.3358869700000007      4.6804220799999996      4.7908497700000003
   396   1             12.14557198      4.6687430900000004      4.8262382099999996
   397   1      16.206995079999999      4.5863268100000001      5.0727949800000003
   398   1             20.23168123      4.6777621199999997      4.9427310100000001
   399   1             24.16931362      4.6376837699999998      4.9308716300000004
   400   1      28.275743739999999      4.5172187700000004      4.8759653500000004
   401   1              2.08047972      8.1533107400000002      5.0026406799999998
   402   1      6.0610067900000004      8.1701414700000008      4.9723943799999999
   403   1      10.083719200000001      8.3572182500000007      4.9714822300000003
   404   1             14.13693748      7.9999271199999997              4.91826528
   405   1             18.15997909      8.1391830600000006      5.0076995000000002
   406   1      22.207103239999999              8.38854319      4.9913840299999999
   407   1      26.281773269999999      7.9937575699999996      4.9634486799999999
   408   1              30.5181255      8.2104633099999997      4.9855688200000001
   409   1      32.494359119999999      11.608877639999999      5.0337935500000004
   410   1      3.8707011200000001             11.70420814      4.9968866500000004
   411   1      7.9956395999999996      11.606276169999999      4.9504142900000003
   412   1      12.274168059999999             11.56760212      4.7236513999999996
   413   1      16.116068080000002      11.797284769999999      4.9497872699999999
   414   1      20.240256160000001              11.6875514      5.0681423700000003
   415   1      24.373941739999999             11.62153481      4.7553484199999998
   416   1      28.298469149999999      11.523275310000001      4.8676514800000001
   417   1      1.8402609599999999      15.317409550000001      4.8212672799999998
   418   1      6.0223350099999999             15.15085994              4.79190337
   419   1      10.122216939999999      15.260281839999999      4.9614793500000003
   420   1             14.16853147             15.40791643      5.1219216400000001
   421   1      18.356800499999999              15.1579154      4.9489917700000001
   422   1      22.413350130000001             15.21213764      5.1908752399999996
   423   1             26.18980938             15.13895391      4.8742327599999999
   424   1             30.34019155      15.157835439999999              4.93430502
   425   1      32.522770319999999      18.863889660000002      5.0808277100000003
   426   1      3.8659337200000001      18.669815790000001              5.00602196
   427   1      8.1554411099999999      18.816757549999998      4.8957282700000002
   428   1      12.056206449999999             18.81320405      4.9255148999999996
   429   1      16.283000390000002      18.775765069999999      4.9504021900000001
   430   1      20.347948089999999      18.854457740000001      5.0627189799999996
   431   1             24.25882871      18.642050380000001      4.7757769799999998
   432   1      28.335957870000001      18.630338519999999      5.2729601500000003
   433   1      2.0144269000000001      22.242550739999999      5.2270335599999997
   434   1      6.1280029499999999      22.186169369999998      5.0883703499999999
   435   1              10.3364669             22.33682949      4.9350294799999999
   436   1      14.202602110000001             22.25512518              4.98327879
   437   1      18.287750119999998      22.393981839999999               4.9646659
   438   1      22.439731599999998             22.16338837               4.9941122
   439   1      26.222001649999999             22.26733759      5.0630383099999996
   440   1      30.169415730000001      22.236815270000001      5.0620205800000004
   441   1      32.394986539999998      25.599008770000001      5.1235616500000001
   442   1      4.1166862899999996             25.73906217      4.8528683299999997
   443   1      8.1466652100000001      25.672530139999999      4.9258044500000002
   444   1             12.20718078      25.772647070000001      5.1207121000000004
   445   1      16.104351080000001      25.742687180000001      4.9921354100000004
   446   1      20.337246159999999             25.79680982      5.2725857899999999
   447   1      24.250867370000002             25.84412601      4.9855241699999997
   448   1      28.413735460000002      25.621053239999998      4.9615935000000002
   449   1             -0.11910095      2.2544174699999999      5.7570586500000003
   450   1      4.0492446199999996      2.5722876000000001      5.9300823300000003
   451   1      7.9905567199999998      2.4335405400000001      5.8303618200000003
   452   1      12.089308490000001              2.23641114      5.8640858800000002
   453   1             16.30292489      2.3202553400000001      6.0810029099999996
   454   1      20.039353739999999              2.39690162      5.8107569899999998
   455   1      24.146340720000001      2.2432524900000002              5.82166023
   456   1             28.33572672      2.3374746399999999      6.2556776300000001
   457   1      2.0968649699999999      5.8343943500000002      5.7164528800000003
   458   1      6.3079764699999998      5.8465078200000002      5.9067514399999999
   459   1      10.016930139999999      5.9026831800000004              5.73747819
   460   1      14.215826610000001              5.76608549      5.6822716599999996
   461   1      18.137247030000001      5.8207405999999997      5.7955031999999997
   462   1      22.169952800000001      5.9717068600000003              5.58700638
   463   1      26.439795140000001              5.68704535                6.030907
   464   1      30.471751950000002      5.7763209399999997      5.8116363199999999
   465   1             -0.10330926      9.3590175299999991      5.7042976899999998
   466   1      4.0016225700000003      9.5816416800000006      5.8633454199999999
   467   1      8.0392382199999997      9.4830513700000001      5.8052428599999999
   468   1             12.26361007      9.3254882800000001      5.7516122799999998
   469   1      16.184414990000001      9.4215393299999999      5.7945995000000003
   470   1             20.06635867      9.4445210799999995      5.8126507199999997
   471   1             24.44585717      9.3627779100000001              5.68604457
   472   1             28.43255091      9.1365957800000004      5.5200790499999997
   473   1              1.88567726      13.016454700000001      5.7616442399999999
   474   1              5.95619443             12.77087873      5.7955900800000002
   475   1             10.06205488             12.84226089      5.7853765399999997
   476   1             14.09703498      12.923912290000001      5.8328179100000002
   477   1      18.117897410000001      12.808965819999999      5.6787821599999999
   478   1              22.4238933      12.818316060000001      6.2879310799999999
   479   1      26.503552020000001             12.78860175      5.8526612800000004
   480   1      30.483236959999999      12.869775069999999      5.6629312000000001
   481   1   0.0020323099999999998      16.628245010000001      5.7055763800000001
   482   1      4.0890127200000004             16.49501326      5.6655421300000004
   483   1      7.9892883399999999      16.326780960000001      5.6899619499999998
   484   1             12.10404087              16.4651912      5.8539647700000002
   485   1              16.2353463             16.47880387      5.9309436299999998
   486   1      20.263632789999999      16.576071070000001      5.8696955600000003
   487   1      24.361300889999999      16.544569419999998      5.6779035899999997
   488   1      28.524886680000002      16.399615529999998      5.9450976400000002
   489   1      2.0194238900000001      20.096234729999999      5.9570555699999996
   490   1      6.1119225699999999      20.053952349999999      5.9079995800000003
   491   1             10.19283416      19.923329039999999      5.7327744300000001
   492   1      14.143135770000001      19.941051819999998      5.9223321799999997
   493   1             18.28128177      19.986149260000001      5.7487046599999996
   494   1      22.412727889999999      19.863091579999999              5.84742096
   495   1      26.374082940000001      20.068861389999999      5.7798644299999999
   496   1      30.470318630000001      20.023618890000002      5.7240742100000004
   497   1      32.387230549999998             23.36288532      5.9116510099999999
   498   1      3.9451968499999999             23.34599618      5.8899858299999996
   499   1      8.1666606000000002      23.484394349999999      5.6758586099999997
   500   1      12.092486620000001             23.47382301      5.8662546100000004
   501   1      16.078321290000002      23.463798860000001              5.66506285
   502   1             20.41047923             23.34163229      5.9365774699999996
   503   1             24.37711711      23.568048520000001      5.9955627199999997
   504   1             28.25174732      23.591856880000002              5.98723633
   505   1      1.9759759100000001      26.897163490000001      5.9654496300000002
   506   1      5.8840121700000001      26.857989109999998      5.8953401300000001
   507   1      9.9432411300000005             27.09899235      5.9449903600000003
   508   1      14.126667749999999             26.98938046      5.8298078200000001
   509   1              18.1958476      26.974839240000001      5.7921655200000002
   510   1      22.248484179999998      26.801725900000001      5.7524361900000001
   511   1      26.359302490000001             26.95901306      5.7947847399999999
   512   1      30.386130519999998      26.825521389999999      5.9096394600000002
   513   1    -0.16092417000000001             -0.11214622      6.5879023400000003
   514   1               4.0487392      28.171005610000002      6.5974288999999997
   515   1      7.9465397800000002   -0.052997469999999998      6.7510576899999997
   516   1             11.98534248    0.082830550000000003      6.8109031199999999
   517   1      16.142275890000001   -0.031271710000000001      6.8525628000000003
   518   1      20.306661439999999      28.183056359999998              6.85692447
   519   1             24.33870413    -0.20651322999999999      6.6274993100000001
   520   1      28.336765629999999      27.945846329999998      6.6071654999999998
   521   1      2.0079543700000002      3.5265291300000001      6.3811035399999998
   522   1      6.0823420800000001      3.6690293299999999      6.6307150200000002
   523   1      9.9988341999999992      3.5865505600000001      6.5462032399999996
   524   1      14.112538669999999      3.5523062099999998      6.4683787400000003
   525   1             18.32098233      3.5757828300000001      6.8432963200000003
   526   1             22.10585219      3.4663113000000001              6.45473374
   527   1      26.173645010000001      3.5077232999999999              6.52643927
   528   1             30.36023307      3.6040643999999999      6.6033808399999998
   529   1      32.700391340000003              6.83095301      6.5960079900000004
   530   1              4.10864297      7.1875543200000003      6.5179783100000002
   531   1      8.2274478500000008      7.1413796100000004      6.6470302400000003
   532   1             11.93452576      6.9259371200000004      6.5322685900000002
   533   1      16.239026670000001      6.9173517799999997      6.7793986400000001
   534   1      20.178885279999999      6.9877404399999996      6.5368148699999997
   535   1      24.385693329999999      7.1854441500000004      6.6429945500000001
   536   1      28.376223960000001      7.0649608199999996      6.7131125100000002
   537   1              1.85701826      10.720565150000001      6.5546553599999999
   538   1      6.0501465300000001             10.49857091              6.56615298
   539   1             10.18269198      10.581144289999999      6.6375265900000002
   540   1             14.09461376      10.590405430000001      6.7467850900000004
   541   1      18.182480949999999      10.751814980000001      6.5815807700000004
   542   1             22.33595382             10.56943742      6.4892502399999996
   543   1      26.306199540000001      10.491143040000001      6.6910239899999997
   544   1      30.467758140000001             10.52377244      6.8184253300000002
   545   1             -0.12251602      14.155740720000001      6.5863783400000004
   546   1      3.9383169800000002             14.02839698      6.4772017599999998
   547   1              7.91994738      14.082123360000001      6.6243829700000001
   548   1      11.956998349999999             14.01334978      6.7343938699999999
   549   1      16.115832409999999             14.05336142      6.6595143400000003
   550   1      20.207801759999999      14.206009809999999      6.5983772500000004
   551   1      24.379927559999999      14.092188220000001      6.4631627099999998
   552   1      28.433938269999999             13.90747253      6.6300562200000002
   553   1              1.96951912      17.681836489999998      6.6307029499999999
   554   1      6.2602700799999997      17.607776080000001      6.6954914700000003
   555   1      9.9665761100000001      17.640110549999999      6.6473983700000003
   556   1      14.116074660000001             17.55162769      6.6950505500000004
   557   1      18.260167500000001      17.539877220000001      6.6536332900000001
   558   1      22.248163609999999      17.718424850000002              6.70470042
   559   1      26.395452509999998              17.8159852              6.44227799
   560   1      30.568796129999999      17.520600340000001      6.6768664099999997
   561   1      32.530802950000002      21.019522729999998      6.9909021100000004
   562   1      4.0281416800000001      21.141998520000001      6.8960008300000002
   563   1      8.1154971000000007             21.08156576      6.6066933399999996
   564   1             12.22418601             21.14958554      6.6438384499999996
   565   1      16.138568589999998             21.02574388      6.7630452999999999
   566   1             20.20754337      20.991244900000002      6.6950158899999996
   567   1      24.348392310000001      21.020561709999999      6.6090116099999996
   568   1      28.361509860000002             21.02969882      6.8924418300000001
   569   1      2.0414644000000002             24.60847704      6.7482998399999996
   570   1      5.9384918100000004             24.55980697      6.5012380800000003
   571   1      10.104252649999999      24.704798180000001      6.9109402700000002
   572   1      14.055318189999999      24.510041529999999      6.9205574600000004
   573   1      18.099454900000001             24.50704691      6.7712121300000003
   574   1             22.09207091      24.616355009999999      6.7053342599999999
   575   1      26.234567009999999      24.549556389999999      6.8100525300000001
   576   1             30.49548966      24.517004759999999      6.6370609700000003
   577   1      1.7548064999999999               1.2444861      7.4576577100000003
   578   1      6.0314375900000003      1.2176859099999999      7.6677341200000004
   579   1      9.8501014999999992              1.25755306      7.4506578499999998
   580   1      14.014524160000001              1.28762226      7.6616854300000004
   581   1             18.14696593      1.2584410100000001      7.4128207799999997
   582   1             22.41243785              1.01094602      7.4327032700000002
   583   1      26.317409699999999     0.77400002999999995      7.5451164300000002
   584   1      30.304116709999999              1.15846297      7.5099437699999996
   585   1      32.502578479999997      4.6377502899999996      7.6324989199999997
   586   1      4.1615649899999996      4.6885627000000003      7.3980210199999998
   587   1      8.2066514799999997      4.8749779699999998      7.4980245600000002
   588   1      12.131924980000001      4.5246379599999997      7.2962209600000003
   589   1             16.21524419      4.4604627900000002      7.8662455299999996
   590   1      20.171619490000001      4.6147026999999996              7.82207309
   591   1      24.231708269999999      4.7330664599999999      7.3116376299999999
   592   1      28.128479970000001      4.5677201299999997      7.5225504499999998
   593   1      2.0585010100000001      8.2919674000000008              7.46591497
   594   1      6.2852755699999996      8.2503169500000002      7.5035498900000004
   595   1      10.134860939999999      8.1107466299999995      7.6762268499999999
   596   1             14.05959494      8.1508801999999996      7.4347744100000002
   597   1      18.243604980000001      8.1810953899999994      7.2470202300000004
   598   1      22.146710410000001      8.2209219099999995      7.6075692100000003
   599   1      26.410368349999999      8.1904087000000008      7.4682620399999999
   600   1      30.274770199999999      8.1298072900000005      7.2765129200000001
   601   1      32.469324729999997             11.93272275      7.7217004999999999
   602   1      3.9548472600000002             11.79464623      7.5811371100000002
   603   1      8.2401709000000007             11.61883005      7.2255749199999997
   604   1             12.05716906      11.786014010000001      7.5193869400000004
   605   1             18.16222325             10.74362092      9.2690753299999997
   606   1      20.355146980000001             11.68946002      7.5202508300000002
   607   1      24.414646430000001      11.648351890000001              7.11846025
   608   1      26.118400210000001              5.44137877      8.4609007599999995
   609   1      2.1670610699999999              15.3309765      7.4110531499999999
   610   1               6.0412222             15.07156342      7.4784436100000002
   611   1      9.9414484699999992             15.25768484      7.4525796900000003
   612   1      14.000380610000001      15.380321909999999      7.8489521800000004
   613   1             18.28408121             15.32535725      7.5888688699999998
   614   1      22.535682909999998      15.255479319999999              7.56769464
   615   1      26.446500449999998      15.260381990000001      7.4854683900000003
   616   1      30.337452249999998             15.16255784      7.4880487699999998
   617   1               0.0524349      18.662266979999998      7.6228539900000003
   618   1              4.04789887      18.839517740000002      7.4435395700000004
   619   1      8.0523514600000006      18.752539030000001      7.5715703300000001
   620   1      12.392067409999999      18.781327610000002      7.7234894000000001
   621   1      16.120094900000002             18.55142592      7.3406830999999997
   622   1      20.264513449999999             18.66087718      7.6566596899999997
   623   1      24.373665580000001             18.78659042      7.4280031700000002
   624   1      28.429573309999999      18.598225759999998      7.6149358999999999
   625   1      2.0291371100000002      22.402793549999998      8.0253963499999994
   626   1      6.2487744300000001      22.171386160000001      7.4680017300000001
   627   1             10.26309732      22.293412579999998      7.7749295099999998
   628   1             14.20141971      22.318059349999999      7.4434707800000002
   629   1             18.35411122      22.223473089999999      7.4652080999999999
   630   1      22.241288579999999             22.13211493      7.3108586799999999
   631   1      26.279606319999999             22.23901184      7.6389196200000002
   632   1             30.21414807      22.277989309999999      7.3871882900000001
   633   1              0.14068342      25.593813069999999      7.6305408999999997
   634   1              3.87497077             25.81053172      7.6361210899999996
   635   1      8.0737127300000004             25.75444362      7.5651307399999999
   636   1              12.2294328      25.831160130000001      7.6231909800000004
   637   1      16.072075819999998      25.791896000000001      7.5285141800000002
   638   1      20.184219779999999      25.750703359999999      7.6559819100000004
   639   1             24.18912152             25.57395262      7.8382630400000002
   640   1      28.360376909999999      25.703557050000001      7.5560454500000001
   641   1      4.0344781100000002      7.0079624999999997      9.0244664700000001
   642   1      1.8382570499999999      3.2686220100000001      9.1103497999999998
   643   1      9.9407071899999995              3.59290786      9.0633065100000003
   644   1             11.94700177              2.44427686      8.3230284900000004
   645   1             12.10552755      20.646631760000002      9.1811392299999994
   646   1      18.107550310000001      3.8408632800000002      9.0864397599999993
   647   1      22.261539450000001      5.7294979599999998      8.1476158200000004
   648   1      32.180651009999998      2.1987294799999999      8.3704484699999995
   649   1      32.304493569999998      7.0426451300000004      9.0517999200000006
   650   1      1.7970130499999999      27.013116069999999      8.3701182799999998
   651   1      11.817754969999999      28.261419140000001      9.1912778300000006
   652   1             12.14781831      9.4475872499999998      8.2194976200000003
   653   1             22.48961164      11.365638089999999      8.9309808700000008
   654   1      3.7566260699999998      26.072035020000001             10.04024603
   655   1      18.260236729999999      6.0642012200000002      8.3885519399999993
   656   1      6.2810801600000001      8.2758615899999999      9.7560235199999994
   657   1      8.3680383999999997      9.6379057100000001      8.3875063300000008
   658   1             16.35637148             13.78772081      9.3146317500000002
   659   1              6.10029003      10.493628749999999      8.9050535800000006
   660   1             10.35218265      5.8276545300000002      8.2373520100000004
   661   1             18.20763595      27.142104140000001      8.1399500400000004
   662   1      24.102077449999999      9.3472408700000003      8.3600502900000002
   663   1      20.244473249999999      6.9415822900000004      9.0834795800000006
   664   1              1.97760764             10.73714848      9.2095223900000001
   665   1             10.48562051      10.505934330000001      9.2283593499999998
   666   1      9.8608907899999991      17.372497209999999      9.0600783699999994
   667   1      13.788707990000001      17.694444359999999      9.4139891999999996
   668   1      16.142388220000001             11.95927348      7.7549922599999999
   669   1      23.840730879999999             13.61932217      8.7930612799999999
   670   1      24.182074069999999      6.9310522700000003      8.9180262900000002
   671   1      1.9614855899999999      17.691195929999999      8.9868996699999997
   672   1      1.9681866800000001             13.06484285      8.3516668900000006
   673   1      7.9298573899999996             13.80468136      9.0652714400000001
   674   1      1.9152346600000001      14.978508229999999      9.7667353699999993
   675   1      16.029031669999998      16.529966399999999      8.5233858500000004
   676   1      10.095238609999999      19.908654769999998      8.1355188999999992
   677   1      14.114717560000001      12.949424240000001      8.3206438400000007
   678   1      22.370901880000002      17.645953729999999      9.2582529299999994
   679   1      26.496788200000001             12.90341795              8.19315572
   680   1      28.300662920000001              11.5632228      7.1693219199999998
   681   1      1.6375948199999999      1.1760792099999999      9.8315117599999997
   682   1      7.8883520599999999      16.233781879999999      8.0677255999999993
   683   1      6.0131346600000004      26.840623430000001      8.6457558799999994
   684   1              10.0937936             12.80237011      8.2236383199999992
   685   1      22.288462330000002      19.970449380000002      8.6130043300000008
   686   1      22.256946169999999      22.039369189999999      9.9279265300000006
   687   1      28.376558849999999      15.793651150000001      8.7789210099999995
   688   1      30.331860760000001      12.756256309999999               8.1045824
   689   1      24.550039770000001      21.046821609999999      9.1308965000000004
   690   1      4.3003581300000002      23.497002909999999      8.5289314800000007
   691   1              3.95889772      4.5021729099999996      9.9721035800000006
   692   1      14.164446890000001      27.004388179999999      8.5021431399999994
   693   1             17.86669131             19.77274852      8.1153023700000002
   694   1             20.56904879      16.180269370000001              8.41239311
   695   1      24.012493849999998      23.425035489999999      8.4334724600000008
   696   1      28.247560119999999      23.351522889999998      8.4225752899999993
   697   1              3.97394436      2.3136686200000001      8.6373274200000001
   698   1      9.8185455200000007      24.726689310000001      9.1768394799999999
   699   1             20.41148214             23.28171682      8.4092163600000003
   700   1      18.288971350000001      24.735683269999999      9.1628291100000006
   701   1             16.22350917      1.9266365700000001      8.5196230800000006
   702   1             26.02864697             24.64794784      9.3838269699999994
   703   1             20.19040777      2.0870977900000001      8.3503534599999991
   704   1             -0.11507728      25.772049490000001      10.074512970000001
   705   1              2.10087183      5.9857825199999999      8.3255526100000008
   706   1      5.9668299200000003               1.5329777      9.9961138999999992
   707   1             13.95465418      5.7506470099999998      8.1677847299999993
   708   1             14.64274595             20.17267674      8.4220368200000006
   709   1             22.14914285      26.954451129999999      8.2204938900000002
   710   1      20.182236840000002      20.913478810000001              9.07226496
   711   1      29.662604930000001      2.9953675299999998      8.9142818899999998
   712   1              1.98565031             24.82035364      9.3492198299999991
   713   1             31.95521038             28.10455361      9.2922871100000002
   714   1             30.22267158             24.61861991      8.9441194799999995
   715   1             30.32765595      26.804806370000001      8.3446892600000009
   716   1             14.19599045      3.4651087600000001      8.9760746699999991
   717   1             24.25815953   -0.082869650000000003      8.9352900599999998
   718   1      24.600218909999999              2.36427034      8.2205659799999999
   719   1      1.7501584699999999      8.3236673799999998      9.6426082599999994
   720   1      30.135845790000001      5.6377216900000002      8.2235536800000002
   721   1      3.9407958500000002      9.2697844800000002      8.5384491699999998
   722   1      12.005816830000001      16.498824450000001      8.4487653900000002
   723   1      6.2105839400000002      5.8440812800000002              8.24819265
   724   1      8.4326647700000006      7.2042660400000003      9.1760585900000002
   725   1      12.269771130000001      7.0872043600000003      9.0014510300000001
   726   1      15.881456780000001      7.0817415700000002      9.2407214399999997
   727   1      16.214683579999999      23.422157339999998      8.2931340599999999
   728   1      28.518215000000001      9.5261121200000005      8.2868575300000007
   729   1      6.1677203699999996      17.391829300000001      9.0495798399999998
   730   1      7.8609200499999998      2.4482305599999998      8.4384724000000002
   731   1      16.336889830000001      9.3521592200000008      8.2276343399999998
   732   1      18.171408379999999      8.0997406999999999      9.6710393999999997
   733   1             18.35111891      12.851961810000001      8.0242877900000007
   734   1      3.9665707000000001  0.00062825000000000001      9.1357348199999997
   735   1      22.429182059999999      3.2877175599999999      8.8599408400000002
   736   1      4.2341915300000004             14.09972582      9.0854439399999993
   737   1             30.56934261      19.922176050000001      8.2074398199999994
   738   1   -0.072449760000000002      9.4180429399999994      8.2987787100000006
   739   1             12.07062659              14.1199622      9.0807904199999996
   740   1             14.55558675             10.75937416      9.1833023100000002
   741   1              21.1864931             13.49975221      8.7821950300000005
   742   1      27.239074540000001               2.6798658              8.57817498
   743   1      20.359786769999999              9.52322852      8.4208335499999993
   744   1    -0.27116760000000001      14.091243349999999      9.1987400400000006
   745   1      1.9809405099999999             19.98184238      8.3358692899999998
   746   1              5.96901554             12.92527591      8.1242920900000009
   747   1      9.9178830900000001      15.101480309999999      9.8136013200000001
   748   1      4.2451119799999999      21.140189580000001      9.2328300199999997
   749   1              24.4627771      16.680314159999998      8.2690827299999992
   750   1             26.47451482      17.346488529999998      8.9808903099999995
   751   1             24.38651316             18.80708344      9.7541123299999999
   752   1      4.0872020899999999              16.4518944      8.2579611600000007
   753   1      4.2213049299999996      18.464381280000001      9.9474692600000001
   754   1      8.2154974599999999             23.24871405      8.2216330200000005
   755   1      6.3448440699999997      24.557232129999999              8.96217927
   756   1             10.03490899      26.863512409999998      8.2393493099999997
   757   1      8.0368068400000006             21.07315401      8.8754672600000006
   758   1      26.483270359999999      26.641269779999998      8.4355714600000002
   759   1      26.525812720000001             19.87640953              8.07315161
   760   1             28.46755838             26.11697182      9.7936576100000003
   761   1      6.0526099599999998      19.689041670000002      8.4514889899999996
   762   1      32.487633879999997      16.383151000000002      8.2780832499999999
   763   1      5.8358247600000004      3.6002374399999999      9.0602113800000001
   764   1      8.2437817300000003      28.275394030000001      9.3216616000000005
   765   1             12.10670453      23.503323340000001      8.2518171299999992
   766   1             22.46097984      25.065778460000001      9.4265337500000008
   767   1             28.58153033     0.28919565000000003      9.0003972099999991
   768   1    -0.10377699999999999      23.405459560000001      8.6199362700000002
   769   2      8.9261177400000005      11.492887359999999      8.8675789799999993
   770   2      7.2354956699999997             12.05632479      9.0785650199999992
