N2-dn2-coord-10bar/700K/snapshots/frame-151159/run-000/../data.lammps (written by ASE) 

770 	 atoms 
2  atom types
0.0      32.470343392086264  xlo xhi
0.0      28.120142247150884  ylo yhi
0.0      31.213473999158239  zlo zhi


Atoms 

     1   1      2.0293964600000001      1.1716090800000001    0.023552650000000001
     2   1      6.0880008999999999              1.17168918              0.02556874
     3   1      10.146952280000001              1.17170328    0.025416459999999998
     4   1      14.205754900000001      1.1716496700000001              0.02501565
     5   1             18.26456816              1.17166478              0.02504435
     6   1             22.32338141      1.1716496700000001              0.02501565
     7   1      26.382184030000001              1.17170328    0.025416459999999998
     8   1      30.441135410000001              1.17168918              0.02556874
     9   1  9.1780000000000006e-05      4.6866847900000002    0.025581599999999999
    10   1      4.0587011400000002      4.6866847900000002    0.025581599999999999
    11   1      8.1174961000000003      4.6866290399999997    0.025584639999999999
    12   1             12.17638011      4.6866852999999997              0.02491202
    13   1             16.23517979      4.6866942700000003    0.025006210000000001
    14   1      20.293956519999998      4.6866942700000003    0.025006210000000001
    15   1      24.352756209999999      4.6866852999999997              0.02491202
    16   1      28.411640219999999      4.6866290399999997    0.025584639999999999
    17   1      2.0293964600000001      8.2016395800000002    0.026613040000000001
    18   1      6.0881071599999999      8.2016314300000008              0.02543782
    19   1             10.14701835               8.2017045    0.025156850000000001
    20   1      14.205766049999999      8.2017080900000003    0.024990459999999999
    21   1             18.26456816      8.2017077599999997    0.025091249999999999
    22   1      22.323370260000001      8.2017080900000003    0.024990459999999999
    23   1      26.382117969999999               8.2017045    0.025156850000000001
    24   1      30.441029149999999      8.2016314300000008              0.02543782
    25   1  9.2789999999999998e-05             11.71671873    0.025573410000000001
    26   1              4.05870014             11.71671873    0.025573410000000001
    27   1      8.1176017700000003             11.71668698              0.02497914
    28   1             12.17637068             11.71673069    0.025001590000000001
    29   1      16.235177310000001      11.716730249999999    0.025074039999999999
    30   1      20.293959009999998      11.716730249999999    0.025074039999999999
    31   1      24.352765640000001             11.71673069    0.025001590000000001
    32   1      28.411534549999999             11.71668698              0.02497914
    33   1      2.0293964600000001             15.23167155              0.02525285
    34   1      6.0881728300000004      15.231678799999999    0.025062859999999999
    35   1             10.14698486      15.231762639999999               0.0250786
    36   1             14.20578841             15.23176782    0.025201990000000001
    37   1             18.26456816              15.2317707    0.025149979999999999
    38   1      22.323347900000002             15.23176782    0.025201990000000001
    39   1      26.382151459999999      15.231762639999999               0.0250786
    40   1      30.440963480000001      15.231678799999999    0.025062859999999999
    41   1      32.470327990000001      18.746748629999999    0.024951939999999999
    42   1      4.0588083299999997      18.746748629999999    0.024951939999999999
    43   1      8.1175770200000006      18.746803499999999    0.025222040000000001
    44   1             12.17637459      18.746799750000001    0.025428470000000002
    45   1      16.235159400000001      18.746805200000001    0.025487360000000001
    46   1      20.293976919999999      18.746805200000001    0.025487360000000001
    47   1      24.352761730000001      18.746799750000001    0.025428470000000002
    48   1             28.41155929      18.746803499999999    0.025222040000000001
    49   1      2.0293964600000001      22.261939099999999    0.025844880000000001
    50   1      6.0881419299999999      22.261841799999999    0.025489439999999999
    51   1             10.14692954             22.26176895              0.02551757
    52   1             14.20573559      22.261804690000002    0.025639160000000001
    53   1             18.26456816             22.26178625    0.025640119999999999
    54   1      22.323400729999999      22.261804690000002    0.025639160000000001
    55   1      26.382206780000001             22.26176895              0.02551757
    56   1             30.44099439      22.261841799999999    0.025489439999999999
    57   1  5.6450000000000003e-05      25.776936450000001              0.02613327
    58   1      4.0587364700000004      25.776936450000001              0.02613327
    59   1      8.1175325399999991              25.7767713    0.024734180000000001
    60   1      12.176376469999999      25.776831090000002              0.02545323
    61   1      16.235145939999999      25.776775220000001    0.025273360000000002
    62   1             20.29399038      25.776775220000001    0.025273360000000002
    63   1      24.352759840000001      25.776831090000002              0.02545323
    64   1      28.411603769999999              25.7767713    0.024734180000000001
    65   1  0.00024266000000000001              2.34304215     0.80166565000000001
    66   1      4.0585502699999996              2.34304215     0.80166565000000001
    67   1      8.1157394600000003              2.34454954     0.80169402000000001
    68   1             12.17601256      2.3433829099999999     0.80116898000000003
    69   1      16.235258170000002      2.3433209100000001     0.80090046999999998
    70   1      20.293878150000001      2.3433209100000001     0.80090046999999998
    71   1      24.353123750000002      2.3433829099999999     0.80116898000000003
    72   1      28.413396859999999              2.34454954     0.80169402000000001
    73   1      2.0293964600000001      5.8582218700000004     0.80119762000000005
    74   1      6.0870566899999998      5.8583336700000004              0.80194851
    75   1             10.14649655              5.85853131     0.80121584000000001
    76   1             14.20597894      5.8582938599999999     0.80086840999999998
    77   1             18.26456816      5.8583798500000004               0.8010794
    78   1      22.323157380000001      5.8582938599999999     0.80086840999999998
    79   1             26.38263976              5.85853131     0.80121584000000001
    80   1      30.442079629999999      5.8583336700000004              0.80194851
    81   1  0.00019438999999999999      9.3717771800000005     0.80082061000000004
    82   1      4.0585985400000002      9.3717771800000005     0.80082061000000004
    83   1      8.1175070500000004      9.3725002699999997     0.80149060999999999
    84   1      12.176590020000001      9.3733583399999993     0.80088261999999999
    85   1             16.23512199      9.3733789200000004              0.80106506
    86   1             20.29401433      9.3733789200000004              0.80106506
    87   1      24.352546289999999      9.3733583399999993     0.80088261999999999
    88   1      28.411629269999999      9.3725002699999997     0.80149060999999999
    89   1      2.0293964600000001             12.88692854     0.80220621000000003
    90   1      6.0883212999999996             12.88743848     0.80138414999999996
    91   1      10.147128609999999             12.88859852     0.80085256000000005
    92   1             14.20571782      12.888558189999999     0.80113791000000001
    93   1             18.26456816      12.888409899999999     0.80109381000000002
    94   1      22.323418490000002      12.888558189999999     0.80113791000000001
    95   1             26.38200771             12.88859852     0.80085256000000005
    96   1      30.440815019999999             12.88743848     0.80138414999999996
    97   1              0.00012365      16.403222639999999     0.80145666999999998
    98   1      4.0586692700000002      16.403222639999999     0.80145666999999998
    99   1      8.1174337899999998      16.403825260000001     0.80097196999999998
   100   1              12.1761021             16.40390721     0.80133072000000005
   101   1             16.23503496      16.403861750000001     0.80140014999999998
   102   1      20.294101359999999      16.403861750000001     0.80140014999999998
   103   1      24.353034220000001             16.40390721     0.80133072000000005
   104   1      28.411702529999999      16.403825260000001     0.80097196999999998
   105   1      2.0293964600000001      19.919205120000001     0.80066369999999998
   106   1              6.08752564             19.91894023     0.80122479000000002
   107   1      10.146078839999999             19.91919038     0.80159137999999996
   108   1      14.204993419999999              19.9192584     0.80178742000000003
   109   1             18.26456816      19.919377350000001     0.80194975999999996
   110   1      22.324142899999998              19.9192584     0.80178742000000003
   111   1      26.383057470000001             19.91919038     0.80159137999999996
   112   1      30.441610669999999             19.91894023     0.80122479000000002
   113   1              0.00142012      23.434536609999999     0.80178442000000005
   114   1      4.0573728100000004      23.434536609999999     0.80178442000000005
   115   1      8.1165862000000004      23.433936769999999     0.80182306000000003
   116   1             12.17555218      23.433996919999998     0.80156656000000004
   117   1             16.23465491      23.434040110000002     0.80170828999999999
   118   1      20.294481409999999      23.434040110000002     0.80170828999999999
   119   1      24.353584130000002      23.433996919999998     0.80156656000000004
   120   1      28.412550110000002      23.433936769999999     0.80182306000000003
   121   1      2.0293964600000001      26.949875330000001              0.80297246
   122   1      6.0858208300000003      26.950066320000001              0.80215291
   123   1             10.14598146      26.949241430000001     0.80165810000000004
   124   1             14.20520604      26.948673230000001     0.80131923999999999
   125   1             18.26456816             26.94858318     0.80108193999999999
   126   1      22.323930279999999      26.948673230000001     0.80131923999999999
   127   1      26.383154860000001      26.949241430000001     0.80165810000000004
   128   1             30.44331549      26.950066320000001              0.80215291
   129   1      32.545615310000002  -0.0092689399999999998      1.3377473499999999
   130   1      4.1095988400000003             -0.02887168              1.67870203
   131   1      8.0305425600000007             -0.13397481               1.3814872
   132   1             12.15218411    0.061812659999999998              1.52249127
   133   1      16.094230020000001   -0.066777970000000006               1.5131672
   134   1      20.418955910000001  -0.0083253800000000003               1.3922067
   135   1               24.313191      28.209379859999999      1.4413065199999999
   136   1      28.466576580000002    0.079213870000000006              1.50578945
   137   1               1.9997809      3.5279743699999999      1.7444507199999999
   138   1              6.02301632      3.3755802500000001              1.46082986
   139   1             10.13437768              3.51164969     0.99706726000000001
   140   1      14.206683330000001      3.4631827400000001      1.3596353699999999
   141   1             18.16585276      3.5806259699999998      1.4575451800000001
   142   1      22.365661809999999      3.4740871000000002              1.38860373
   143   1      26.382253859999999              3.56093766              1.45960106
   144   1      30.321306580000002      3.5186785199999999              1.09374332
   145   1      32.495117329999999      7.0770324599999999               1.5280825
   146   1      4.0405568599999997              7.03204195              1.48958726
   147   1      8.0833703299999993      7.0445220600000003              1.45737881
   148   1      12.210347349999999      7.0539732199999996      1.4197844500000001
   149   1      16.112542659999999      6.9639579100000004      1.4987588700000001
   150   1      20.294970930000002      6.8973451199999998      1.3643996599999999
   151   1      24.322357190000002      7.0924161400000001              1.58115903
   152   1      28.579989439999999      7.1283946399999998              1.43419165
   153   1              1.85042248      10.633421419999999              1.65585771
   154   1      5.9821012199999997             10.56374346      1.4693372499999999
   155   1             10.17224223              10.5138573      1.5371942300000001
   156   1      14.104662429999999      10.718310600000001      1.3370193699999999
   157   1      18.238524720000001      10.487109009999999      1.5197233999999999
   158   1      22.254416590000002      10.591626509999999      1.4186507900000001
   159   1             26.37127568      10.575464139999999              1.60139795
   160   1      30.438278700000001      10.517303009999999      1.3143572299999999
   161   1      32.467422880000001             13.94272535      1.5501265500000001
   162   1      4.0082383999999998      14.017262000000001      1.3984664600000001
   163   1      8.1095267399999997      13.945394609999999      1.4810643999999999
   164   1             12.01397498      13.954246319999999              1.48183774
   165   1      16.172353990000001              13.9789411              1.58985347
   166   1      20.272372900000001      13.975406749999999              1.50929509
   167   1      24.283908350000001             14.18809892      1.3917564899999999
   168   1      28.390535839999998             14.18270145              1.55322304
   169   1      2.1192496300000001      17.425432799999999              1.45278043
   170   1      6.1191518900000004      17.500610519999999              1.58881877
   171   1      10.165923830000001      17.364505059999999      1.3855470999999999
   172   1      14.119272049999999      17.588973660000001      1.5142096599999999
   173   1      18.340070499999999      17.703823669999998      1.4281192700000001
   174   1      22.289913769999998      17.577741499999998      1.4743877000000001
   175   1      26.399524370000002             17.58082366               1.4446089
   176   1      30.371370349999999             17.53660709      1.5409351200000001
   177   1      32.414879910000003              21.1915756      1.4661450300000001
   178   1      4.0969013600000004             21.09732193              1.76125892
   179   1      8.1411268200000002             21.25375258              1.62745048
   180   1             12.32148222      21.025116709999999      1.4138453799999999
   181   1             16.36157936      21.055580509999999      1.6185687900000001
   182   1             20.47956099             21.24332588              1.54046785
   183   1      24.367068190000001             21.00318854      1.5002996799999999
   184   1             28.54479357             21.03192791              1.63063969
   185   1      2.0135579899999998      24.588614639999999      1.5601686699999999
   186   1      6.1561954999999999      24.600177259999999              1.66752783
   187   1             10.27252521      24.497985010000001      1.3756164500000001
   188   1      14.180964489999999             24.46436499      1.6358815600000001
   189   1      18.282836360000001      24.494433669999999      1.3497486000000001
   190   1             22.35033237      24.421147210000001      1.4055139400000001
   191   1      26.314912440000001      24.511309050000001      1.5274911099999999
   192   1      30.390130299999999      24.709913419999999              1.35061677
   193   1      2.0488670999999998              1.16149755      2.3886069999999999
   194   1              6.13762937              1.09274977      2.4180468300000002
   195   1             10.14386169      1.5553587600000001      2.3835126500000001
   196   1      14.152174090000001     0.99068107000000005      2.5124472799999999
   197   1      18.240777619999999               1.1507387      2.4380937299999998
   198   1      22.355710269999999              1.12732254      2.4057754299999998
   199   1      26.349540489999999      1.2776367399999999      2.4582774299999999
   200   1             30.39524192      1.3266839399999999      2.4472488600000002
   201   1      32.402005549999998      4.5478028100000003      2.5248789399999998
   202   1      4.0945540500000002      4.6571170500000001              2.43928513
   203   1      8.2745537700000007      4.6658524200000002      2.3922654099999998
   204   1             12.15349236      4.6034864600000001      2.3675506099999999
   205   1      16.229882140000001      4.5706323400000004      2.4272442299999999
   206   1      20.199744320000001      4.8367058199999997              2.54081402
   207   1      24.591449959999998      4.9295239899999999              2.59278115
   208   1      28.662752640000001      4.7788913199999996      2.3903184400000002
   209   1      2.0654557499999999      8.0418824299999994              2.33186407
   210   1      6.1036477900000001      8.2818468599999999              2.42058463
   211   1      10.041337370000001      8.1288039699999999      2.4651786499999999
   212   1      14.010741489999999                 8.19726      2.6125341999999998
   213   1             18.22596291      8.2373162499999992              2.42191935
   214   1             22.18554044      8.2301125699999993      2.4338999000000001
   215   1             26.31248982      8.2479674900000006              2.42100983
   216   1      30.477620550000001      8.1524331700000001      2.5340072400000002
   217   1      32.475799219999999             11.67145659      2.5363515799999998
   218   1      3.8955597000000002             11.77074414      2.4282440200000002
   219   1      8.0674180199999999             11.61848597      2.4580891999999999
   220   1      12.176224019999999      11.540454179999999      2.6070528899999998
   221   1             16.21503452             11.66276135      2.4132103100000002
   222   1      20.284500699999999             11.55401043              2.31357898
   223   1      24.224609489999999             11.57590862      2.3035740800000002
   224   1      28.497391629999999              11.5942685              2.39402888
   225   1              2.05861793             15.21153569      2.4406896200000001
   226   1      6.0116087399999998             15.23733037              2.37920628
   227   1      9.9896424499999998      15.299246139999999              2.57933317
   228   1             14.12851631      15.249508909999999      2.4939519400000001
   229   1             18.12339175      15.424738270000001              2.43782342
   230   1      22.094949969999998      15.080690150000001      2.3704397799999999
   231   1      26.384206509999999             15.40984029      2.4641389400000002
   232   1      30.490660470000002             15.23825093      2.4773016700000001
   233   1      32.529633339999997             18.84115113      2.2901205099999999
   234   1      3.9966673899999998      18.737278199999999      2.4205626800000002
   235   1      8.0970020199999997      18.624394819999999      2.3855399099999999
   236   1      12.157069740000001      18.698149659999999      2.4885257699999999
   237   1      16.063369380000001             18.72760559      2.3276466299999998
   238   1      20.440369570000001      18.688965660000001              2.40611124
   239   1      24.281959369999999      18.682404859999998              2.42492441
   240   1      28.394257169999999      18.688359349999999      2.4659664399999999
   241   1              1.99427387      22.399095710000001              2.39916258
   242   1      6.1776660999999997      22.325969560000001      2.5065370800000002
   243   1             10.26392527      22.107145589999998      2.5372952400000002
   244   1             14.43556596      22.194586950000001      2.4172977000000002
   245   1      18.428311170000001             22.16830723      2.4717429599999998
   246   1      22.422381519999998      22.301510960000002      2.4313261100000001
   247   1      26.361658590000001             22.14246705      2.4583997900000001
   248   1      30.357343889999999      22.378321530000001              2.41659062
   249   1      32.487225950000003      25.835382039999999      2.4196125400000001
   250   1      3.9435650299999998             25.78336182      2.3907840600000001
   251   1      8.1372257300000008             25.79517019              2.53741298
   252   1             12.22932432      25.778620230000001      2.4166222999999998
   253   1      16.351298450000002      25.828612029999999      2.5677592200000001
   254   1             20.38871572      25.732296689999998              2.40013779
   255   1      24.380002619999999      25.848179890000001              2.34202194
   256   1      28.577255709999999      25.780832010000001      2.5340476500000002
   257   1      32.564576099999996      2.2957070599999998      3.3679187399999999
   258   1      4.0093882299999999      2.2644108799999998      3.2032913999999999
   259   1      8.0214297200000004              2.45138327      3.2325991200000002
   260   1             12.38850875      2.2391420599999998      3.4023598000000002
   261   1      16.196691510000001      2.3554280799999998      3.2343266399999999
   262   1      20.284290639999998      2.6049821400000002      3.2521405400000001
   263   1      24.219908109999999      2.5753206999999998              3.19385575
   264   1      28.438207070000001      2.5259114600000001      3.3296141600000002
   265   1      2.0713426099999999      5.8060802999999996               3.2890598
   266   1      6.3809114899999999      5.8073741500000002              3.23499588
   267   1      10.069487479999999      5.7367363400000002              3.26579161
   268   1             14.26046247      5.6687514099999996              3.26774933
   269   1             17.99015735      5.8834322099999996              3.15570605
   270   1      22.491730319999998      5.8163966499999997      3.3529655100000002
   271   1             26.53589053      5.9519495600000001      3.2940419400000001
   272   1      30.565792160000001      5.9445828000000001      3.4452297399999998
   273   1      32.485137909999999      9.4104082800000004              3.38592454
   274   1      4.1306409000000004      9.4416145900000004      3.2586203299999998
   275   1      8.1019066300000002      9.4647813999999997      3.3083943599999999
   276   1             12.07799524      9.2941829600000005      3.2827837199999998
   277   1      16.079153460000001      9.3188765799999995      3.3913254099999999
   278   1      20.131406200000001      9.2995211900000001      3.4043348199999999
   279   1      24.124316740000001      9.2823522799999996      3.3398815000000002
   280   1      28.405823179999999      9.4308668699999991              3.24859527
   281   1                1.925983      12.901092930000001              3.20235607
   282   1      5.7973434900000003      12.865886740000001      3.2192016699999999
   283   1      10.038249240000001      12.862245740000001      3.3559781599999998
   284   1      14.198174440000001      12.938785019999999              3.24627183
   285   1      18.225935379999999      12.923734550000001      3.2195716499999998
   286   1             22.26381619             12.72835098      3.3206592599999998
   287   1      26.499088029999999             12.86354633      3.1880291199999999
   288   1      30.351296720000001             13.04482425      3.2534958199999999
   289   1      32.585345869999998      16.524840950000002      3.3148664299999999
   290   1      3.9209185799999999      16.424073849999999      3.2089124199999999
   291   1      7.9690477900000003             16.35635791      3.3856194500000001
   292   1      12.149386249999999             16.45769748      3.3211383900000002
   293   1             16.06918198      16.394965849999998      3.2998871099999998
   294   1      20.214497640000001             16.41215643      3.1846856899999998
   295   1      24.254840680000001      16.381282880000001      3.2744231799999999
   296   1      28.504790199999999             16.47201463              3.20896845
   297   1              2.08784196      20.097860440000002      3.2352556799999999
   298   1      6.0408830599999996      19.881523170000001      3.2386171400000001
   299   1             10.00125169      19.953595230000001              3.44864668
   300   1             14.20037454      19.921813830000001      3.2904147400000001
   301   1             18.15666087      19.917405609999999              3.24861457
   302   1      22.353519049999999      19.924551650000002      3.2800058600000002
   303   1      26.354624739999998      19.820775149999999      3.2526031400000002
   304   1      30.499913970000001      19.845287519999999      3.1919636499999999
   305   1    -0.18154526000000001      23.629013910000001      3.2294457900000002
   306   1      4.1070310900000004      23.466431790000001      3.2523448199999998
   307   1      8.2661716599999995      23.547160819999998      3.3516835700000001
   308   1      12.378464409999999      23.365168400000002      3.3164281400000002
   309   1      16.117904710000001      23.348792020000001      3.2631777899999999
   310   1      20.471215860000001      23.385756440000002              3.32276288
   311   1      24.306680579999998      23.603274339999999      3.3035200100000002
   312   1      28.415228209999999             23.42794087      3.4707174300000001
   313   1              1.82523331      27.000909249999999      3.3832035299999998
   314   1      5.9489475199999999      26.774548249999999              3.29936469
   315   1             10.08578904             26.94179093               3.3548209
   316   1      14.178670820000001             26.85581693      3.2586561700000001
   317   1      18.354188350000001      26.827365289999999      3.2497065599999999
   318   1      22.349832039999999      27.002049840000002              3.20923691
   319   1      26.378461860000002      26.851672659999998      3.1521199100000001
   320   1              30.4907176      27.024807370000001      3.2397359200000002
   321   1    -0.17990391999999999    0.058014530000000002      4.3128460000000004
   322   1      4.1032073000000002             -0.02452785      4.0997156600000002
   323   1      8.0916861600000001      28.194912639999998      3.9463418400000001
   324   1               12.250358   -0.087340189999999998      4.0963225799999998
   325   1      16.536107470000001             28.13008344      4.0372228999999997
   326   1              20.4438943              0.09269724      3.9713143899999999
   327   1             24.47590391     0.18907660000000001      4.0512780900000003
   328   1      28.258730589999999              0.19645314      3.9974037899999999
   329   1              1.98215506      3.3956180599999999              4.08565691
   330   1      6.1171428800000003      3.5746128800000001      4.0722435900000002
   331   1      10.368585660000001      3.5222680500000001              4.03017995
   332   1             14.28257425      3.4365191300000002      3.8450755399999998
   333   1             18.16269582      3.5989560200000001      4.1365662399999996
   334   1             22.28852989      3.6714383599999998      4.1214262699999997
   335   1             26.38966258      3.4752451600000001      3.9696692800000002
   336   1      30.651600370000001              3.52439261      4.1241441200000004
   337   1     0.37472476999999998      7.1972244999999999              4.03756629
   338   1      4.2475969999999998      7.1003953600000003      4.1606607000000002
   339   1      8.3487949700000001      7.0363115399999998      4.0812717899999997
   340   1      12.164750959999999      7.0230383700000001              3.98894518
   341   1      15.968510500000001      7.1030117099999996              4.09798464
   342   1      20.258623830000001      7.0590026000000003      4.1259699999999997
   343   1      24.283915870000001      7.1099210099999999      4.1099647199999998
   344   1             28.58644585      7.0802133400000002              3.94054013
   345   1              1.89862424      10.521620499999999      4.0182441600000001
   346   1      5.8579996400000001      10.832179099999999      4.2365826000000002
   347   1      10.170426150000001      10.575790209999999      4.1842551099999996
   348   1             14.22684789      10.633049229999999      4.2160820899999996
   349   1             18.13400304             10.56503582      4.3410518500000004
   350   1             22.19616465             10.61346262      4.1468621399999996
   351   1      26.483699949999998             10.46087294      4.0381501699999998
   352   1      30.431339250000001      10.682921220000001              4.02129812
   353   1      32.448359519999997             14.25418355      4.1314930800000003
   354   1      3.8859260099999999              13.9140003      4.1616115699999998
   355   1      7.8058908300000001      13.998792740000001      4.0127121499999996
   356   1             12.09784013             14.22694257      4.1816909500000001
   357   1             16.05189859      14.169406090000001      4.2250064199999997
   358   1      20.294405489999999              14.1938975      3.9946040100000002
   359   1      24.384207369999999              13.9815252      4.1508215399999999
   360   1      28.345175489999999             14.19344296      4.0491071400000003
   361   1      2.0025794100000001      17.729280410000001      4.1079907699999998
   362   1      5.8829215000000001      17.553511960000002      4.2064425600000002
   363   1              10.0770015      17.538078380000002      4.0775558399999996
   364   1             14.06025054      17.711981120000001      4.2346891500000003
   365   1             18.21171725      17.579594270000001              3.98741557
   366   1      22.421219369999999      17.484959459999999      4.1412174799999999
   367   1             26.38019418             17.50418157      4.1636779800000001
   368   1             30.52714297      17.650773350000001      4.0764516899999999
   369   1             -0.15798718      21.303979869999999      3.8863550400000002
   370   1      3.8970849900000002             21.20412687      4.1201672199999999
   371   1      8.0030340800000008             21.10444416      4.1194179899999996
   372   1             12.19430874             21.00346381      4.1411388799999997
   373   1      16.209552670000001      20.960100149999999      4.1096884899999999
   374   1             20.56634837      21.053055780000001      4.2524063400000003
   375   1      24.374716370000002              21.1559183      4.1204532499999997
   376   1      28.382087909999999      21.052935269999999      4.1554886499999997
   377   1      2.0406924800000001      24.648381239999999      4.1535081299999996
   378   1      6.0829319100000001             24.58839648      4.0649391499999998
   379   1             10.30707589      24.450335939999999      3.9125681299999999
   380   1             14.20633542             24.61202329      4.0599907699999997
   381   1             18.35075647      24.584293689999999      4.0972501399999999
   382   1      22.340481740000001             24.66525609      4.1245517300000003
   383   1      26.257876329999998      24.664612009999999      4.0260840499999997
   384   1             30.36749052      24.767455030000001      4.1579913399999997
   385   1      2.3374136299999999      1.2578834999999999      4.9339286900000001
   386   1              6.31470573      1.2212175700000001      4.9223229000000002
   387   1             10.33418004      1.3395012399999999      4.8934453299999996
   388   1             14.34345652     0.98314862000000003      4.9670567700000001
   389   1      18.333613379999999              1.21646853              4.88307599
   390   1      22.384189259999999      1.2002364999999999      4.8558639299999999
   391   1              26.4156586      1.5088052599999999      4.8006789400000001
   392   1      30.448957910000001      1.2522273900000001      4.9693794899999997
   393   1     0.14504233999999999      4.7732604500000004              5.05010973
   394   1               4.0533484      4.5308865300000001      5.0236240299999997
   395   1      8.0556403900000007      4.6562226899999999      4.8899994700000002
   396   1             12.29813575      4.6046234300000002      4.9120484600000003
   397   1             16.08622226      4.5352142799999999      5.1337854500000004
   398   1      20.341396360000001      4.7380678200000004               4.9085817
   399   1             24.52413284      4.5782113799999999      5.0231169299999996
   400   1      28.483186539999998              4.71678569      4.7617749800000002
   401   1      2.2525761599999998              8.07813099              5.13576722
   402   1      6.1431582599999999      8.4456567699999994      5.0740660699999998
   403   1      10.133921259999999      8.2232571300000004      4.9660665799999997
   404   1      14.124747470000001      8.2562583099999998      4.9887447299999996
   405   1      18.096197620000002      8.0033960999999998      4.9114279099999996
   406   1      22.285668309999998      8.1699716700000007              4.85988591
   407   1      26.320199460000001      8.0531389999999998      4.9377104300000001
   408   1      30.519614260000001      8.1885408099999992      5.0441437000000002
   409   1      32.341806050000002             11.96725269      5.0300910200000004
   410   1      3.8466113200000001              11.6892888      4.8907164500000002
   411   1      8.1699264500000002             11.80784476      5.0175845499999996
   412   1             12.22907026      11.755971300000001      5.0514224099999998
   413   1      16.184975510000001      11.731727449999999      5.0251707899999998
   414   1      20.250307589999998             11.73756556      4.9364998499999997
   415   1      24.449354929999998      11.671295880000001      4.8924374200000003
   416   1      28.447655090000001             11.79572544      4.7472603299999996
   417   1              1.85636158      15.471166180000001      4.9129048199999996
   418   1      5.9522268499999997             15.13104519      4.9079559899999996
   419   1      9.9928494400000005             15.34936974               5.0090781
   420   1             14.23517494      15.508001670000001      5.1282342300000003
   421   1      18.329871270000002             15.11689874              4.94448547
   422   1      22.369374700000002      15.074812590000001      4.8172464100000001
   423   1      26.355991419999999             15.35099424      4.9902997400000002
   424   1      30.442781870000001             15.40268756      4.9463909399999997
   425   1    0.024376889999999998      19.024268589999998      5.0024691800000003
   426   1      4.0686631200000001             18.72538183      4.9317461199999997
   427   1      7.9065496599999996              18.7578189      4.8441031299999997
   428   1             12.09693577      18.763065539999999      4.8958127100000004
   429   1      16.265368370000001      18.756610989999999      5.0062173400000001
   430   1             20.41923238      18.684566610000001      4.6940985099999999
   431   1      24.317355070000001      18.724205220000002      4.8063868699999999
   432   1      28.361799749999999      18.776918640000002      5.0194115500000001
   433   1               1.9147421      22.383448130000001      4.8369558599999998
   434   1      5.9022189699999998             22.26627834               4.9973839
   435   1             10.14650185      22.032787750000001      4.9793473800000001
   436   1             14.15807141      22.209322390000001      4.8123275400000001
   437   1             18.29088935             22.29700935      4.7934013799999997
   438   1      22.374728000000001      22.409610220000001      4.9749521200000002
   439   1      26.306142999999999             22.44323855      4.9359319800000003
   440   1      30.456297769999999              22.1885741      4.8391882900000001
   441   1    -0.17567812999999999             25.88034558      4.9161585900000002
   442   1      4.0941861099999999      25.694295019999998      4.9469090299999996
   443   1      8.2428133999999993      25.745804360000001      4.9590840600000003
   444   1      12.273453010000001             25.80845815      4.8503819699999999
   445   1      16.380933209999998             25.64830946      4.9713460100000004
   446   1             20.28672121               25.638182      4.8931054400000003
   447   1      24.395440860000001      25.889378319999999      4.9247291300000002
   448   1      28.340829100000001      25.840544349999998      4.9863948100000002
   449   1     0.14144636999999999              2.40255229      5.7868868300000003
   450   1      4.1473585899999996      2.2993574300000001      5.8458233399999999
   451   1      8.2147804999999998      2.4833785700000002      5.9571146300000004
   452   1             12.41403811      2.3632038199999998      5.6917615899999996
   453   1      16.321167339999999      2.3073332500000001              5.59566388
   454   1              20.2591742              2.35202965              5.69062818
   455   1      24.296434730000001      2.3952721299999999      5.8359872199999998
   456   1      28.506174479999999      2.5625121000000002      5.8559969799999996
   457   1      2.0079861800000001      5.8804547200000004               6.0412409
   458   1      6.2075267500000004      5.9276598800000002      5.9046720600000002
   459   1             10.07902648      5.6682087900000004      5.8303724800000003
   460   1      14.270346610000001      5.8485345899999999      5.8020486299999998
   461   1      18.311025910000001      6.0066368099999998      5.9428558499999999
   462   1      22.242066189999999      5.9300857799999998              5.84237319
   463   1      26.446918289999999      5.7437500500000001      5.7491077600000002
   464   1      30.492435350000001      5.8123915500000001      6.0135787499999998
   465   1    0.040128450000000003      9.3725140099999997      5.8884769800000001
   466   1      4.1340928799999999      9.3552998299999999      5.6620223799999998
   467   1      8.1089251099999995              9.38448232      5.7568524099999996
   468   1      12.429303770000001      9.4805884200000001      5.8638882099999998
   469   1      16.245858429999998      9.4195243200000007      5.8142517299999996
   470   1      20.139014329999998      9.3882741200000002      5.8723807299999997
   471   1      24.237198320000001      9.4399549999999994      5.7685421000000003
   472   1      28.417924800000002      9.5005891600000005      5.6681122300000002
   473   1      1.7534310200000001      13.162642740000001      5.6669388300000003
   474   1      5.8918747099999997             12.92617499      5.8652344799999998
   475   1             10.16367602      12.901304769999999      5.9615084100000004
   476   1             14.26077126      13.017731899999999      5.7725726100000001
   477   1      18.357356379999999      12.733345379999999      5.7886181299999997
   478   1      22.448602999999999      12.737017549999999      5.8428590199999997
   479   1              26.5500559             12.99695459      5.6055627000000001
   480   1              30.3322194      13.048232369999999      5.8307318099999996
   481   1    0.027117519999999999      16.325227000000002      5.7364263400000004
   482   1      3.8620535199999999      16.431616420000001              5.50921898
   483   1      7.9768000900000002      16.510221909999999      5.8308272800000003
   484   1             12.05890131      16.623012989999999      5.6496278100000001
   485   1             16.27256483      16.382105370000001      5.7727224599999998
   486   1      20.466083780000002      16.259106259999999      5.6141396400000003
   487   1      24.309306230000001      16.403045989999999      5.8323544700000003
   488   1      28.411503369999998      16.650983270000001      5.6662301399999997
   489   1              1.97088716      20.144816110000001      5.8171170099999996
   490   1      5.9166192100000004      19.885138699999999      5.5696021199999999
   491   1             10.06892526      19.932101679999999      5.9269433899999999
   492   1             14.20862198      19.851356989999999      5.6477565800000002
   493   1             18.27341389      19.847928150000001      5.6118805600000004
   494   1      22.343895759999999      20.051441390000001      5.7899074099999996
   495   1      26.486159199999999      20.152327450000001      5.7882430200000003
   496   1      30.523588199999999      19.984803320000001              5.51435356
   497   1      32.386463259999999      23.577172699999998      5.8854932499999997
   498   1      4.0592051099999997      23.523152679999999              5.76492542
   499   1      8.2895717100000006      23.262131719999999      5.7339903799999998
   500   1      12.293198500000001      23.431879080000002              5.74161491
   501   1      16.012510509999998      23.412923630000002      5.7141869600000001
   502   1      20.285712279999998             23.24705367      5.6935140000000004
   503   1      24.402210960000001      23.675134249999999      5.6944747199999997
   504   1      28.433772340000001             23.61619529      5.8341237799999996
   505   1      2.0974193099999998             27.08695243      5.8947310100000001
   506   1      6.3407157099999996             26.90852186      5.8927435199999998
   507   1             10.20761852      26.953019569999999      5.7608692000000001
   508   1             14.41886326             26.79181105      5.8690219800000003
   509   1      18.192223859999999      26.974551160000001              5.90425602
   510   1      22.436115529999999             26.96082887      5.8167512800000001
   511   1             26.42297838      27.177369800000001      5.8084195799999998
   512   1      30.237094769999999      27.025592549999999      5.7900003499999997
   513   1     0.11205763000000001    0.095154059999999999              6.55884146
   514   1              4.23842023      28.134019810000002      6.8125396699999996
   515   1      8.3183577900000003    0.031942529999999997      6.6722949199999997
   516   1      12.518444819999999             -0.18068101              6.55858249
   517   1      16.243711650000002      28.244019689999998      6.5181598899999997
   518   1      20.343467499999999             -0.14726449      6.4084925400000001
   519   1             24.33790991     0.14212730000000001      6.7240813299999997
   520   1      28.391712869999999              0.32213659      6.6264272399999999
   521   1      2.1758257400000001      3.4386869299999998      6.6845899299999996
   522   1              6.10445467              3.55499644      6.5928570000000004
   523   1      10.174263120000001      3.5746502200000001      6.5518756700000003
   524   1      14.400246080000001      3.4091813100000001      6.6734422499999999
   525   1      18.338245860000001      3.8048517500000001      6.5296442499999996
   526   1             22.36930606              3.53709769      6.6863618100000002
   527   1             26.16608579              3.61185738      6.4875867300000003
   528   1      30.729651149999999              3.45066205      6.6709500300000002
   529   1      32.690861939999998              7.10079145      6.9023805899999999
   530   1      4.3294856900000003      6.9771162899999997      6.6300915299999996
   531   1      8.1197219700000005      6.9950009800000004      6.5220856300000003
   532   1             12.17032899      6.7866904799999999      6.5519472199999997
   533   1             16.16431394              7.00660697      6.4830740999999996
   534   1      20.306993110000001      7.0859721999999996      6.5884674700000003
   535   1             24.36829912      6.9421634900000004              6.63187777
   536   1      28.289961470000001      7.1304170999999998      6.3359096700000004
   537   1      2.2103010699999999      10.640222939999999      6.4224443600000001
   538   1      6.1335627500000003             10.61768693      6.6310610099999998
   539   1             10.27943061      10.685339300000001      6.6130044100000003
   540   1             14.26465964              10.4766484      6.9966459099999998
   541   1      18.202395719999998             10.62107552      6.6939036200000004
   542   1      22.270977519999999             10.50412693      6.5606586599999996
   543   1      26.410603170000002      10.743378310000001      6.5478126899999998
   544   1      30.474470499999999      10.586897840000001      6.6795606799999998
   545   1      32.348337139999998             14.23547465      6.6345004100000002
   546   1      3.9389121600000001      14.280139180000001      6.7788297000000002
   547   1      7.9706251200000002      14.089947130000001      6.5302296599999998
   548   1             12.33266186             14.20768653      6.5460399100000002
   549   1      16.370279750000002             14.03686944              6.69079786
   550   1             20.24838549             14.11249576      6.5839766900000001
   551   1              24.4459588              14.0263309      6.5276936799999996
   552   1      28.337242839999998             14.24936621      6.4822199100000004
   553   1      2.1966172500000001      17.788441299999999      6.5261411200000001
   554   1      5.9679984800000003      17.615683000000001      6.7052666199999997
   555   1      10.045719780000001      17.517202999999999      6.5208075699999997
   556   1             14.03871528      17.533575630000001      6.6325538899999996
   557   1             18.27144066      17.559505690000002      6.3974686299999997
   558   1      22.521654340000001      17.700877139999999              6.75841607
   559   1      26.475633420000001      17.610588839999998      6.8364395099999999
   560   1      30.484469619999999      17.775412800000002      6.6273913699999998
   561   1  0.00081908000000000003      21.193318980000001      6.6140098099999998
   562   1      4.0434082399999998      21.335973169999999      6.6845858199999997
   563   1      8.1461497400000003      21.135289360000002      6.7372767099999997
   564   1      12.161268870000001      20.954560000000001      6.7036713700000004
   565   1             16.34139622      21.102446109999999      6.5723611499999999
   566   1      20.303961940000001             21.03798222      6.6802073899999996
   567   1      24.455975330000001             21.27134766      6.6541462600000001
   568   1             28.45733538      21.273934919999999      6.5547621999999999
   569   1      2.0555899700000002      24.706214469999999      6.6593094400000004
   570   1      6.2209741000000003      24.550493710000001      6.6579539600000004
   571   1             10.18803007      24.559074450000001      6.6092423699999996
   572   1             14.27251328      24.534903960000001      6.5879101999999996
   573   1      18.304395710000001             24.41197957      6.6552917100000002
   574   1      22.104865629999999             24.58981387      6.5277261900000001
   575   1      26.249351180000001      24.727686649999999      6.4781104699999998
   576   1             30.37873175      24.805741860000001      6.7126444899999997
   577   1      2.1982263400000002     0.97820706999999996      7.4845472800000001
   578   1              6.32215756      1.1912696199999999      7.6765776499999996
   579   1             10.54438056              1.12435522      7.4222504100000002
   580   1             14.37546627              1.15189948      7.7023067799999998
   581   1             18.41290506      1.2378074100000001      7.2749190600000002
   582   1      22.302925519999999      1.1474387399999999      7.3545510800000002
   583   1             26.39814702      1.5181364799999999      7.5075445500000004
   584   1      30.557953080000001     0.86125123000000003      7.4476641900000002
   585   1    0.010486809999999999      4.6859636699999996      7.6536725600000004
   586   1              4.08171631      4.7436451399999999      7.5818398599999997
   587   1      8.1259843400000005      4.6219941999999996      7.6196405199999999
   588   1      18.447043730000001              1.28012207              9.72741699
   589   1      16.277696389999999      4.9129519100000003      7.6076215100000004
   590   1      20.280977660000001      4.6457863899999996      7.5186041399999999
   591   1      24.377246270000001      4.9064380700000001      7.6389172700000003
   592   1      28.591245010000002      4.8062723099999998      7.4364090000000003
   593   1      2.2172380899999999      8.5105812200000006      7.5486377400000002
   594   1              6.17944899      8.3826625099999994      7.5222743799999998
   595   1             10.37818171      8.2047635499999991      7.4204652099999997
   596   1      14.225546789999999      8.1374844700000004      7.5831842800000002
   597   1      18.033296979999999      8.1374185499999996      7.2884105300000002
   598   1      22.528786159999999      8.3609762399999994      7.4762773200000003
   599   1      26.390188299999998      8.4529497399999993      7.3655742999999996
   600   1             30.59165977      8.2178399300000002      7.4493830799999996
   601   1      32.542006290000003              11.8529661              7.55680862
   602   1              3.97466769             11.84887264      7.4269036599999998
   603   1      8.3033517200000002      11.851201659999999      7.6412473500000004
   604   1             12.23787939             11.87090534      7.6184780300000003
   605   1      24.247035400000001      7.0068244799999997      9.0553519500000004
   606   1      20.308209489999999      11.544127469999999      7.5714085100000004
   607   1             24.20712369              11.8217777      7.5336753700000001
   608   1      26.201964719999999      8.1718513000000002      9.7471181900000001
   609   1      1.8901173200000001      15.279177219999999      7.6459994599999996
   610   1      6.1566944499999998             15.38392082      7.5850405800000003
   611   1      12.041482780000001             16.46127671      8.1611231699999998
   612   1      14.425473029999999             15.19683422      7.6645723800000001
   613   1      18.394131649999999      15.320173069999999      7.5018061700000001
   614   1             22.24472579             15.12137777      7.4842164499999999
   615   1      26.340511240000001             15.34072858      7.3531048600000002
   616   1      30.339162930000001      15.287285260000001      7.5405932299999998
   617   1   -0.031862469999999997             18.69898762              7.47979752
   618   1      4.1188386399999999      18.967071130000001      7.3019944399999996
   619   1      7.9502355900000001      18.702639479999998      7.2114027900000002
   620   1             12.04103089      18.703614170000002      7.4742776400000004
   621   1             16.26928917             18.81920156      7.5530665099999998
   622   1      20.102961740000001      18.746383260000002      7.5926822600000001
   623   1      24.512123599999999      19.129636049999998      7.5226559899999996
   624   1      28.299520489999999      18.993810620000001      7.4478186700000002
   625   1      1.7154889799999999             22.55427311      7.4017568499999999
   626   1      6.0087338700000004             22.46748457      7.5082362399999996
   627   1      13.966204510000001             17.26135549      9.2203835400000003
   628   1      14.296840720000001             22.22928696      7.3049269199999998
   629   1             18.27933887             22.10238322      7.6206535999999998
   630   1      22.387520599999998      22.351236449999998      7.8048357900000003
   631   1      26.526537619999999      22.500952860000002      7.3671196200000004
   632   1             30.53482709      22.393249829999998      7.4244234200000001
   633   1    0.035995039999999999      26.098214810000002      7.2856082000000004
   634   1      4.1628858299999996             25.68454418      7.5244882400000002
   635   1      8.1086029600000007             25.60723977      7.6679509899999996
   636   1             12.30754817      25.681529210000001      7.4137521599999996
   637   1      16.316205700000001      25.879516580000001      7.3505005700000003
   638   1      20.273571759999999      25.754176350000002      7.4838468999999996
   639   1      24.268432969999999      25.835032559999998      7.5375490100000002
   640   1      28.333929749999999              26.0664582      7.4635035800000002
   641   1      4.1458386200000001      7.2316634200000003      9.0481992499999997
   642   1     0.14836527999999999             28.19738173      9.1657456100000001
   643   1              6.52262466      8.0660793300000009      9.9168460599999992
   644   1      12.436759540000001             23.66098963      8.5243642499999996
   645   1             10.44660358             22.49529712      7.5282084200000003
   646   1      28.573817949999999     0.22096080000000001      8.9609359400000006
   647   1             22.20296295      3.6390348299999999      9.0774745100000001
   648   1      10.621228869999999      3.5231357000000001      9.1195344200000008
   649   1              3.97198641      16.552762269999999      7.8469615199999998
   650   1      6.2057725399999999             24.40621814      8.9899201400000006
   651   1      18.180539549999999      24.649920999999999      9.1575755799999996
   652   1             18.45278248      6.1142977099999998      8.3678240200000005
   653   1             22.28229159             12.67334189      8.5132787600000004
   654   1      4.1850081000000001      20.949194460000001      8.9528736000000002
   655   1      26.253350009999998      24.948363539999999      8.8212670800000001
   656   1             10.48266864      26.918468669999999      8.2772229300000006
   657   1      10.432669049999999      12.895375550000001      8.4303182099999994
   658   1      16.636615129999999      14.052326020000001      8.9262917900000005
   659   1             26.23170352      10.711622800000001      8.9555513199999996
   660   1             13.96440827      5.9284328100000003      8.2503808500000009
   661   1             26.22985564      1.3134634700000001      9.7738714600000005
   662   1      28.440657470000001      2.5399613099999998      8.5418675099999994
   663   1      18.442802149999999      27.090022650000002      8.2390468099999996
   664   1      2.0453674400000001             12.91028515      8.1199079600000008
   665   1             12.50894806             14.17506397      9.0574015200000009
   666   1      16.258742860000002      16.495859710000001      8.2128488199999996
   667   1      5.6699662200000001             17.58470878      9.0021010100000005
   668   1      16.397491649999999      11.864803419999999      7.4408157900000003
   669   1      3.9172614000000001             11.94261017      9.7434549100000005
   670   1             28.48936265      7.3256787900000004      8.7689305900000001
   671   1              2.13679716             10.49583861              8.91376217
   672   1      30.357451439999998      19.741674199999999      8.0816779499999996
   673   1              3.96143746      23.242139160000001      8.2505240900000008
   674   1      1.9834528899999999      19.812466390000001      8.1088912200000003
   675   1      22.257946629999999      19.797012160000001      8.1837462300000006
   676   1             14.43223444             26.66576246      8.2137959400000007
   677   1      22.300944350000002      1.2170822699999999      9.7948561400000003
   678   1      20.561787979999998      16.572479860000001      8.4731426400000007
   679   1             28.62536046      4.9157234900000004      9.7144054099999995
   680   1      28.210678779999999      12.040169300000001      7.2094423599999997
   681   1     0.26982249000000003              2.24704529              8.30698677
   682   1      10.162422579999999      15.156028340000001      7.4623593899999996
   683   1      6.2641129299999996      26.995831819999999      8.2813885900000006
   684   1             10.05255073             10.46622919      8.8508863699999996
   685   1      18.451934009999999      17.550475389999999      8.8870900499999994
   686   1      18.470993830000001             12.79046065      8.2526582099999999
   687   1      16.245740009999999      9.5542280500000007      8.1493875599999992
   688   1      20.277089360000002             14.13694761      9.0224454299999994
   689   1      24.342092529999999      21.315259699999999      9.2752918199999996
   690   1    0.086978979999999997      16.440370819999998      8.3269639899999994
   691   1      30.627350790000001      5.9260400899999999      8.5487435900000008
   692   1      16.464709249999999              2.35436069      8.1072031300000003
   693   1             14.39539946             12.69374788      8.5070356500000006
   694   1             20.10418095      9.0495241600000007      8.3312889999999999
   695   1             22.37284764      26.747694429999999      8.5034291100000008
   696   1      2.5031310599999999      17.554373049999999      9.0987440999999993
   697   1      8.1466609200000004      5.0473809599999999      9.9668228899999995
   698   1             16.35118348              0.03067315      9.0108365100000007
   699   1      20.482764100000001              2.21948641      8.2698223599999992
   700   1      12.693083420000001   -0.095704250000000005      9.2224238399999994
   701   1             14.53248878      3.6198706999999999      9.0220666900000008
   702   1             24.24596429      23.376026240000002      8.3048422899999998
   703   1      20.449264289999999      27.870159139999998      9.2014019499999993
   704   1             26.56662519             20.37140638      8.4130601800000004
   705   1      2.2208759699999998      3.7083477399999998      8.9732645499999997
   706   1      6.0864659100000003      3.6875607800000001      8.8810564200000002
   707   1             14.20027704             19.74136103      8.1954646100000001
   708   1      18.278245510000001             19.86767554      8.4455959499999995
   709   1             24.27772044    0.055842059999999999      9.1013792999999996
   710   1      20.214305960000001      23.570697729999999      8.2374298199999991
   711   1      2.0748335899999999      6.1314464700000002      8.3404985499999995
   712   1      2.1935760700000002      26.611181890000001      8.3478770400000002
   713   1      30.707280560000001              1.22182144      9.8429508099999996
   714   1      32.383293369999997      21.569394670000001      8.8597762899999992
   715   1      4.0541796100000003    -0.37271808000000001      9.1408876100000001
   716   1      9.8906570600000006      24.426645539999999      8.9458234900000004
   717   1      26.579886139999999      22.534812970000001      9.6502071300000001
   718   1      32.623773739999997      9.2659787199999997      8.3490341899999994
   719   1      28.413819060000002      9.7428456699999995              8.08631864
   720   1      30.707212689999999      3.5401522600000002      9.0141973899999996
   721   1              4.23586712      9.6013574800000008      8.1505352599999998
   722   1      8.5976867400000003      27.892211830000001      9.0175573300000007
   723   1      8.0434289799999998      9.5206427700000003      8.3198114899999993
   724   1              5.97558379              10.8123735      9.1930920599999997
   725   1      8.6950933300000006      7.2861181899999998      9.3389185700000006
   726   1      16.225706379999998      7.1014560600000003      9.1038184700000002
   727   1             16.20196868      21.113860119999998      8.9284346400000008
   728   1      24.114221860000001             14.22552024      8.9221536500000003
   729   1      8.1629003200000003             14.20826209      8.9125291999999998
   730   1      12.276262239999999      4.4696340699999997      7.3958926399999996
   731   1             11.83706967      7.0369403999999998      8.9761843199999998
   732   1             18.18385941      10.700586319999999      9.2369020000000006
   733   1      20.317102389999999              21.2140968              9.02496352
   734   1             32.04894024      23.960345239999999      8.2189713799999993
   735   1      24.149314029999999      2.3680650399999998      8.2180526999999994
   736   1      8.3425001299999995              16.4757623      8.2958808600000005
   737   1      30.556731410000001      17.415471849999999      9.0179292600000007
   738   1      24.503300299999999      9.3051173400000007      8.3398602400000001
   739   1      12.355129829999999      9.5682974999999999      8.2029600899999995
   740   1             26.36978646      6.0593900100000004      8.2780314399999995
   741   1      24.248473480000001             16.57467789      8.0788556299999996
   742   1      26.289766740000001              3.71469709      9.0267235899999996
   743   1      22.081133950000002      6.0522910400000001      8.1256432299999997
   744   1             32.37728517      14.083464660000001      9.1721674600000007
   745   1      26.114390459999999      13.031238070000001      8.0502572699999995
   746   1      6.1811574699999996             12.86681823      8.2040037699999999
   747   1             10.10019391      20.419852540000001      8.3999876100000002
   748   1      8.1494664399999994             22.83843637      8.5348426800000006
   749   1             20.48230118      11.743779549999999      9.8186359499999991
   750   1             26.31796319             17.97735058      9.1269179600000001
   751   1      29.027473820000001      21.531876610000001               8.8847483
   752   1      3.5511547399999999      14.625007419999999      9.2345005400000009
   753   1      6.1311053199999996      20.066925980000001      8.0044518500000006
   754   1      8.5796539200000002      2.2407247099999998      8.6560079699999992
   755   1      6.3747704399999998      6.1994479399999998      8.5367395599999991
   756   1      10.486721530000001     0.90992943999999998      9.8278917400000001
   757   1      4.0468169100000004      2.1776859700000002      8.3756900900000009
   758   1      26.420698900000001      27.278408410000001      8.3857418599999995
   759   1      30.395242790000001      12.802022920000001      8.2865970099999995
   760   1      28.461787810000001      23.854081950000001      8.3300341899999992
   761   1      16.154897309999999      23.605448549999998      8.2142782800000003
   762   1      22.144489159999999             10.15512159      9.0605039299999994
   763   1      10.148589339999999      5.7510516000000003      8.2354815299999995
   764   1             12.39483955              2.27768177      8.3884634200000008
   765   1      18.744622110000002      3.8105750399999998      9.1720995199999997
   766   1      22.373421990000001             24.47237874      9.0928333499999994
   767   1      28.303811920000001      16.575147909999998      8.3306709199999993
   768   1      30.507152900000001      26.724898289999999      8.5424604199999994
   769   2      16.742832320000002      8.9043762500000003      9.7535978300000004
   770   2      18.122600479999999      8.1548608100000006      9.1625153099999999
