N2-dn2-coord-10bar/700K/snapshots/frame-162255/run-000/../data.lammps (written by ASE) 

770 	 atoms 
2  atom types
0.0      32.470343392086264  xlo xhi
0.0      28.120142247150884  ylo yhi
0.0      31.213473999158239  zlo zhi


Atoms 

     1   1      2.0293964600000001      1.1716090800000001    0.023552650000000001
     2   1      6.0880008999999999              1.17168918              0.02556874
     3   1      10.146952280000001              1.17170328    0.025416459999999998
     4   1      14.205754900000001      1.1716496700000001              0.02501565
     5   1             18.26456816              1.17166478              0.02504435
     6   1             22.32338141      1.1716496700000001              0.02501565
     7   1      26.382184030000001              1.17170328    0.025416459999999998
     8   1      30.441135410000001              1.17168918              0.02556874
     9   1  9.1780000000000006e-05      4.6866847900000002    0.025581599999999999
    10   1      4.0587011400000002      4.6866847900000002    0.025581599999999999
    11   1      8.1174961000000003      4.6866290399999997    0.025584639999999999
    12   1             12.17638011      4.6866852999999997              0.02491202
    13   1             16.23517979      4.6866942700000003    0.025006210000000001
    14   1      20.293956519999998      4.6866942700000003    0.025006210000000001
    15   1      24.352756209999999      4.6866852999999997              0.02491202
    16   1      28.411640219999999      4.6866290399999997    0.025584639999999999
    17   1      2.0293964600000001      8.2016395800000002    0.026613040000000001
    18   1      6.0881071599999999      8.2016314300000008              0.02543782
    19   1             10.14701835               8.2017045    0.025156850000000001
    20   1      14.205766049999999      8.2017080900000003    0.024990459999999999
    21   1             18.26456816      8.2017077599999997    0.025091249999999999
    22   1      22.323370260000001      8.2017080900000003    0.024990459999999999
    23   1      26.382117969999999               8.2017045    0.025156850000000001
    24   1      30.441029149999999      8.2016314300000008              0.02543782
    25   1  9.2789999999999998e-05             11.71671873    0.025573410000000001
    26   1              4.05870014             11.71671873    0.025573410000000001
    27   1      8.1176017700000003             11.71668698              0.02497914
    28   1             12.17637068             11.71673069    0.025001590000000001
    29   1      16.235177310000001      11.716730249999999    0.025074039999999999
    30   1      20.293959009999998      11.716730249999999    0.025074039999999999
    31   1      24.352765640000001             11.71673069    0.025001590000000001
    32   1      28.411534549999999             11.71668698              0.02497914
    33   1      2.0293964600000001             15.23167155              0.02525285
    34   1      6.0881728300000004      15.231678799999999    0.025062859999999999
    35   1             10.14698486      15.231762639999999               0.0250786
    36   1             14.20578841             15.23176782    0.025201990000000001
    37   1             18.26456816              15.2317707    0.025149979999999999
    38   1      22.323347900000002             15.23176782    0.025201990000000001
    39   1      26.382151459999999      15.231762639999999               0.0250786
    40   1      30.440963480000001      15.231678799999999    0.025062859999999999
    41   1      32.470327990000001      18.746748629999999    0.024951939999999999
    42   1      4.0588083299999997      18.746748629999999    0.024951939999999999
    43   1      8.1175770200000006      18.746803499999999    0.025222040000000001
    44   1             12.17637459      18.746799750000001    0.025428470000000002
    45   1      16.235159400000001      18.746805200000001    0.025487360000000001
    46   1      20.293976919999999      18.746805200000001    0.025487360000000001
    47   1      24.352761730000001      18.746799750000001    0.025428470000000002
    48   1             28.41155929      18.746803499999999    0.025222040000000001
    49   1      2.0293964600000001      22.261939099999999    0.025844880000000001
    50   1      6.0881419299999999      22.261841799999999    0.025489439999999999
    51   1             10.14692954             22.26176895              0.02551757
    52   1             14.20573559      22.261804690000002    0.025639160000000001
    53   1             18.26456816             22.26178625    0.025640119999999999
    54   1      22.323400729999999      22.261804690000002    0.025639160000000001
    55   1      26.382206780000001             22.26176895              0.02551757
    56   1             30.44099439      22.261841799999999    0.025489439999999999
    57   1  5.6450000000000003e-05      25.776936450000001              0.02613327
    58   1      4.0587364700000004      25.776936450000001              0.02613327
    59   1      8.1175325399999991              25.7767713    0.024734180000000001
    60   1      12.176376469999999      25.776831090000002              0.02545323
    61   1      16.235145939999999      25.776775220000001    0.025273360000000002
    62   1             20.29399038      25.776775220000001    0.025273360000000002
    63   1      24.352759840000001      25.776831090000002              0.02545323
    64   1      28.411603769999999              25.7767713    0.024734180000000001
    65   1  0.00024266000000000001              2.34304215     0.80166565000000001
    66   1      4.0585502699999996              2.34304215     0.80166565000000001
    67   1      8.1157394600000003              2.34454954     0.80169402000000001
    68   1             12.17601256      2.3433829099999999     0.80116898000000003
    69   1      16.235258170000002      2.3433209100000001     0.80090046999999998
    70   1      20.293878150000001      2.3433209100000001     0.80090046999999998
    71   1      24.353123750000002      2.3433829099999999     0.80116898000000003
    72   1      28.413396859999999              2.34454954     0.80169402000000001
    73   1      2.0293964600000001      5.8582218700000004     0.80119762000000005
    74   1      6.0870566899999998      5.8583336700000004              0.80194851
    75   1             10.14649655              5.85853131     0.80121584000000001
    76   1             14.20597894      5.8582938599999999     0.80086840999999998
    77   1             18.26456816      5.8583798500000004               0.8010794
    78   1      22.323157380000001      5.8582938599999999     0.80086840999999998
    79   1             26.38263976              5.85853131     0.80121584000000001
    80   1      30.442079629999999      5.8583336700000004              0.80194851
    81   1  0.00019438999999999999      9.3717771800000005     0.80082061000000004
    82   1      4.0585985400000002      9.3717771800000005     0.80082061000000004
    83   1      8.1175070500000004      9.3725002699999997     0.80149060999999999
    84   1      12.176590020000001      9.3733583399999993     0.80088261999999999
    85   1             16.23512199      9.3733789200000004              0.80106506
    86   1             20.29401433      9.3733789200000004              0.80106506
    87   1      24.352546289999999      9.3733583399999993     0.80088261999999999
    88   1      28.411629269999999      9.3725002699999997     0.80149060999999999
    89   1      2.0293964600000001             12.88692854     0.80220621000000003
    90   1      6.0883212999999996             12.88743848     0.80138414999999996
    91   1      10.147128609999999             12.88859852     0.80085256000000005
    92   1             14.20571782      12.888558189999999     0.80113791000000001
    93   1             18.26456816      12.888409899999999     0.80109381000000002
    94   1      22.323418490000002      12.888558189999999     0.80113791000000001
    95   1             26.38200771             12.88859852     0.80085256000000005
    96   1      30.440815019999999             12.88743848     0.80138414999999996
    97   1              0.00012365      16.403222639999999     0.80145666999999998
    98   1      4.0586692700000002      16.403222639999999     0.80145666999999998
    99   1      8.1174337899999998      16.403825260000001     0.80097196999999998
   100   1              12.1761021             16.40390721     0.80133072000000005
   101   1             16.23503496      16.403861750000001     0.80140014999999998
   102   1      20.294101359999999      16.403861750000001     0.80140014999999998
   103   1      24.353034220000001             16.40390721     0.80133072000000005
   104   1      28.411702529999999      16.403825260000001     0.80097196999999998
   105   1      2.0293964600000001      19.919205120000001     0.80066369999999998
   106   1              6.08752564             19.91894023     0.80122479000000002
   107   1      10.146078839999999             19.91919038     0.80159137999999996
   108   1      14.204993419999999              19.9192584     0.80178742000000003
   109   1             18.26456816      19.919377350000001     0.80194975999999996
   110   1      22.324142899999998              19.9192584     0.80178742000000003
   111   1      26.383057470000001             19.91919038     0.80159137999999996
   112   1      30.441610669999999             19.91894023     0.80122479000000002
   113   1              0.00142012      23.434536609999999     0.80178442000000005
   114   1      4.0573728100000004      23.434536609999999     0.80178442000000005
   115   1      8.1165862000000004      23.433936769999999     0.80182306000000003
   116   1             12.17555218      23.433996919999998     0.80156656000000004
   117   1             16.23465491      23.434040110000002     0.80170828999999999
   118   1      20.294481409999999      23.434040110000002     0.80170828999999999
   119   1      24.353584130000002      23.433996919999998     0.80156656000000004
   120   1      28.412550110000002      23.433936769999999     0.80182306000000003
   121   1      2.0293964600000001      26.949875330000001              0.80297246
   122   1      6.0858208300000003      26.950066320000001              0.80215291
   123   1             10.14598146      26.949241430000001     0.80165810000000004
   124   1             14.20520604      26.948673230000001     0.80131923999999999
   125   1             18.26456816             26.94858318     0.80108193999999999
   126   1      22.323930279999999      26.948673230000001     0.80131923999999999
   127   1      26.383154860000001      26.949241430000001     0.80165810000000004
   128   1             30.44331549      26.950066320000001              0.80215291
   129   1   -0.096336229999999995    0.014049509999999999              1.38021569
   130   1      4.0794735600000003             -0.01842301      1.3443766699999999
   131   1      8.2195779800000004      28.083844289999998              1.53035495
   132   1      12.167410459999999             -0.03019372      1.4523040700000001
   133   1             16.23477003   -0.070013770000000003              1.51183987
   134   1             20.25456316             28.08370627              1.46936289
   135   1      24.286141319999999      28.198904249999998              1.57525139
   136   1             28.46372732      28.192818720000002              1.55043259
   137   1      1.9204406599999999      3.5035135500000001      1.2460823000000001
   138   1      6.1909149899999996      3.5603273099999999      1.3731393999999999
   139   1      10.337734060000001      3.4824472499999999      1.4596764499999999
   140   1             14.18881236              3.51840953      1.4013986899999999
   141   1      18.308665220000002      3.5229288300000001              1.46177139
   142   1             22.31516238      3.4956372899999999      1.3795737299999999
   143   1      26.289805680000001      3.5005304000000002      1.4425431399999999
   144   1      30.450412660000001      3.5645806800000002      1.4308585599999999
   145   1      32.599229430000001      7.0223571900000001              1.49947407
   146   1      4.2132569599999998      7.0502799600000001              1.56611035
   147   1      8.0782158899999992      6.9890451499999999              1.36072591
   148   1      12.043787099999999      7.1799198799999999              1.49629952
   149   1      16.256259709999998      7.1080414000000003      1.4930316299999999
   150   1             20.21832195      7.0060486800000001              1.27996165
   151   1      24.438805779999999      7.0142457800000004              1.50197548
   152   1      28.245746230000002      6.9194836200000003              1.59970579
   153   1      2.1220729600000001             10.42091752      1.6746294100000001
   154   1      6.0153964000000002             10.50855879      1.5902470200000001
   155   1             10.28068019             10.69507136              1.55901015
   156   1             14.15981655             10.45581357      1.5274692999999999
   157   1             18.30772443              10.6020462              1.60870274
   158   1      22.418674150000001             10.36317517              1.51065615
   159   1             26.42059948      10.591026640000001      1.6883519499999999
   160   1      30.369193159999998             10.33301945              1.61953386
   161   1               32.529626      13.999676559999999      1.5612450499999999
   162   1      4.1184862100000004             14.06868714      1.5021804299999999
   163   1      8.0962951499999996             13.89702613                1.371977
   164   1             12.26242377      14.087071590000001               1.4714588
   165   1             16.34472581      14.120963720000001      1.6044098499999999
   166   1             20.29725281      14.208841850000001      1.5435197199999999
   167   1             24.45771487      14.009178390000001      1.4047284900000001
   168   1      28.457072159999999      14.009202500000001      1.6159062200000001
   169   1      2.0792158700000001              17.5298722      1.5479519799999999
   170   1              6.19199549             17.61976271               1.5817146
   171   1      9.9468748799999993      17.564871650000001              1.41656903
   172   1             14.20309862             17.49102186      1.5928708899999999
   173   1             18.21394381      17.584388199999999              1.37991091
   174   1      22.429350800000002             17.58213289              1.52728547
   175   1      26.259956890000002      17.632198280000001      1.6171718900000001
   176   1      30.443907410000001      17.695735809999999      1.3856135599999999
   177   1   -0.058696030000000003      20.986953679999999              1.46999919
   178   1      4.0379131800000003      20.936148129999999              1.64335107
   179   1              8.20745243      20.997215650000001              1.43518721
   180   1             12.18478723      21.089162510000001              1.59213659
   181   1      16.290190880000001      21.125333090000002      1.2378205900000001
   182   1             20.18555757      20.969322250000001              1.51628644
   183   1      24.467910329999999      21.073747440000002      1.6321599200000001
   184   1      28.387190480000001      20.874320659999999              1.59320113
   185   1      2.0244834699999998      24.577980889999999      1.4117803799999999
   186   1      6.0050885200000002      24.632281540000001              1.43703227
   187   1      10.167612719999999             24.54702425      1.4207790600000001
   188   1             14.15185509      24.566747490000001      1.5163428000000001
   189   1      18.400846820000002      24.568116150000002      1.4280780799999999
   190   1      22.344803349999999      24.549506279999999              1.53783998
   191   1      26.387288380000001      24.560906729999999      1.5600162799999999
   192   1      30.607296569999999      24.717495530000001              1.36422355
   193   1      2.1587455900000001      1.1115576199999999      2.5040802700000002
   194   1      6.1863363800000002              1.14237663      2.4095870000000001
   195   1             10.04542219      1.2247466899999999      2.6265865000000002
   196   1      14.238355909999999      1.0911900400000001      2.4386212500000002
   197   1      18.234451320000002              1.10000651              2.36152681
   198   1              22.2992618      1.1143789799999999      2.4746094099999998
   199   1      26.470806169999999              1.17442293      2.4191313800000001
   200   1      30.415091960000002      1.2055084899999999      2.3150093900000002
   201   1   -0.035045239999999998      4.8326304999999996               2.4286241
   202   1      4.1309235900000001      4.7145460899999998      2.4638016999999999
   203   1      8.0594363599999994      4.4974760500000004              2.46395499
   204   1             12.23319789      4.7919900899999996      2.3454693299999998
   205   1      16.267520829999999      4.6016032999999998              2.52941963
   206   1             20.24793974              4.62632771      2.2683249299999999
   207   1      24.278523289999999      4.5490828099999998      2.4323430799999999
   208   1             28.44727408      4.7079690000000003      2.5373393499999999
   209   1      2.1765528700000001      8.0755723699999997      2.5840466599999998
   210   1      6.1165484899999996      8.2782249300000004      2.4934411600000002
   211   1      10.099804219999999      8.1332210299999996      2.4408665100000002
   212   1             14.37925081      8.3511409699999994      2.4780498299999998
   213   1             18.31456996      8.3494755400000003      2.3054655899999998
   214   1             22.34973682      8.0461297700000003      2.3964532900000002
   215   1      26.319930939999999      8.2094705599999998      2.5221886699999998
   216   1      30.516921839999998      8.0362071200000003      2.4188495099999998
   217   1      32.476356699999997      11.438127659999999      2.4384613000000002
   218   1      3.9661860400000002              11.7141555      2.5433895199999998
   219   1      8.2008615299999992             11.62537917      2.3992134300000001
   220   1             12.37235295      11.888408330000001      2.5035712600000002
   221   1      16.320218310000001             11.82366455      2.4171729700000002
   222   1      20.193312639999998      11.743097300000001      2.3303200300000002
   223   1      24.286430759999998      11.737334450000001      2.4415277299999998
   224   1              28.1768842      11.851969130000001              2.70848778
   225   1              2.18281781             14.99616625      2.4671456100000002
   226   1      6.1049581499999999      15.049942850000001      2.4287679899999999
   227   1             10.30320107             15.26508585      2.3742893899999999
   228   1              14.1819446             15.24846986              2.44389024
   229   1             18.28356917      15.148773970000001              2.55816081
   230   1      22.368504349999998      15.182608999999999      2.4213520100000001
   231   1      26.348152599999999      15.323200229999999      2.4461479800000001
   232   1      30.462343260000001      15.125204099999999      2.4250118500000002
   233   1      32.486309169999998      18.726866560000001      2.3163891200000002
   234   1      3.9199213799999999      18.383392449999999      2.6631087500000001
   235   1      8.1213904400000008             18.63982704      2.4693417200000001
   236   1      12.172696800000001      19.005896270000001      2.2390956900000001
   237   1             16.25704923      18.827523070000002      2.4601156099999999
   238   1      20.377359739999999      18.771520070000001                2.367362
   239   1      24.309937250000001      18.708307810000001      2.4352834699999999
   240   1      28.354534879999999      18.745662630000002      2.6113506700000002
   241   1              2.10002983             22.10859679      2.4694168599999999
   242   1      6.2861824300000002      22.147169689999998      2.4239940099999999
   243   1      10.065075050000001      22.211267759999998      2.3611695400000001
   244   1      14.302551920000001             22.19286589      2.4163900200000001
   245   1              18.2985249      22.350189790000002      2.3775822400000002
   246   1             22.31706587      22.106649999999998      2.4113971300000001
   247   1      26.437918029999999             22.24627126      2.4648994900000001
   248   1      30.443014609999999             22.32005835      2.2760905400000002
   249   1      32.555132569999998             25.81307013      2.5357107299999999
   250   1      4.1693666599999997      25.625718370000001              2.51100317
   251   1      7.9509674199999996      25.760715699999999      2.3609887299999999
   252   1      12.231031740000001      25.656671450000001      2.5288753599999998
   253   1      16.363310219999999      25.758207380000002              2.50470879
   254   1      20.385921060000001      25.748684740000002      2.5127248099999999
   255   1      24.351974689999999             25.71315044      2.3770355699999999
   256   1      28.562623989999999             25.69330703      2.3548649099999999
   257   1             -0.02166129      2.4871443100000001      3.1107499399999998
   258   1      4.2523112999999997               2.2587405      3.1707050899999998
   259   1      8.0560680999999992      2.2183543399999999      3.5553379899999999
   260   1      12.232646750000001      2.3037200499999999      3.3245307500000001
   261   1      16.136407269999999      2.3353865200000001      3.2489170500000002
   262   1      20.197476170000002      2.3806426799999998      3.2426321900000001
   263   1             24.44893811              2.18775063      3.2695435100000001
   264   1      28.411053559999999              2.24403022      3.2543581000000001
   265   1      2.0724793400000001      5.8473728100000004              3.25341478
   266   1               6.1244505      5.8489754600000001      3.4322429799999998
   267   1             10.13090624              5.76657785              3.18795027
   268   1      14.239654420000001      5.8929428899999996      3.2792390299999998
   269   1              18.4393578              5.86037973      3.3282072600000001
   270   1             22.30497927      5.6854494300000002              3.05481347
   271   1      26.364285630000001      5.8341195399999997      3.2792660699999998
   272   1      30.492298170000002      5.8508179599999997      3.4321324799999999
   273   1    0.021932589999999998      9.3474195499999997      3.4378393699999998
   274   1      4.1685809599999999      9.3855436300000008      3.3616116200000001
   275   1      8.2141049899999992      9.2251552399999994              3.47126774
   276   1      12.230189429999999      9.2595826300000006              3.28102508
   277   1              16.4121998      9.3652066099999995      3.2239173299999999
   278   1             20.34461181      9.5331203099999993      3.2214845699999999
   279   1      24.465852590000001      9.2699721200000003      3.2312206300000001
   280   1             28.32003452      9.4094726600000005      3.4394232200000001
   281   1      2.0620706700000002             12.62700053      3.4048663700000001
   282   1      6.1153350299999998      12.725865430000001      3.2714263099999998
   283   1      10.064141319999999      12.684142570000001      3.3387578900000001
   284   1             14.25666391             12.88546068      3.4795634199999999
   285   1             18.50913886      12.922448340000001      3.3307630499999998
   286   1      22.261691549999998             12.93815468      3.2961781700000001
   287   1      26.096848090000002      13.072546450000001              3.31847688
   288   1      30.455154629999999             12.67674148              3.23152302
   289   1    0.053307189999999997      16.472162440000002      3.2474110999999999
   290   1      4.1572199999999997      16.288381919999999      3.1472080899999999
   291   1      8.1828750699999997      16.468582699999999      3.2495305399999999
   292   1              12.1552142              16.6300119      3.0375585599999999
   293   1             16.21480816      16.491861950000001      3.2963340799999998
   294   1      20.238629759999998             16.52499014      3.1688219000000002
   295   1      24.299209680000001      16.664688380000001      3.3293143000000001
   296   1             28.30639433      16.260064320000001              3.30230443
   297   1              1.96868161      19.839230109999999      3.2659582700000001
   298   1      6.0725553699999999             19.77444534      3.2431799699999999
   299   1             10.11815489      19.970131500000001      3.4008232600000001
   300   1      14.166750950000001      19.856263550000001      3.3537948100000001
   301   1      18.172288040000002             19.78712269      3.2775957199999999
   302   1      22.324892250000001      19.966258790000001      3.4031675199999998
   303   1      26.382285270000001      19.939309600000001              3.01631749
   304   1             30.49173313             19.96054569      3.2422623499999998
   305   1    0.028945229999999999             23.23491237      3.3119749999999999
   306   1      4.0454080299999999             23.40074954      3.2592731499999998
   307   1      8.0960740199999996      23.305330290000001              3.27532165
   308   1             12.19856384      23.451055719999999               3.1919716
   309   1      16.171013030000001      23.481282069999999              3.32255703
   310   1             20.35022283      23.385737599999999              3.10965962
   311   1      24.287979180000001             23.31555388      3.2023830100000001
   312   1      28.694475879999999             23.51080997      3.2907550200000002
   313   1      2.0656647100000001      26.922879030000001      3.1182534999999998
   314   1      6.1252463800000001             26.80909492      3.3717904500000002
   315   1      10.074134580000001                26.85679      3.4549896900000001
   316   1      14.170816719999999      26.809191980000001      3.3172436200000002
   317   1      18.188570819999999             26.84642517              3.25278263
   318   1             22.37357205      27.045110619999999      3.2944124700000001
   319   1             26.40693658      26.879734119999998      3.2577307200000001
   320   1      30.497472030000001             26.97727063      3.3011297900000001
   321   1              0.00671625    0.051518639999999997      3.9208476999999999
   322   1      4.1729874999999996             28.13141049      3.9579643600000001
   323   1      8.1415524099999992      28.059458079999999      4.2235076200000004
   324   1             12.02886932   -0.052422009999999998              4.15447919
   325   1      16.260795609999999             28.15323682      3.9871880900000001
   326   1      20.443468490000001    -0.11383277999999999      3.8347598000000001
   327   1      24.403881590000001  7.2529999999999998e-05              4.18351761
   328   1      28.403225070000001      28.193903089999999      4.0566720299999997
   329   1      2.0408081199999999      3.4787398899999999      3.7941728499999998
   330   1      6.0182322399999997      3.5749818000000002      4.1148362299999999
   331   1             10.08882009      3.4444274099999999      4.0645198599999999
   332   1      14.083591650000001              3.43412074      3.9638309999999999
   333   1      18.043603359999999      3.4489694200000001      3.8904372700000001
   334   1             22.32760931      3.4296509799999999      4.0065852800000004
   335   1      26.426605819999999      3.5124251900000001      4.0390798700000001
   336   1             30.28192859              3.43970493      4.0431500299999996
   337   1   -0.049572159999999997      7.0491905900000003      4.1314386000000001
   338   1               4.0009394      7.0631035400000002      4.3189735200000001
   339   1      8.1659673300000009      6.7872926600000003      4.1547463699999998
   340   1      12.152526079999999      6.9495485500000003      4.0271057099999998
   341   1      16.220433209999999      6.9768847999999997      4.0479051899999998
   342   1      20.263410539999999      7.2364767800000003      4.0014122600000004
   343   1      24.212083109999998      7.0099099899999997      3.9793947099999998
   344   1             28.43341508      6.9667153500000003      4.1775115100000004
   345   1      1.9491335299999999      10.498911079999999      4.1415363899999997
   346   1      6.1104673700000003              10.5793049      4.2464889799999996
   347   1      10.290194339999999      10.411608449999999      3.9867536299999999
   348   1      14.316140600000001             10.33657391      4.0703247999999999
   349   1      18.637718979999999             10.67106521      4.2168307699999996
   350   1             22.31125278             10.59356122      4.0765026600000001
   351   1      26.459303479999999             10.65372406              4.12968402
   352   1      30.469526699999999      10.261710770000001      4.1561184600000001
   353   1      32.635852499999999             14.02591834      3.9663900999999999
   354   1      4.3160894699999997             14.11719529      4.2030694799999999
   355   1      8.1147138900000009      14.014243309999999              3.91699609
   356   1      11.929782149999999             13.90982779      4.2328474299999996
   357   1      16.405890880000001      14.022869610000001      4.0816579300000004
   358   1             20.36963729      14.102605110000001      4.0207397199999999
   359   1      24.126941890000001      14.156326269999999      3.8835794699999999
   360   1      28.551730339999999      14.049323619999999      4.2848497200000004
   361   1      2.1331628600000001             17.37166487      4.0162011599999996
   362   1      6.0805677899999999      17.619992929999999      4.2631543399999998
   363   1             10.09709563      17.552338150000001      3.9766624199999998
   364   1             14.23411001      17.531703409999999      4.0712179700000002
   365   1      18.222290430000001      17.402240970000001      4.2958603699999998
   366   1      22.205167830000001      17.693016270000001      4.0665818500000004
   367   1      26.575411729999999      17.642359249999998      3.9869115700000002
   368   1      30.513371630000002      17.688066169999999      4.0804184000000001
   369   1    0.083854689999999996      21.101121460000002      4.0118655700000003
   370   1      4.1342957199999999             21.02195498      4.0630796299999998
   371   1      8.0597729999999999      21.114283690000001      4.1376105499999998
   372   1      12.131107979999999             21.07943925      4.0497579200000002
   373   1      16.145912450000001      21.209993829999998              3.99473776
   374   1      20.222149040000001      20.964842350000001      4.0427693199999997
   375   1             24.52839942             21.20452564      4.2147225199999996
   376   1      28.615491819999999      21.186563289999999              3.89994474
   377   1      2.1882195800000002      24.528288320000001      3.9992635999999999
   378   1      6.2695018999999998      24.365021209999998      4.3082438200000004
   379   1      10.159435159999999      24.639196819999999      4.1304467999999996
   380   1      14.279163459999999      24.418461820000001      4.2312647700000001
   381   1      18.451452029999999      24.502884399999999      4.0202675899999996
   382   1      22.340251389999999      24.518559310000001      4.1545069200000002
   383   1             26.40845891      24.481129060000001      3.9216162200000002
   384   1      30.628320689999999      24.629754210000002      4.1201886400000003
   385   1      1.9854599100000001      1.0560438700000001      4.7713188799999999
   386   1      6.0820950800000002              1.10872795      5.1056238199999999
   387   1             10.20953609      1.2245538600000001      5.0005133400000004
   388   1      14.014477640000001              1.22753098      5.0037663099999996
   389   1      18.282419430000001              1.28499809      4.8945154000000004
   390   1      22.253678180000001              1.16583623      4.9412443799999997
   391   1             26.24417085              1.25272484      4.9966840599999998
   392   1             30.50532209      1.2016342799999999      4.8574686500000004
   393   1      32.588091370000001      4.7284663699999996      5.0351371499999997
   394   1      3.9453651399999998      4.6079875000000001      4.9768682599999998
   395   1      8.0983718899999992      4.4556361400000002      5.1025317299999999
   396   1             12.12809161              4.66474791      5.0102773599999999
   397   1      16.301000729999998              4.71000759      5.0237443300000004
   398   1      20.310892370000001      4.8218954900000002      4.8053127199999999
   399   1      24.366545250000001      4.5529994599999997              4.96842936
   400   1             28.30770875      4.7475312000000001      4.8738877399999998
   401   1      1.9872020100000001      8.2019629300000005      5.1494900899999996
   402   1      6.2396292899999999      8.1249095199999992      5.1885041699999999
   403   1              10.0982193              8.00477667      5.0322062599999997
   404   1      14.502946120000001      8.2241920499999992      5.1342149099999999
   405   1      18.313792490000001      8.2340878499999999      4.8650696699999996
   406   1      22.344299970000002      8.3074207799999993      4.9831520899999999
   407   1      26.461982280000001      8.2971682700000002      4.8732641399999999
   408   1             30.54851322      8.1022938900000003      5.1641470800000002
   409   1   0.0099260300000000006      11.710505919999999      4.9120095499999996
   410   1      3.8541072000000001      11.696079810000001      5.0787649400000001
   411   1      8.1975036299999999             11.65499127      4.7711819799999997
   412   1             12.38835237             11.57479682      4.9033053999999998
   413   1             16.22435201      11.702912960000001      4.8915188799999996
   414   1      20.457406469999999             11.78255392      5.1538576000000003
   415   1      24.237839149999999      11.978275549999999      4.9102008499999998
   416   1      28.307629420000001      11.651518749999999      5.0932500200000002
   417   1      2.0832917499999999      15.243424449999999      5.0155057999999997
   418   1              6.20811431              15.2070904      4.9951698999999996
   419   1      9.9565486199999995              15.0391806      4.8722221699999997
   420   1             14.17140208      15.206647090000001      4.9113104099999996
   421   1      18.365047789999998             15.15553568      4.8870213500000004
   422   1      22.390403840000001             15.41309513               4.8945181
   423   1             26.15859171             15.10781295              4.83939159
   424   1      30.556037270000001      15.156228949999999      4.7863457299999999
   425   1   -0.032489329999999997      18.824334629999999      4.7371695200000001
   426   1      3.9210369200000001             18.74300315      4.9470994399999997
   427   1      7.9703327799999997             18.91573648      5.0516287899999996
   428   1      12.190708219999999      18.602209160000001      4.8967859799999998
   429   1             16.12436744              18.7885992      4.8561079400000002
   430   1      20.202863600000001      18.769005490000001               4.8674947
   431   1      24.368270750000001      18.734698980000001              5.04571448
   432   1      28.390875350000002      18.933055289999999      4.9508297199999998
   433   1      2.0550316899999999             22.19091134      4.8861864500000003
   434   1              6.10028682      22.173178660000001      5.0765300499999997
   435   1             10.09316398             22.36671449      4.9907474900000004
   436   1             14.12511295      22.164643959999999              4.95227504
   437   1      18.260824459999998             22.15835409      4.9834702499999999
   438   1      22.349512520000001      22.217534310000001      4.9424415699999997
   439   1             26.59749304             22.40592672      4.9243337499999997
   440   1      30.428873710000001      22.374319209999999      4.9195301599999999
   441   1      32.474799449999999      25.834326789999999              4.90097804
   442   1      4.1808308199999997      25.614880719999999      4.8840090199999997
   443   1      8.0570506999999996      25.769774519999999      5.0014872500000003
   444   1      12.012334040000001             25.74153819      5.0192902999999998
   445   1      16.298668589999998      25.810029239999999      4.8825791499999998
   446   1             20.39759862      25.672567910000001      5.0330694600000001
   447   1      24.250406430000002      25.829611499999999              4.86801773
   448   1             28.31611711             25.79970063      4.8036534700000004
   449   1              0.04000008      2.3319532299999999      5.4542563399999997
   450   1      4.0939615500000004      2.3548383300000002      5.6975882999999996
   451   1      8.1076017399999998      2.3184902599999999      5.9370958800000002
   452   1      12.384698889999999      2.3876553299999999      5.7178338000000002
   453   1      16.344731620000001      2.3515698999999999      5.7775142500000003
   454   1      20.249748910000001      2.3367774400000001      5.6525956500000003
   455   1      24.255105799999999      2.3740589700000001      5.6259404499999999
   456   1      28.396829180000001      2.4619645399999999      5.7164021299999996
   457   1      2.1340885200000002      5.9822617999999999      5.8303844800000002
   458   1      5.9928664100000004      5.5572328200000003      6.0495669200000002
   459   1      10.160321659999999      5.7563142300000001      5.5960829399999996
   460   1             14.32936087      5.7924122499999999      5.7501086600000004
   461   1      18.246147610000001      6.0098875300000003              5.80108845
   462   1             22.20775385      5.8350700499999997      5.6293255000000002
   463   1      26.186309959999999      6.1079093699999998      5.7250789199999996
   464   1             30.45946923              5.79664672      5.9062503499999996
   465   1      32.613810639999997      9.2792738200000002              6.00155978
   466   1      4.1414983300000001      9.4292288600000003      5.7595033999999998
   467   1      8.2238688900000003      9.2890892100000002      5.8926784100000003
   468   1      12.416817590000001      9.1955677300000005      5.8555963999999996
   469   1      16.370116500000002      9.5874976800000002               5.9276016
   470   1             20.46295782      9.4827074699999994      5.8554123499999999
   471   1      24.378977039999999      9.5426123500000006      5.7458518600000001
   472   1      28.307808210000001      9.2865698499999993      5.8150100800000004
   473   1      2.0335717600000001             12.93770722      5.8189016499999999
   474   1      5.9327110899999997      12.771829990000001      5.6712214899999998
   475   1      10.267265500000001      12.846756170000001      5.9100103500000003
   476   1             14.18820148             12.66217921      5.8724436200000003
   477   1      18.165965889999999      12.887456009999999      5.8812071599999998
   478   1      22.311611460000002      13.162380000000001      5.7442314000000003
   479   1             26.42498509             13.03619814      5.8680040800000004
   480   1              30.3566015             12.68786081      5.7805244599999996
   481   1             -0.02220797      16.410324970000001      5.7803058900000002
   482   1      4.1053340900000004      16.395242660000001              5.80096671
   483   1      8.0893624099999997      16.550472989999999      5.7164835399999996
   484   1             12.10770821             16.18190126      5.7068947100000003
   485   1      16.308739150000001      16.383265489999999      5.9028373700000003
   486   1      20.279741900000001      16.658072019999999      5.7299850699999997
   487   1      24.488780340000002      16.676079510000001      5.9004021199999999
   488   1      28.387501319999998             16.39103021      5.7439436600000002
   489   1      1.8645886599999999      19.949311940000001      5.7501140199999998
   490   1              5.97040141             19.95573169              5.77902746
   491   1      10.247340700000001      19.896178379999998      5.7278392299999998
   492   1              14.3404983             19.82840414      5.9463818599999998
   493   1             18.12634843             20.00237903      5.7859549699999997
   494   1      22.353128000000002      19.971797720000001      5.9173505300000002
   495   1      26.432316190000002      19.924258630000001      5.7917827300000004
   496   1      30.351570169999999      19.924294580000002      5.7765178099999996
   497   1     0.19527025000000001      23.572153010000001      5.8298119599999998
   498   1      4.1895981600000001      23.510648119999999              5.91587745
   499   1              8.10205442      23.492230159999998      5.9260254899999998
   500   1             12.17654679             23.35107103      5.7966747200000004
   501   1      16.208803719999999              23.2395061      5.7220400199999997
   502   1      20.300620380000002             23.34080299      5.6620461000000004
   503   1             24.38835327             23.47561061              5.77692826
   504   1             28.46825604             23.51993281      5.8528455199999998
   505   1      2.1149319599999998      26.935760609999999      5.6020285799999998
   506   1      6.2063532099999996      27.036713429999999      5.8722766999999996
   507   1             10.15503904      27.035020469999999      5.8951525699999996
   508   1             14.04770916      26.794272159999998              5.90122459
   509   1      18.294918289999998      27.065538499999999      5.7502628099999997
   510   1      22.266046960000001      26.933927140000002      5.8337962900000004
   511   1      26.479048580000001      26.931129210000002      5.8550804300000001
   512   1      30.307387330000001      27.003357479999998      5.7134255500000002
   513   1    -0.20614073999999999  -0.0060542800000000004      6.4537502900000003
   514   1              4.05624289   -0.084363190000000005      6.3520131900000001
   515   1      8.2147030999999995      28.235127469999998      6.6716512799999999
   516   1      12.124792319999999             -0.12248275      6.5554206300000004
   517   1      16.204628400000001             28.18284585      6.7086826100000003
   518   1             20.24333618   -0.039077349999999997      6.3515040000000003
   519   1             24.44373062             28.22102061      6.6432394800000001
   520   1             28.35150952    0.085498270000000001              6.58192544
   521   1      1.9298282099999999      3.3660075200000001              6.47566504
   522   1      6.0642618300000004      3.3803765700000001      6.6918041400000003
   523   1      10.224378440000001      3.4990059200000001      6.6193351500000004
   524   1      14.176072720000001      3.5786308600000001              6.84288878
   525   1      18.190395779999999      3.5098192799999999      6.3730873600000004
   526   1             22.22002956      3.6810468200000002      6.6056666799999997
   527   1             26.34974497      3.6779534200000001      6.5361802200000003
   528   1      30.308382630000001      3.4939395000000002      6.6433221400000004
   529   1             32.40396844      6.9131413799999999      6.6401721399999998
   530   1              4.05787224      7.2179480399999996      6.7239021000000001
   531   1      8.1046855200000003      6.9378419500000001      6.6805778299999998
   532   1      12.297969289999999      6.9876284799999997      6.6223166999999998
   533   1               16.239117      7.1174174600000004      6.6299426800000001
   534   1      20.326282110000001      7.1422848999999999      6.6302925999999998
   535   1      24.230666809999999      7.0446749000000004              6.54797837
   536   1      28.313358000000001      6.9429173100000003      6.7122474499999996
   537   1      1.9690645200000001             10.70950148      6.7773467099999998
   538   1      6.0227542600000001             10.70451877      6.6906518400000001
   539   1      10.274309179999999      10.444951079999999      6.6267892499999999
   540   1      14.214118539999999             10.42691284      6.6898833199999999
   541   1              18.2971486      10.592858469999999      6.9413645700000002
   542   1      22.465790299999998             10.69676454      6.6013469999999996
   543   1             26.52686271             10.79046915      6.6790629199999998
   544   1      30.335634540000001      10.469743599999999      6.7582133899999999
   545   1    0.093013040000000005      14.047229120000001      6.6759343600000003
   546   1      4.2886125100000001             14.13386947      6.8210585400000001
   547   1      8.0915616900000007             13.98737493      6.5192799700000004
   548   1             12.22767842      13.832633769999999              6.77117609
   549   1             16.07678456      14.018860569999999      6.6880503200000003
   550   1      20.189501929999999      13.954952779999999      6.6566419799999998
   551   1      24.267578360000002             14.31181791      6.4786359899999999
   552   1      28.412565749999999      14.011744910000001      6.8457125300000001
   553   1              1.98844639      17.641081849999999      6.5069542800000004
   554   1      6.1398156999999998      17.632395599999999      6.9079881700000003
   555   1             10.20108802      17.360611169999999      6.6618017900000002
   556   1             14.08486634      17.329380919999998      6.5678033100000004
   557   1      18.288730489999999             17.68231016      6.6873352099999996
   558   1      22.203073669999998             17.67361799      6.5670933800000002
   559   1      26.438702490000001      17.770123590000001      6.6594006200000004
   560   1      30.431482620000001      17.590001040000001      6.5971130200000001
   561   1              -0.1030701             21.17148177      6.5943197199999997
   562   1      4.1681385000000004      21.204430980000001      6.5770644999999996
   563   1      8.2557395499999995      21.048755719999999      6.4585081200000003
   564   1      11.925609809999999      21.237491080000002      6.6699328500000004
   565   1      16.163324800000002      21.086652000000001      6.6098910999999996
   566   1      20.312523429999999             21.14432223      6.4800981699999998
   567   1      24.631332789999998      21.166852209999998      6.6159539000000001
   568   1      28.382169659999999             21.25715237      6.6008447600000002
   569   1      2.1518703000000001      24.741037649999999              6.55225743
   570   1      6.0759093899999996      24.630888330000001      6.8317082600000001
   571   1             10.10130717      24.639404469999999      6.6747340199999998
   572   1      14.134777270000001      24.380195149999999      6.7806974000000002
   573   1      18.107822639999998      24.580251879999999      6.3431865299999997
   574   1      22.329286889999999             24.59312504      6.6374286600000003
   575   1             26.32487558      24.635793140000001      6.6725028100000001
   576   1      30.573981960000001             24.66373741      6.6730720799999999
   577   1      1.9324448299999999              1.04545651      7.2369257300000003
   578   1      5.9976966999999997      1.1013421000000001      7.6075462299999996
   579   1             10.19453167              1.14143083              7.55110101
   580   1      14.219948990000001      1.1573301300000001      7.5342960000000003
   581   1      18.246252070000001               1.2750149      7.3281966799999996
   582   1             22.18795575              1.16872442      7.2916743000000004
   583   1      26.464552789999999              1.20818271      7.5610397100000002
   584   1      30.278370649999999      1.0458506299999999      7.5595927999999999
   585   1      32.449551569999997      4.7031548399999998              7.60929565
   586   1              4.01524854      4.5805065300000001      7.5563658699999996
   587   1      8.0290144699999999      4.6223604600000003      7.7975166800000002
   588   1             21.87953087              1.01025455      9.6627681800000005
   589   1      16.512469100000001      4.7748593000000001      7.5190511500000001
   590   1      20.216515579999999      4.6517927600000002      7.1507046299999999
   591   1      24.183728250000001      4.7257676599999998      7.3478385900000003
   592   1      28.295903710000001      4.6821815500000001      7.4215336599999997
   593   1      1.9415440900000001      8.1229990099999991      7.5624399499999999
   594   1      6.2445374600000001      8.3377426799999999      7.6385504800000001
   595   1             10.24749855      8.0684884399999994      7.3999578399999999
   596   1      14.266395320000001      8.0815864800000003      7.7928574800000003
   597   1      18.397008840000002      8.2407135199999999      7.4228684200000004
   598   1      22.423647590000002      8.2517302699999995      7.3924744499999999
   599   1      26.473190410000001      8.3638056200000008      7.4762584099999998
   600   1             30.38535439      8.2310455699999991      7.6964353900000004
   601   1             32.25221904             11.58614203      7.5671302999999996
   602   1      3.9632661499999999             11.88639197              7.70847309
   603   1      8.1561624699999999      11.723734260000001      7.4024072700000003
   604   1      12.347030520000001             11.59833866              7.50300558
   605   1      24.092480299999998      4.9225360399999998      9.8696948899999999
   606   1      20.638867999999999      11.914653619999999      7.4723686499999999
   607   1      24.468608360000001      11.943053920000001      7.5669942800000003
   608   1             26.60192198      8.1744348299999992      9.8466524900000003
   609   1              2.11248054             15.16848639      7.3797229800000004
   610   1      6.2122802300000002      15.333951470000001      7.5600502799999996
   611   1             10.14837777             17.67360875      8.9224974800000005
   612   1      14.238375769999999             15.26653509      7.8949211000000004
   613   1             18.18430493      15.148075159999999      7.5389379300000003
   614   1      22.089130399999998      15.360069129999999              7.36799743
   615   1      26.429624799999999             15.46142073      7.4283307000000001
   616   1             30.38156798             15.32575467      7.2042459599999997
   617   1      32.428907500000001      18.722140150000001      7.4964995400000003
   618   1      3.7687183900000001      18.930955709999999              7.48984892
   619   1      8.3053233300000002             18.76678678      7.5358604700000003
   620   1              12.0515086      18.773981500000001              7.42671305
   621   1             16.11864168      18.690459799999999      7.4556736600000004
   622   1      20.269665369999998      18.950563769999999      7.3937843000000001
   623   1             24.36605741      18.834253919999998      7.5056825399999996
   624   1      28.479470030000002             18.83011668      7.4934980400000004
   625   1      2.3437491800000001      22.554172049999998      7.4654665400000004
   626   1      6.3053477600000001      22.334322660000002      7.5395864000000001
   627   1             12.35367231      14.095011080000001      9.0343903900000004
   628   1      13.959045140000001      22.204980419999998      7.4339570300000002
   629   1      18.220235020000001      22.160240519999999      7.5613138199999996
   630   1             22.33857038             22.26483867      7.3761456699999997
   631   1      26.374664419999998             22.37694217      7.6023526300000004
   632   1             30.47398948      22.284916240000001      7.4830503999999998
   633   1   0.0088126200000000002      25.739630930000001      7.1865747200000003
   634   1      4.1577646599999998              25.9093798      7.7024666599999998
   635   1      8.1592357500000006             25.67997433      7.5613821000000003
   636   1      12.030649159999999      25.717507900000001      7.5268190800000001
   637   1      16.225817209999999      25.640972999999999              7.20052424
   638   1      20.240431940000001      25.791541550000002      7.5572424700000003
   639   1      24.309308649999998      25.723147059999999      7.6610865199999996
   640   1      28.489955200000001      25.745566849999999      7.3433784800000002
   641   1      3.8005547200000001      6.9648211299999998      8.9961668600000007
   642   1   -0.039742270000000003     0.34470610000000002      9.0486748200000005
   643   1      8.0761176900000002      7.0703840900000001      9.3136875499999991
   644   1      12.849476210000001             20.49777782              8.95607547
   645   1               10.003489              22.4869603      7.5193227900000004
   646   1             28.58367535               0.2125628      9.2336346900000006
   647   1      22.494264879999999      3.3957880299999998      8.9900280699999993
   648   1      10.004973489999999              3.59515619      9.0355371099999999
   649   1              4.18097751      16.726418379999998      8.2321449799999993
   650   1      2.2528050500000001      24.860721909999999      8.9432401800000001
   651   1             18.24372949      24.373350599999998      8.8147095199999992
   652   1             20.50724404      9.6489998299999993      8.3716005199999994
   653   1      18.256545880000001             12.78910449      8.4249511600000009
   654   1      5.9428026799999998      19.659114710000001      8.1610993000000001
   655   1             28.57178497      26.108267680000001      9.8114707299999999
   656   1             10.16381954      24.642788339999999      9.1921663200000001
   657   1             10.12922833             12.70915258      8.3070839900000006
   658   1              14.1171165      18.316352890000001      8.8999758300000007
   659   1      28.530504759999999      9.3935955100000008      8.3063526999999997
   660   1             16.24307662              2.44470235      8.2599894000000003
   661   1             24.29402335   -0.046314139999999997      9.1554731199999999
   662   1      28.273585279999999      2.5504950499999999      8.2610980299999994
   663   1      17.866591199999998             26.70116973      8.3244087600000007
   664   1      1.8458868500000001      12.906551260000001      8.3482503700000006
   665   1             12.09173689      9.2805310100000007      8.3405478599999991
   666   1             12.24938528      16.456109850000001      8.0514633199999999
   667   1      7.7669169800000004      21.142028610000001      8.9712496999999995
   668   1             16.15431439      11.639917909999999      7.5777569400000004
   669   1      6.1654823199999997      10.571721800000001      8.9304906800000001
   670   1             30.31932252      5.7903083300000002      8.2892562099999996
   671   1      32.624418409999997      9.2939397499999998      8.2941680600000005
   672   1             32.43711124      21.252902370000001      8.9827457899999992
   673   1    0.078119359999999999             23.65779667              8.16057305
   674   1              4.06844962      21.222974690000001      8.9984547500000005
   675   1      20.041204839999999             16.64252913      7.8983013599999996
   676   1      12.149715219999999              2.43147241      8.2937771199999997
   677   1      20.399855890000001              4.83307894      9.4451704099999994
   678   1      16.188980269999998      16.499257069999999      8.4807471499999991
   679   1      28.360199000000001               4.5794948      9.8594747900000002
   680   1      28.517107249999999              11.8071296      7.5799723099999996
   681   1      32.322599910000001      2.2635481999999998      7.7754382299999998
   682   1             10.22742764      15.151490450000001      7.6746620600000002
   683   1              3.90578841    0.099181270000000002      8.8627779699999998
   684   1      8.1605153300000008             11.40442477      9.8312959499999995
   685   1      18.162206820000002      19.750185099999999      8.2339014699999993
   686   1             14.33106147      12.709123229999999      8.5117484000000001
   687   1             14.32545161      5.5683003900000001      8.1923031500000008
   688   1      16.085816139999999             14.16053977      9.1896813099999992
   689   1      24.276559410000001      21.109645090000001      9.1323113300000003
   690   1      32.544845359999997      16.345971129999999      8.2797759099999997
   691   1      32.213058969999999      7.0810059900000004      9.4052446500000002
   692   1      18.395185309999999      3.6925524200000002      8.9857798300000002
   693   1             14.15985195             10.47953837      9.1445567400000005
   694   1      24.287073620000001      7.2527622699999998      8.9710675900000005
   695   1             22.18262348      27.021105989999999      8.4342553999999996
   696   1      2.0534103899999998             17.79958379      9.0926784999999999
   697   1      7.6797801000000003      4.5710818900000003             10.14975681
   698   1      14.283911229999999             26.81916421      8.2569824500000006
   699   1      20.328629469999999      2.3844983100000001      8.1970303599999994
   700   1      9.9080207500000004             27.04569377      8.3095521899999998
   701   1      19.817854239999999             28.15382979      8.5879069300000008
   702   1             24.31313201      23.312556279999999      8.1797350400000006
   703   1             19.97447455             25.48061053             10.00550449
   704   1      26.588952939999999             17.77116904      8.9228798699999992
   705   1      1.6687237500000001      3.3684092300000001      9.0590566599999995
   706   1      3.6789046000000001      4.4988939700000001      9.8701881100000008
   707   1             15.19577237      20.655598189999999      8.5904541600000002
   708   1      19.965182670000001             21.00680629      9.1280515900000001
   709   1      22.490608479999999             24.64084794      8.9813512099999997
   710   1      20.497994340000002      23.406936680000001      8.2105632699999997
   711   1              1.95677323              5.66501638      8.5271918800000002
   712   1              0.12936823      25.896978310000001              9.74046536
   713   1             26.28034121      1.0639638499999999      9.9311664000000004
   714   1      1.9482450899999999      20.142803229999998      8.0586400099999995
   715   1              1.83836227      26.958590510000001      8.2012112899999998
   716   1             11.95869285   -0.058892880000000002      9.1136032900000004
   717   1      26.378139860000001      24.450004929999999      9.0545081199999995
   718   1      28.565646409999999      6.9341436200000004      9.2507149099999992
   719   1      30.566735220000002      10.492174159999999               9.1500664
   720   1      30.524472809999999      3.3736695000000001      9.1227301700000005
   721   1      4.1094329299999997      9.4050925700000008              8.33749115
   722   1      5.8996681400000002      3.1044410299999998      9.2499337300000004
   723   1      8.3086173900000002      9.6194524700000006      8.3662012800000003
   724   1      5.5591380800000003      8.4427110800000005      10.153689180000001
   725   1      9.9990716499999994      8.5175240799999994      9.9137788600000007
   726   1             20.17030579      7.3463809600000003      9.3837716100000002
   727   1      16.046191969999999      23.382125940000002      8.2896149300000008
   728   1             22.38723529      13.423357810000001      8.4281014400000007
   729   1      8.0945327299999992              14.1469887      8.9296906099999998
   730   1             12.07377593      4.7772764900000002      7.8347535300000004
   731   1             11.88681557      6.8582197499999999      9.0361412199999993
   732   1      16.399719109999999      9.4328627600000008      8.3211369299999998
   733   1      22.337564239999999      19.830579100000001      8.3061754600000004
   734   1             30.55751265      24.450957299999999      9.0418171600000008
   735   1             24.25548684      2.2407486699999999      8.0647683499999996
   736   1      8.1626139900000005      16.573323640000002      8.0972395400000003
   737   1      30.415066459999998      20.088254169999999              8.26226561
   738   1      24.566943290000001      9.6451481900000005      8.0938666399999999
   739   1      10.270584850000001      10.495501470000001      8.9358633300000001
   740   1             26.39921996      5.8991049799999997      8.6070915600000006
   741   1      22.091385460000001             17.63651801      9.0353824800000009
   742   1      26.038094569999998      3.5168006699999999      9.0425910199999997
   743   1      22.308809449999998      5.9516563199999997      8.2884713600000008
   744   1      30.468597800000001              13.3314661      8.2184624500000005
   745   1             24.39713639      16.278665419999999      8.4652775200000008
   746   1      6.0398233599999998      12.892200709999999      8.4868192199999992
   747   1      10.234846490000001             20.07220178      8.3012077600000005
   748   1      4.3875311100000003             23.39050319      8.4124624200000007
   749   1             22.48710926             10.88572774      8.8958968899999995
   750   1      28.644803679999999      16.464487999999999      8.0849802799999999
   751   1      26.350196409999999             20.04721241      8.3553292900000002
   752   1              3.62251828             14.35720441      9.1144534400000001
   753   1      8.1027268499999998      23.511196129999998      8.4341940399999995
   754   1      8.0423987300000004              2.27005634      8.4979420900000004
   755   1      5.8622455699999998      5.6789488099999996      8.5578108999999998
   756   1      6.2764385799999998      26.859808149999999               8.3511796
   757   1               3.7795272      2.3635919699999999      8.2448403100000007
   758   1             26.43090059      26.846826849999999      8.4748943200000006
   759   1             26.36602834      12.978502860000001      8.2943853999999995
   760   1      28.392509759999999      23.380138639999998      8.2644082300000008
   761   1             12.18851366      23.532853830000001      8.3242808499999992
   762   1      26.527948970000001      10.613266189999999      9.2609797399999998
   763   1              9.88066684      5.8710868600000001               8.3219493
   764   1             14.22734142      3.2997934600000001      9.1579770499999995
   765   1      18.271908440000001      6.1480574600000004      8.3779275900000005
   766   1      22.060166070000001      22.293719840000001      9.6528823900000003
   767   1             30.43150777      18.051809859999999      9.0286349599999998
   768   1             30.41186699      26.955546649999999      8.4672440400000006
   769   2      21.539315129999999      6.4093592199999998               10.226264
   770   2      23.266455239999999      6.4661845800000002      10.252436919999999
