N2-dn2-coord-10bar/700K/snapshots/frame-145158/run-000/../data.lammps (written by ASE) 

770 	 atoms 
2  atom types
0.0      32.470343392086264  xlo xhi
0.0      28.120142247150884  ylo yhi
0.0      31.213473999158239  zlo zhi


Atoms 

     1   1      2.0293964600000001      1.1716090800000001    0.023552650000000001
     2   1      6.0880008999999999              1.17168918              0.02556874
     3   1      10.146952280000001              1.17170328    0.025416459999999998
     4   1      14.205754900000001      1.1716496700000001              0.02501565
     5   1             18.26456816              1.17166478              0.02504435
     6   1             22.32338141      1.1716496700000001              0.02501565
     7   1      26.382184030000001              1.17170328    0.025416459999999998
     8   1      30.441135410000001              1.17168918              0.02556874
     9   1  9.1780000000000006e-05      4.6866847900000002    0.025581599999999999
    10   1      4.0587011400000002      4.6866847900000002    0.025581599999999999
    11   1      8.1174961000000003      4.6866290399999997    0.025584639999999999
    12   1             12.17638011      4.6866852999999997              0.02491202
    13   1             16.23517979      4.6866942700000003    0.025006210000000001
    14   1      20.293956519999998      4.6866942700000003    0.025006210000000001
    15   1      24.352756209999999      4.6866852999999997              0.02491202
    16   1      28.411640219999999      4.6866290399999997    0.025584639999999999
    17   1      2.0293964600000001      8.2016395800000002    0.026613040000000001
    18   1      6.0881071599999999      8.2016314300000008              0.02543782
    19   1             10.14701835               8.2017045    0.025156850000000001
    20   1      14.205766049999999      8.2017080900000003    0.024990459999999999
    21   1             18.26456816      8.2017077599999997    0.025091249999999999
    22   1      22.323370260000001      8.2017080900000003    0.024990459999999999
    23   1      26.382117969999999               8.2017045    0.025156850000000001
    24   1      30.441029149999999      8.2016314300000008              0.02543782
    25   1  9.2789999999999998e-05             11.71671873    0.025573410000000001
    26   1              4.05870014             11.71671873    0.025573410000000001
    27   1      8.1176017700000003             11.71668698              0.02497914
    28   1             12.17637068             11.71673069    0.025001590000000001
    29   1      16.235177310000001      11.716730249999999    0.025074039999999999
    30   1      20.293959009999998      11.716730249999999    0.025074039999999999
    31   1      24.352765640000001             11.71673069    0.025001590000000001
    32   1      28.411534549999999             11.71668698              0.02497914
    33   1      2.0293964600000001             15.23167155              0.02525285
    34   1      6.0881728300000004      15.231678799999999    0.025062859999999999
    35   1             10.14698486      15.231762639999999               0.0250786
    36   1             14.20578841             15.23176782    0.025201990000000001
    37   1             18.26456816              15.2317707    0.025149979999999999
    38   1      22.323347900000002             15.23176782    0.025201990000000001
    39   1      26.382151459999999      15.231762639999999               0.0250786
    40   1      30.440963480000001      15.231678799999999    0.025062859999999999
    41   1      32.470327990000001      18.746748629999999    0.024951939999999999
    42   1      4.0588083299999997      18.746748629999999    0.024951939999999999
    43   1      8.1175770200000006      18.746803499999999    0.025222040000000001
    44   1             12.17637459      18.746799750000001    0.025428470000000002
    45   1      16.235159400000001      18.746805200000001    0.025487360000000001
    46   1      20.293976919999999      18.746805200000001    0.025487360000000001
    47   1      24.352761730000001      18.746799750000001    0.025428470000000002
    48   1             28.41155929      18.746803499999999    0.025222040000000001
    49   1      2.0293964600000001      22.261939099999999    0.025844880000000001
    50   1      6.0881419299999999      22.261841799999999    0.025489439999999999
    51   1             10.14692954             22.26176895              0.02551757
    52   1             14.20573559      22.261804690000002    0.025639160000000001
    53   1             18.26456816             22.26178625    0.025640119999999999
    54   1      22.323400729999999      22.261804690000002    0.025639160000000001
    55   1      26.382206780000001             22.26176895              0.02551757
    56   1             30.44099439      22.261841799999999    0.025489439999999999
    57   1  5.6450000000000003e-05      25.776936450000001              0.02613327
    58   1      4.0587364700000004      25.776936450000001              0.02613327
    59   1      8.1175325399999991              25.7767713    0.024734180000000001
    60   1      12.176376469999999      25.776831090000002              0.02545323
    61   1      16.235145939999999      25.776775220000001    0.025273360000000002
    62   1             20.29399038      25.776775220000001    0.025273360000000002
    63   1      24.352759840000001      25.776831090000002              0.02545323
    64   1      28.411603769999999              25.7767713    0.024734180000000001
    65   1  0.00024266000000000001              2.34304215     0.80166565000000001
    66   1      4.0585502699999996              2.34304215     0.80166565000000001
    67   1      8.1157394600000003              2.34454954     0.80169402000000001
    68   1             12.17601256      2.3433829099999999     0.80116898000000003
    69   1      16.235258170000002      2.3433209100000001     0.80090046999999998
    70   1      20.293878150000001      2.3433209100000001     0.80090046999999998
    71   1      24.353123750000002      2.3433829099999999     0.80116898000000003
    72   1      28.413396859999999              2.34454954     0.80169402000000001
    73   1      2.0293964600000001      5.8582218700000004     0.80119762000000005
    74   1      6.0870566899999998      5.8583336700000004              0.80194851
    75   1             10.14649655              5.85853131     0.80121584000000001
    76   1             14.20597894      5.8582938599999999     0.80086840999999998
    77   1             18.26456816      5.8583798500000004               0.8010794
    78   1      22.323157380000001      5.8582938599999999     0.80086840999999998
    79   1             26.38263976              5.85853131     0.80121584000000001
    80   1      30.442079629999999      5.8583336700000004              0.80194851
    81   1  0.00019438999999999999      9.3717771800000005     0.80082061000000004
    82   1      4.0585985400000002      9.3717771800000005     0.80082061000000004
    83   1      8.1175070500000004      9.3725002699999997     0.80149060999999999
    84   1      12.176590020000001      9.3733583399999993     0.80088261999999999
    85   1             16.23512199      9.3733789200000004              0.80106506
    86   1             20.29401433      9.3733789200000004              0.80106506
    87   1      24.352546289999999      9.3733583399999993     0.80088261999999999
    88   1      28.411629269999999      9.3725002699999997     0.80149060999999999
    89   1      2.0293964600000001             12.88692854     0.80220621000000003
    90   1      6.0883212999999996             12.88743848     0.80138414999999996
    91   1      10.147128609999999             12.88859852     0.80085256000000005
    92   1             14.20571782      12.888558189999999     0.80113791000000001
    93   1             18.26456816      12.888409899999999     0.80109381000000002
    94   1      22.323418490000002      12.888558189999999     0.80113791000000001
    95   1             26.38200771             12.88859852     0.80085256000000005
    96   1      30.440815019999999             12.88743848     0.80138414999999996
    97   1              0.00012365      16.403222639999999     0.80145666999999998
    98   1      4.0586692700000002      16.403222639999999     0.80145666999999998
    99   1      8.1174337899999998      16.403825260000001     0.80097196999999998
   100   1              12.1761021             16.40390721     0.80133072000000005
   101   1             16.23503496      16.403861750000001     0.80140014999999998
   102   1      20.294101359999999      16.403861750000001     0.80140014999999998
   103   1      24.353034220000001             16.40390721     0.80133072000000005
   104   1      28.411702529999999      16.403825260000001     0.80097196999999998
   105   1      2.0293964600000001      19.919205120000001     0.80066369999999998
   106   1              6.08752564             19.91894023     0.80122479000000002
   107   1      10.146078839999999             19.91919038     0.80159137999999996
   108   1      14.204993419999999              19.9192584     0.80178742000000003
   109   1             18.26456816      19.919377350000001     0.80194975999999996
   110   1      22.324142899999998              19.9192584     0.80178742000000003
   111   1      26.383057470000001             19.91919038     0.80159137999999996
   112   1      30.441610669999999             19.91894023     0.80122479000000002
   113   1              0.00142012      23.434536609999999     0.80178442000000005
   114   1      4.0573728100000004      23.434536609999999     0.80178442000000005
   115   1      8.1165862000000004      23.433936769999999     0.80182306000000003
   116   1             12.17555218      23.433996919999998     0.80156656000000004
   117   1             16.23465491      23.434040110000002     0.80170828999999999
   118   1      20.294481409999999      23.434040110000002     0.80170828999999999
   119   1      24.353584130000002      23.433996919999998     0.80156656000000004
   120   1      28.412550110000002      23.433936769999999     0.80182306000000003
   121   1      2.0293964600000001      26.949875330000001              0.80297246
   122   1      6.0858208300000003      26.950066320000001              0.80215291
   123   1             10.14598146      26.949241430000001     0.80165810000000004
   124   1             14.20520604      26.948673230000001     0.80131923999999999
   125   1             18.26456816             26.94858318     0.80108193999999999
   126   1      22.323930279999999      26.948673230000001     0.80131923999999999
   127   1      26.383154860000001      26.949241430000001     0.80165810000000004
   128   1             30.44331549      26.950066320000001              0.80215291
   129   1              0.23780624      28.113204880000001      1.6048636700000001
   130   1      4.0881839199999996      28.079086960000001      1.7075610400000001
   131   1      8.0933055500000002      28.112865960000001              1.53178941
   132   1             12.29008498             28.11557796      1.5275194400000001
   133   1      16.166931309999999      27.984279860000001              1.40947684
   134   1      20.335817380000002     0.12924044000000001              1.59373656
   135   1      24.321782890000001             28.07959816      1.5379533999999999
   136   1      28.410239019999999    0.080153500000000003      1.5343775099999999
   137   1               1.9517419      3.5194258399999998              1.42025779
   138   1      6.1158978599999996      3.5507463399999999              1.53559629
   139   1             10.15061467      3.3815592200000002              1.28296784
   140   1             14.14365461              3.50110228      1.7633056899999999
   141   1      18.203139159999999      3.4644100299999998              1.66167358
   142   1      22.205952310000001      3.6028500399999999      1.4515699500000001
   143   1             26.31716471              3.52455053      1.5406170800000001
   144   1      30.316432809999998      3.4975708399999998      1.5577875999999999
   145   1      32.452677350000002      6.8975911999999999              1.39712222
   146   1              4.00719972      7.1534155300000002              1.57694019
   147   1              7.95435289      7.1326069399999996      1.5295665300000001
   148   1             12.25287732      7.0086814500000001      1.3442367900000001
   149   1             16.24804859      6.9476121500000003              1.49611066
   150   1      20.387337809999998      6.9752949800000001      1.5229744599999999
   151   1      24.356098509999999      7.1029499600000001      1.5183714500000001
   152   1             28.42472287              6.91848653      1.5409861199999999
   153   1              1.92969013             10.46270994              1.57434859
   154   1      6.0345807000000002      10.577362750000001      1.5798848000000001
   155   1      10.334452499999999             10.62023563      1.2870237099999999
   156   1      14.080068860000001      10.539845939999999              1.47631427
   157   1      18.280653059999999             10.49203419              1.53903368
   158   1      22.240190429999998             10.66711471      1.4473537700000001
   159   1      26.432108119999999             10.55849549              1.42633159
   160   1      30.343674400000001      10.615260190000001      1.3760618600000001
   161   1      32.433524439999999             13.96332885      1.4829451899999999
   162   1      4.0327360700000003             14.02226759              1.48247182
   163   1      8.2313775800000002             13.96475978      1.4695604200000001
   164   1             12.15153855             14.02404385              1.33163198
   165   1      16.266806849999998      13.994390259999999              1.61549934
   166   1      20.294966769999998      14.129983989999999      1.2964751800000001
   167   1             24.26713762             14.17026111              1.46731488
   168   1      28.392146279999999             14.08166525      1.4375672900000001
   169   1      1.9370476299999999      17.643562209999999              1.49467536
   170   1      6.1955892099999996      17.515002899999999              1.59519554
   171   1             10.20093825      17.657837239999999              1.35252346
   172   1      14.175712369999999      17.544354940000002      1.6870187699999999
   173   1             18.11147223      17.475325479999999      1.4394435800000001
   174   1      22.269233289999999      17.617802099999999              1.55565025
   175   1             26.31595991      17.617501430000001      1.2782703799999999
   176   1             30.48533011             17.54291439              1.40922182
   177   1    0.063080780000000003      21.189724200000001      1.3465386399999999
   178   1      3.8991100900000002      21.067328849999999      1.4937991500000001
   179   1      8.1385458899999996             21.12814856      1.2990873000000001
   180   1             12.19099059      21.199101299999999      1.3854755599999999
   181   1             16.22906635      21.058335799999998      1.4675658899999999
   182   1      20.276519059999998             20.97197594              1.55298475
   183   1      24.286206119999999      21.127820539999998      1.7033356399999999
   184   1      28.223914610000001      21.106257320000001      1.6058366399999999
   185   1      2.1797282199999999              24.7784443      1.3904179299999999
   186   1      6.1827854200000001      24.504185360000001              1.47553614
   187   1             10.17138647      24.562546739999998              1.54658373
   188   1      14.156830790000001      24.726482140000002              1.45683571
   189   1      18.163703819999999      24.502731359999999              1.48798564
   190   1             22.45574083             24.67652627              1.36637136
   191   1      26.343031740000001      24.552572550000001              1.31552709
   192   1      30.318922730000001             24.62714884      1.2200785999999999
   193   1      1.9835842299999999      1.1769331700000001               2.5974214
   194   1      5.9827697400000002      1.1648190300000001      2.6437267499999999
   195   1             10.15441751      1.2094018799999999      2.4330632699999999
   196   1      14.095260830000001      1.2049044799999999      2.4456326599999998
   197   1      18.252476850000001              1.07416095      2.4899167800000002
   198   1             22.47637503      1.1978056100000001               2.4058899
   199   1      26.284306010000002              1.09927569      2.4554655599999999
   200   1      30.390809869999998      1.0168520299999999      2.4519766500000002
   201   1    0.018592830000000001              4.48990986      2.5210749200000002
   202   1      4.0111945599999999      4.6456121599999998      2.5205628099999999
   203   1      7.9165713499999999      4.8565549399999997      2.3446830599999999
   204   1             12.01515942      4.5931037899999998      2.4436914000000001
   205   1      16.177279599999999      4.4836159799999997               2.5093283
   206   1      20.342583810000001      4.7430542400000002      2.5809396900000001
   207   1      24.213535870000001      4.6431984100000001              2.39775838
   208   1             28.52985344      4.6145542099999997      2.3712364099999999
   209   1      1.9960924499999999      8.1843972199999993              2.49728884
   210   1              6.09990744      8.2741598799999991      2.5535600399999998
   211   1             10.10746445      8.0570663299999996              2.52606171
   212   1      14.076765719999999      8.1774293100000008      2.4128886999999999
   213   1      18.318783790000001      8.1288907100000003      2.4310357499999999
   214   1      22.387644980000001      8.2933829499999998              2.38038588
   215   1      26.645993019999999              8.30097621      2.3177186700000001
   216   1              30.5901806      8.1365660299999991      2.4487083100000002
   217   1    -0.25258198999999998             11.77332841      2.5112946900000002
   218   1      4.0683289599999997             11.77056524      2.4591826299999999
   219   1      8.1238418800000005      11.765368949999999              2.38946251
   220   1             12.13617687              11.7641429      2.4234587599999999
   221   1      16.284554740000001      11.605836800000001      2.4297133199999998
   222   1      20.331138150000001      11.768968320000001      2.3880288799999998
   223   1      24.345748480000001      11.842501159999999      2.4975078700000002
   224   1      28.286389230000001             11.79828185      2.5285884699999999
   225   1      2.1102516699999998      15.405143989999999      2.3753543800000001
   226   1      5.9504271400000004      15.196835330000001      2.3906451299999998
   227   1      10.111863100000001             15.26328614      2.4636333800000001
   228   1      14.058665120000001             15.01909253      2.3383561300000002
   229   1             18.26876279      15.433436029999999      2.4963911900000002
   230   1      22.313753290000001             15.05877401      2.4626530500000001
   231   1      26.315218609999999      15.142298479999999      2.4778378999999999
   232   1             30.28529138             15.11539235      2.3963209600000002
   233   1      32.509287180000001              18.6142276      2.5882327799999998
   234   1      4.1421516900000004             18.62743704              2.42551016
   235   1      8.1290503300000001      18.626657829999999      2.2619445800000002
   236   1      12.179110720000001      18.659464119999999      2.5438509800000002
   237   1      16.365878899999998      18.723563330000001              2.33573268
   238   1      20.459904259999998              18.7899213              2.53932198
   239   1      24.352115479999998             18.66095645      2.7134221900000002
   240   1      28.332346650000002      18.770066419999999      2.5604950299999998
   241   1      1.9559898099999999             22.48464783      2.3634262399999999
   242   1      6.0487458900000002      22.342695989999999      2.3533728599999999
   243   1      10.131748399999999      22.275682870000001      2.4570711799999998
   244   1      14.157670209999999      22.249784590000001      2.4116687099999998
   245   1             18.27798787      22.309791369999999      2.3778806800000001
   246   1      22.174064260000002      22.206390899999999      2.4450184400000001
   247   1              26.4781677      22.474784939999999      2.4484220300000001
   248   1      30.444793870000002      22.337739880000001      2.4926543799999998
   249   1      32.457928920000001      25.842405249999999      2.6126914999999999
   250   1              4.33700055      25.693757219999998      2.3672077300000001
   251   1      8.2043120500000004             25.81601942              2.41495719
   252   1      12.201730489999999             25.66905478      2.4208921600000002
   253   1             16.22136489      25.826377990000001      2.3370756400000001
   254   1      20.402156229999999      25.685382579999999      2.3996650499999999
   255   1      24.421152020000001              25.7401704      2.4029842399999999
   256   1      28.406555099999999      25.741299210000001      2.5679481700000002
   257   1    -0.12244120999999999              2.33047498      3.2993657500000002
   258   1      4.1717632399999998      2.4061558299999999      3.2532708299999999
   259   1      8.0671080499999999              2.45848998      3.3613081899999999
   260   1      12.062163809999999      2.2671438099999999              3.20554432
   261   1      16.302965489999998              2.29843953      3.2941019100000002
   262   1      20.228424650000001              2.24843153      3.2835740699999998
   263   1      24.300839759999999              2.30348497      3.3883404499999998
   264   1      28.334365739999999      2.2724665000000002      3.2158072099999999
   265   1      2.0692974799999999      5.7878502000000003              3.27714018
   266   1              6.02402879      5.9775848099999997      3.3564511100000001
   267   1      10.177280700000001              5.89252486              3.37011321
   268   1              13.8298101      5.8186397599999999      3.4133485499999998
   269   1             18.15549055      5.9419891299999996              3.36356061
   270   1      22.248497010000001              6.02937046      3.4744697499999999
   271   1      26.279843759999999      5.7780970600000003      3.4653805700000002
   272   1      30.472047369999999      5.8806989099999996              3.29857501
   273   1    0.034514709999999997              9.35776626      3.2145891999999998
   274   1      4.0371173000000002      9.2735100799999994      3.4061911199999999
   275   1      8.1340207499999995      9.5062583200000006      3.3281021700000002
   276   1              12.0783141      9.3224849400000007              3.23540663
   277   1             16.08949771      9.4545637300000003      3.1291977800000002
   278   1             20.15272204      9.3572570499999994      3.1875659500000002
   279   1      24.544761430000001      9.3402252099999998      3.3392548099999999
   280   1             28.51090306      9.3453956500000004      3.3005793699999999
   281   1      1.7690026400000001      12.829853870000001              3.31994342
   282   1      5.9800947000000004             12.86198677              3.36997298
   283   1      9.9692618599999996             12.93124317      3.2683373499999999
   284   1             14.19597246             12.68789108      3.2907139700000001
   285   1      18.368252460000001      12.990341020000001      3.1562831099999999
   286   1      22.356523490000001      12.900170190000001      3.2479257399999999
   287   1      26.372137930000001      12.890725979999999              3.26807414
   288   1      30.297557479999998             12.70885578      3.3831381600000001
   289   1      32.383091810000003      16.462207710000001      3.3032111899999999
   290   1      4.1913884299999999             16.29822446              3.07761401
   291   1      7.9172147500000003      16.276489869999999      3.1782273399999998
   292   1             12.20486462      16.340075639999998              3.37078729
   293   1      15.995521399999999      16.183347950000002      3.2870815000000002
   294   1      20.233253359999999      16.398072689999999      3.1987671799999999
   295   1             24.30715326      16.225811220000001      3.2707172999999998
   296   1      28.394304250000001      16.390603070000001      3.2996411299999999
   297   1      2.0605350100000002      19.965897529999999      3.3018272899999999
   298   1      6.1242768200000004             19.88870618      3.1585053799999998
   299   1      9.9445273400000005      19.938605500000001      3.1876629300000001
   300   1             14.19805519      19.796723270000001      3.2793184900000001
   301   1      18.241971280000001      19.922263480000002      3.2889757500000001
   302   1      22.358033420000002      19.987345300000001              3.30449174
   303   1      26.483173310000002             19.77559973              3.40960799
   304   1             30.48625895      19.893781969999999              3.27261896
   305   1    0.034013849999999998      23.428864709999999      3.1911546999999998
   306   1      3.9960754199999999             23.38667323      3.1829656700000002
   307   1              8.15097512             23.55461635              3.30274964
   308   1      12.055378210000001      23.435429509999999      3.1618900999999999
   309   1      16.130406319999999      23.350944670000001      3.3485257100000001
   310   1      20.326647879999999      23.599028669999999      3.5512068399999999
   311   1             24.23571523      23.251134350000001              3.16145136
   312   1             28.44903953      23.508784469999998              3.37879372
   313   1      2.0739319200000002      27.002247690000001      3.4663134499999999
   314   1      6.0048817000000003              27.1214166      3.3663094500000001
   315   1             10.16965469      27.064160229999999      3.3979491999999998
   316   1              14.2589741      26.990093949999999      3.2571112499999999
   317   1      18.321152049999998      26.925089499999999              3.12135359
   318   1      22.423747949999999             26.95931255      3.4478007900000001
   319   1              26.4355777      27.044232600000001              3.44298481
   320   1      30.423718950000001      26.895971429999999      3.3448895099999998
   321   1    0.045234879999999998   0.0030037599999999999      4.0157257199999998
   322   1      4.1356359400000002    0.048416229999999998      4.2454374499999998
   323   1      7.9512280400000002      28.003039560000001      4.1189771799999999
   324   1      12.249059320000001      28.097695959999999      4.2556576799999997
   325   1             16.38159396    0.099159849999999994              3.97874895
   326   1      20.289720840000001  -0.0055981499999999997      4.1007343199999999
   327   1      24.426010720000001      28.098063339999999      4.1926180100000003
   328   1      28.419768139999999   -0.069236359999999997      4.0678246199999997
   329   1      2.0106138699999998      3.2729525700000002              3.93722014
   330   1      6.2085752300000001              3.61636917      4.0629115499999999
   331   1             10.15113734      3.4010383200000001              3.87202403
   332   1             14.08335804      3.6203667199999998      4.2015995400000001
   333   1             18.44160552      3.4376853199999999      4.3075316099999998
   334   1      22.238382099999999      3.6486041600000001      4.1946819700000004
   335   1      26.166134060000001      3.4883976200000002      4.0602782399999997
   336   1      30.313893570000001      3.3841705399999999      4.0546707099999999
   337   1               0.2289756      6.8531669800000001      4.0279541400000003
   338   1      4.2101021799999998              7.09272086      4.1217839700000001
   339   1      8.1543089999999996              7.19602334      4.0739530899999998
   340   1      11.976756330000001      7.0360695900000003      4.1526266300000003
   341   1      16.113959959999999      6.9877710100000003      4.1566865899999996
   342   1      20.187275799999998              7.23948429              4.14586057
   343   1      24.245650810000001              7.05810184      4.1708745599999997
   344   1             28.26822366      7.1120938000000002      4.0864907700000002
   345   1      1.9717969799999999      10.460026340000001      4.1838510800000002
   346   1      6.0766949800000001             10.79760125      4.1246737099999997
   347   1      10.184748920000001             10.64544448      4.1765279700000004
   348   1             14.28193304      10.392603469999999      4.0938948999999996
   349   1             18.26246317             10.53302646      4.0216420700000004
   350   1      22.264983279999999             10.60965362      4.0867125299999998
   351   1             26.51959566             10.45512023      4.1156097300000001
   352   1      30.553109160000002      10.234717849999999      3.9674976700000002
   353   1             -0.23581642      14.048467840000001              4.10585764
   354   1              3.85205062      13.937629599999999      4.2116518999999997
   355   1      7.8671126500000002      14.076765399999999      4.0652180700000002
   356   1             12.15423923             13.96916371      4.0541199900000002
   357   1      16.283709900000002      13.817109950000001      4.0643814300000001
   358   1      20.418180660000001             13.92927004              3.98949657
   359   1             24.36628902             13.95451881      4.1242257599999999
   360   1      28.278643540000001      14.121613910000001      4.0454871199999998
   361   1      2.1104703300000001      17.539981770000001      4.1178958200000002
   362   1      6.2127902199999996             17.65827131      4.2026360599999997
   363   1             10.10308012      17.546854270000001      4.0969559999999996
   364   1             13.99351491             17.46375935              4.47925532
   365   1             18.17069927             17.63316601      4.0895889800000003
   366   1             22.32733606             17.45745732      4.1278482500000004
   367   1      26.255387890000002      17.467303879999999              4.24457459
   368   1      30.320915419999999      17.586422809999998      3.9866765700000002
   369   1    0.038907659999999997      20.942889090000001      4.0383020299999997
   370   1      3.9549139100000001             21.04283689              3.99311141
   371   1      8.2284195400000009      21.162051470000002      4.0965125499999999
   372   1      12.054398450000001      20.988368600000001      4.1124083499999999
   373   1             16.14215579      20.963869079999998      3.9264406200000002
   374   1      20.247511320000001      21.283112509999999      4.2109786700000003
   375   1      24.562016020000002             21.05529859      4.1250672100000001
   376   1      28.530870629999999             21.18470215              4.05688578
   377   1      2.1960198000000002      24.676122419999999              3.77281479
   378   1      5.9961616500000003      24.441177369999998      4.0990902599999997
   379   1             10.12798596      24.472267729999999      4.1602907299999998
   380   1      14.088391420000001      24.516018219999999      4.0084855599999996
   381   1      18.249165919999999      24.609969039999999      4.1791169899999998
   382   1      22.583013990000001      24.714288839999998      4.0187265500000002
   383   1      26.467826890000001      24.562954569999999              4.26085592
   384   1      30.694929850000001             24.46147251      4.1052481399999996
   385   1      2.1432632300000001              1.19563291      5.2349651699999997
   386   1      6.1045095500000004      1.1948910500000001      5.1080806499999998
   387   1             10.16783195              1.10973243      4.7904710899999996
   388   1      14.355087790000001      1.2046052300000001      4.8906350400000003
   389   1      18.353957529999999      1.0234345499999999      4.9087676599999996
   390   1      22.442358899999999      1.1864158300000001      4.8996324099999997
   391   1      26.348888590000001      1.1087446700000001      4.9682725799999998
   392   1      30.409757219999999     0.91888128000000002      4.9907002599999997
   393   1             32.48850968      4.5205144199999996      5.0296048100000004
   394   1              4.17807526      4.8194212700000003      4.8691580400000003
   395   1      8.0867965799999997      4.7089198999999997      4.9056206500000004
   396   1      11.997151710000001      4.7506538999999997      5.0224174499999998
   397   1             16.38689574      4.4383482900000004      5.0765260100000003
   398   1             20.27754242      4.8363642000000002      5.1704355299999998
   399   1             24.33341991      4.6689252699999999      4.9087486399999998
   400   1      28.549189689999999      4.6258024600000001      5.0048727900000003
   401   1      2.1047153000000001      8.1203844299999997      5.0363421800000001
   402   1              6.30168193      8.5965457399999998      5.0645981600000001
   403   1             10.07046877      8.4657659800000005      4.9432511100000003
   404   1      14.092284729999999      8.0720424200000007               4.9350885
   405   1             18.37945208      8.1787994600000005      4.9318826900000001
   406   1      22.521839369999999      8.4282967200000005      5.0446452199999996
   407   1      26.336442680000001      8.1275004600000003      5.0037213600000001
   408   1      30.432472409999999      8.0384156099999995      4.7486665300000004
   409   1             -0.24563472      11.685895090000001      4.7993611200000004
   410   1      3.8970638100000001      11.714185820000001      4.9385827000000004
   411   1      7.9627726599999997      11.769913649999999      4.9925325799999998
   412   1      12.060499350000001      11.643696670000001      4.9371588800000001
   413   1             16.20484544      11.631730749999999      5.0067508299999997
   414   1      20.184144280000002             11.64988385              4.83300237
   415   1             24.42445562             11.62907525      5.0317057299999997
   416   1      28.486901230000001             11.72313162      4.8622785899999998
   417   1      1.7550314199999999             15.17478116      5.1066983800000001
   418   1      5.9699581200000003             15.36438519      4.9425386500000004
   419   1      10.137365539999999      15.209225610000001      5.0077166499999999
   420   1             14.24721394               15.003266      4.7038131300000003
   421   1             18.15308465      15.348577669999999      4.9471004299999999
   422   1      22.359721180000001      15.144750370000001      4.9442057100000003
   423   1      26.263133029999999             15.05623656      5.1354059100000002
   424   1              30.3760133      15.247374600000001      4.9139271300000003
   425   1      32.359221720000001      18.714250740000001              5.02180363
   426   1      4.1356269299999999      18.653412880000001      4.8803298000000002
   427   1              8.16166254      18.874005830000002      4.9163081000000002
   428   1             12.09352647      18.676609150000001      5.1263420599999998
   429   1      16.122556719999999             18.65602179      4.7550945899999997
   430   1      20.325670710000001             18.92921965      4.9472965899999997
   431   1      24.283987230000001      18.616503999999999      5.2690299899999999
   432   1             28.25769691      18.689887649999999              5.16049705
   433   1      1.8688454800000001      22.350609779999999      4.8511177300000003
   434   1      6.0055283099999999             22.32529414      5.0150933499999999
   435   1      10.142666030000001      22.291933419999999      5.0171251400000001
   436   1      14.200483869999999             22.11406096      4.9505864600000002
   437   1             18.13387363      22.315207090000001      5.1404238199999996
   438   1      22.411380950000002      22.300491130000001      4.9243001800000004
   439   1      26.494368680000001      22.205990610000001      4.9978579099999996
   440   1             30.49371429      22.223152729999999      5.2103709399999998
   441   1      32.567860400000001      25.858539650000001      4.9907097599999997
   442   1      4.1464769500000003      25.640025390000002      5.0417331699999997
   443   1      7.9807426399999999             25.85480424      5.0255793200000003
   444   1             12.25289265      25.808173409999998      4.8996725100000003
   445   1      16.177498180000001             25.70689874      4.8123775799999997
   446   1             20.32195759      25.772189279999999      4.9227677200000004
   447   1      24.403284190000001             25.81469422      4.9469075800000004
   448   1      28.706349800000002              25.8235487      5.0724908500000003
   449   1    -0.13238212999999999      2.0914792699999998      6.0490597099999999
   450   1      4.0981053300000001      2.4165649400000002      5.6574615000000001
   451   1      8.1263311500000004              2.31738461      5.7243615700000001
   452   1             12.29887879              2.38927194      5.7521164300000001
   453   1      16.375471019999999      2.2035660400000001      5.9099695299999997
   454   1      20.427956229999999              2.31476104      5.7644787400000004
   455   1      24.202788040000002      2.5066330899999998      5.8813377400000002
   456   1             28.29579515              2.17363288      5.5508893199999996
   457   1              2.27075366      6.0163809099999996      5.8274285499999996
   458   1      6.2667034700000004      6.1389110899999997      5.7707636999999998
   459   1             10.02865603      5.9231612499999997      5.8570548899999997
   460   1      14.224119310000001      5.8308338500000003      6.0540775299999998
   461   1      18.277031690000001      5.8929865799999996      5.7778888500000001
   462   1             22.21544746      6.0261224899999997      5.8363317300000004
   463   1             26.33959441      5.7577206800000003      5.9332620800000004
   464   1      30.678235369999999      5.8695798899999998      5.8020050599999999
   465   1              0.10788878      9.1625567399999994      5.6216447199999999
   466   1      3.9105269900000001      9.5111341199999995      5.7569059200000003
   467   1      8.1728573499999992      9.6044429900000008      5.9362948600000003
   468   1             12.14957918      9.3466535299999993      5.7747686199999997
   469   1      16.218999190000002      9.2106218000000002      5.6192903799999998
   470   1      20.365426530000001      9.3089161699999998      5.7695604899999999
   471   1      24.311205359999999      9.5344948800000004      5.8511538999999999
   472   1      28.431450439999999      9.3110226399999991      5.8232947499999996
   473   1               1.7957489      12.848115229999999      5.7348027500000001
   474   1      5.9370616600000004             12.93285126      5.9088538899999996
   475   1      9.8879033100000004      12.972517659999999      5.8368172500000002
   476   1             14.18473416             12.80819451      5.6887219499999997
   477   1      18.304935870000001      12.796285040000001      5.6782519899999997
   478   1             22.27431794      12.793732479999999              5.81237884
   479   1      26.463602439999999             12.74038766      5.7788066899999997
   480   1      30.409826160000001      13.023338819999999      5.8015287600000001
   481   1             32.27919516               16.396988      5.9960733499999996
   482   1              3.86010433      16.403322020000001      5.7075325000000001
   483   1      8.1289649799999992      16.422003920000002      5.6871078800000001
   484   1             12.08278387      16.325283079999998      5.8778846700000003
   485   1             15.99064969             16.46940893      5.8169286500000004
   486   1      20.455784829999999      16.542416530000001      5.7285202799999997
   487   1      24.293326100000002             16.17936757      5.8564934199999996
   488   1      28.427857289999999      16.356879800000002      5.7451998299999998
   489   1              1.91200123             19.92462192      5.6749819199999996
   490   1      6.1726865399999999      20.015581510000001      5.8095282700000004
   491   1      10.093308950000001      19.966901190000002      5.8459142100000001
   492   1             14.19085402      19.855613949999999      5.8733452100000001
   493   1      18.169273780000001             20.01507282      5.8111367400000002
   494   1      22.385119360000001             19.90898254      6.0313788500000003
   495   1             26.37291652             19.93294204      5.8375166800000002
   496   1      30.209073960000001      19.951846570000001      5.6410936700000001
   497   1     0.13067553000000001      23.368163060000001      6.0208172900000001
   498   1              3.94750801      23.398177660000002      5.5849931599999998
   499   1      8.2014962899999997      23.394108679999999      5.7279421800000003
   500   1             12.09688871      23.433404769999999      5.5954526900000001
   501   1      16.197628399999999      23.300115040000001      5.9068937100000003
   502   1      20.280967530000002      23.569142660000001      5.8083743400000003
   503   1      24.269665920000001             23.31533881      5.8841536200000002
   504   1             28.46599251      23.428691669999999      5.9119758400000002
   505   1      2.0108002100000002      26.923054329999999              6.06001748
   506   1      6.0522590999999997             26.85972645      5.7861465799999996
   507   1             10.34432541      26.891321990000002      5.8768770799999999
   508   1      14.201046460000001      26.778471289999999      5.8304877599999996
   509   1      18.257285809999999             26.84266148      5.6147503199999997
   510   1             22.47531219              26.8297949      5.8257971900000003
   511   1      26.565361710000001      26.831530109999999      5.7872170699999996
   512   1      30.540592820000001      26.823367730000001      5.9257280899999998
   513   1      32.519034580000003      27.998134889999999      6.6789076700000001
   514   1      4.2952099700000002             28.09513969      6.8541896700000002
   515   1      8.1031597099999999             -0.01810465      6.6308535500000003
   516   1             12.27755844              0.02905524              6.73426817
   517   1      16.299868879999998      28.022862440000001      6.5237602399999997
   518   1      20.388524319999998             -0.12223657      6.6294944300000003
   519   1      24.432024219999999      28.120836950000001      6.6144595300000004
   520   1             28.59628901             28.12821988      6.7561701999999997
   521   1              2.06211068      3.4726813499999998              6.51846368
   522   1      6.2077320399999998      3.5780683199999999               6.8161014
   523   1      10.333017740000001      3.5326173000000001      6.8100426699999996
   524   1             14.20218197      3.4673616799999998      6.7921747999999997
   525   1      18.411177519999999      3.4801757100000001      6.8632721700000001
   526   1      22.356167110000001               3.6490581      6.8126092900000002
   527   1      26.352509349999998      3.4597962600000001      6.6068001000000001
   528   1             30.26600144      3.3946615100000002      6.4442080600000002
   529   1      32.658499910000003      6.8933194000000002      6.6222530199999996
   530   1              4.08074564      7.2649144699999999      6.6549833400000002
   531   1      8.2689600700000003      7.1605522400000003      6.7653104800000001
   532   1             11.86374721      7.1787906599999998      6.5789057099999999
   533   1      16.204550309999998      6.9157708199999997      6.6366427100000003
   534   1      20.292751410000001              7.18751154      6.6982602699999996
   535   1      24.244073459999999      6.9938925100000002      6.5094828500000004
   536   1      28.566981779999999      7.0026833100000001      6.4600472199999999
   537   1              1.98852042      10.500124700000001      6.6116553199999997
   538   1      6.1265010000000002      10.630086739999999      6.8061798099999997
   539   1              10.2660087             10.52086742      6.6101033100000004
   540   1             14.17105156      10.348524769999999      6.6456214200000003
   541   1      18.290876740000002      10.391436949999999              6.67570234
   542   1      22.212219510000001             10.48679892      6.4897100099999996
   543   1             26.59392832      10.375969550000001      6.7637484399999996
   544   1      30.690381420000001      10.484936640000001      6.5224422799999999
   545   1              0.01020223             14.13607785      6.7007846100000004
   546   1      3.9537430599999999      14.013221160000001      6.6221219800000002
   547   1      8.1299845000000008              14.0970453               6.5890179
   548   1              12.1966237      13.900256840000001      6.6938428999999999
   549   1      16.244642549999998      14.073478250000001      6.5140053499999997
   550   1      20.373148449999999      14.105048829999999      6.4119853000000004
   551   1             24.37591527             13.83308136      6.5773725799999996
   552   1              28.4371255             14.04772655      6.8036656200000003
   553   1               1.7692873      17.815545490000002      6.8568516300000004
   554   1              6.16713779      17.711585960000001      6.5104225700000002
   555   1      10.203860280000001      17.500287239999999      6.7341777299999999
   556   1      14.152552460000001      17.508679659999999      7.1419305900000003
   557   1      18.257840250000001      17.729199059999999      6.3259670899999998
   558   1      22.358789340000001             17.55115872      6.5508559499999999
   559   1             26.18626841             17.38208792              6.85232799
   560   1             30.48804552      17.837098610000002      6.5857870099999998
   561   1   -0.084948430000000005      20.926999639999998      6.6056421900000002
   562   1              3.92961735      21.035227949999999              6.44641836
   563   1      8.0923339100000007      21.225267800000001      6.6943240299999998
   564   1             12.19548934      20.964012830000001      6.5678504899999997
   565   1      16.168268059999999      21.074889249999998      6.6933972900000001
   566   1             20.36817052      21.239330209999999      6.8344081900000004
   567   1      24.328995849999998      21.112376990000001      6.9477527600000002
   568   1      28.384456360000001      21.340620019999999      6.7712411799999996
   569   1      2.0186017700000001      24.498568200000001      6.8933220300000002
   570   1      6.0723540800000002      24.458240289999999      6.6862238100000004
   571   1      10.003614219999999      24.598316059999998      6.8409079000000004
   572   1      14.044319270000001             24.45032522      6.7065553800000002
   573   1             18.46084076             24.65247836      6.7405552200000001
   574   1      22.289982009999999      24.670812560000002      6.7317152599999996
   575   1             26.38138236      24.555162190000001      6.7805212800000003
   576   1      30.690890830000001      24.790370729999999      6.8204382399999997
   577   1      1.9682032300000001               1.3827741              7.69936066
   578   1      6.3213401899999999      1.1693739999999999      7.6080263400000003
   579   1             10.18009429      1.1619598900000001      7.3001089400000003
   580   1             14.38371047              1.03496166              7.45541286
   581   1      18.495806569999999      1.0889600800000001      7.5976948100000001
   582   1             22.36519977              1.15178746      7.5112101300000003
   583   1             26.24268751              1.00767506      7.5984804700000002
   584   1      30.647309419999999      1.2795035800000001      7.6691638700000002
   585   1    0.053703939999999999      4.5667334799999999      7.4348061000000003
   586   1              4.12407988              4.95638004      7.5650327099999997
   587   1              8.27106502      4.6138214299999998      7.5530963800000004
   588   1      18.401753920000001              1.02482027      9.9328462300000009
   589   1      16.196760529999999      4.4415584499999996      7.7529103800000003
   590   1      20.540107899999999      4.7732972599999997              7.66670856
   591   1             24.41430304      4.7059345700000002      7.5846479999999996
   592   1      28.502452080000001      4.5922903000000002      7.5461487700000003
   593   1      2.1482519199999999      8.3513284199999998      7.4478471300000004
   594   1              6.42535685              8.28040573      7.7385974300000004
   595   1             10.04421747      8.4580414099999999      7.6151780999999996
   596   1                14.18938      8.1704385199999994              7.42517432
   597   1      18.332214270000001      8.1262915299999996      7.6827391799999996
   598   1             22.36454341      8.4636618600000002      7.5323889399999997
   599   1      26.507686960000001      8.1635464599999992      7.6442368199999997
   600   1      30.327540750000001      7.9683967899999999      7.1384628000000001
   601   1     0.12545882999999999      11.745647760000001      7.5095466799999997
   602   1      3.9813017799999999             11.75905214      7.5207047500000002
   603   1      8.1131609600000001              11.8855495      7.7162954499999996
   604   1             12.30951043             11.56259273      7.7195313399999996
   605   1      22.169687700000001      7.9636459999999998      9.9763074500000002
   606   1      20.371790709999999      11.796998370000001      7.3071139199999999
   607   1             24.32646909      11.588324979999999      7.5075433800000004
   608   1      24.372630560000001      6.9118361699999999      9.2210523200000001
   609   1      2.0368425399999999             15.27569465      7.4243258699999997
   610   1      6.1118609599999996      15.453498870000001      7.4147560700000001
   611   1      12.276796320000001      16.326081240000001      8.4426483999999995
   612   1             14.16465313             15.04941915      7.4048637499999996
   613   1             18.33637701             15.25764571      7.2449717099999997
   614   1             22.35166143      15.252470239999999      7.6660975100000002
   615   1      26.380080880000001             14.95484853      7.5719140300000003
   616   1      30.422363369999999      15.415915679999999      7.5221907899999998
   617   1    -0.23549220000000001              18.7151344      8.0661979899999992
   618   1      4.0519655700000001             18.81548407      7.4485151900000002
   619   1      8.1103351099999994      18.724006859999999      7.4155750500000002
   620   1      12.082270980000001             18.74587906      7.7034826699999996
   621   1      16.377226499999999      18.712939219999999      7.4273164999999999
   622   1      20.258091019999998      18.853853319999999      7.3818209799999996
   623   1      24.416119250000001      18.853914100000001      7.8520421200000001
   624   1             28.28558825              18.4585297      7.6728732500000003
   625   1              2.11551168      21.988985240000002      7.4845362399999997
   626   1      5.9210104499999998      22.273413869999999      7.3244290200000002
   627   1      12.294392309999999             21.12235368      8.8386968199999991
   628   1             14.32533407      22.348991850000001      7.6998062999999997
   629   1      18.224410639999999      22.359002180000001      7.5289722599999997
   630   1      22.341862079999999             22.48681938      7.6597970499999999
   631   1      26.379774699999999      22.136179670000001      7.6720915700000001
   632   1      30.542165369999999      22.461408980000002      7.7559726600000003
   633   1    0.082498710000000003      25.895384780000001      7.6189714200000003
   634   1              4.11106075      25.694881639999998      7.7491387100000004
   635   1      8.1209184699999994              25.6293966      7.7280003099999997
   636   1      12.143711720000001      25.707721299999999      7.7055149900000002
   637   1             16.09543729      25.800257899999998      7.5492151099999996
   638   1      20.325002900000001      25.803313719999998      7.5939252699999997
   639   1      24.386338049999999             25.89614096      7.6122827300000004
   640   1      28.571467030000001      25.700694729999999              7.46048446
   641   1      4.1258085099999997      7.0033271800000003              9.16520212
   642   1    0.034104589999999997      2.6535352900000002      8.5832057600000002
   643   1      5.9031443499999998      8.1472898199999992              10.0076436
   644   1             14.45257464             24.47696672      9.0908692299999991
   645   1             10.30951295             22.30438315              7.48332409
   646   1      28.432191490000001             25.62031464      9.8418118700000008
   647   1             22.57722579      5.9636273600000003      8.3880031299999995
   648   1              10.4366781      3.7873283799999999      9.1305681700000001
   649   1              4.05263303      16.383665310000001      8.3549602299999997
   650   1      6.3365108299999999             24.72877905      9.1682353899999995
   651   1             20.06504211      23.446203100000002      8.4958071499999992
   652   1      18.330871900000002      5.6198241600000003      8.1949127700000002
   653   1             22.20244714      12.776105189999999      8.1958549600000001
   654   1      4.0117640000000003      23.340122010000002      8.2582524399999997
   655   1      24.218636230000001      25.625864700000001      9.8458431999999991
   656   1             10.06389897             24.79791732      9.2894461899999996
   657   1      10.358473869999999             10.53819528      9.2299207800000005
   658   1             16.38157949      16.342899259999999      8.2981633099999996
   659   1             28.91467827      9.3199778900000005      8.1415735199999997
   660   1      16.258938029999999      6.8708381699999999      9.0986397799999992
   661   1      24.470677370000001      27.997581180000001      9.1636629799999998
   662   1             28.13438382      2.1726692299999999      8.0077985300000005
   663   1             20.60871989      28.080183590000001      9.0845289400000002
   664   1      2.1458595200000001             13.02987291      8.4025479799999996
   665   1             10.16587646      12.855536580000001      8.4462923799999992
   666   1             14.23357558             19.63795584      8.3484096399999999
   667   1      6.4375322500000003      17.399382450000001      8.9960733899999994
   668   1      16.147481809999999             11.37344321      7.5961360999999998
   669   1      4.1237931200000002             14.21218782      8.9868604600000008
   670   1      28.571187900000002              6.99858695              8.96635369
   671   1      1.6168469700000001             10.62931801      9.2803123299999992
   672   1      1.7626593800000001      19.914349699999999      8.2093274699999998
   673   1      2.1581614600000001      24.504579029999999      9.1583324299999997
   674   1      2.0122844600000001             17.63676693              9.22192495
   675   1             22.31318495      20.149035949999998      8.3783289300000003
   676   1      14.149010560000001      26.833798940000001      8.2891951899999992
   677   1      20.938336570000001      4.7389231599999997             10.23644717
   678   1             22.28264742      17.497660499999999      8.9947709400000004
   679   1             26.59722627      3.4091726800000002      9.1523180499999999
   680   1      28.777479060000001             11.69660564      7.3652107600000001
   681   1      2.3086736800000001              3.59380056      8.9057964900000002
   682   1      10.205629829999999      15.166192240000001      7.7900998799999996
   683   1      5.9994795600000002      27.022354400000001      8.3725703500000002
   684   1             12.20723244      9.1947710800000007      8.2067641600000005
   685   1             24.50813569      16.436143040000001      8.4203328200000005
   686   1      18.158740510000001      12.608675359999999      8.0706976499999996
   687   1      14.364492070000001             10.36596971      8.9985968300000003
   688   1      20.289568849999998             13.89362384      9.1061850900000003
   689   1      24.637389070000001      20.942700460000001      9.2591911200000006
   690   1             32.65196358      16.012543310000002      8.5647570799999997
   691   1      30.441575449999998      5.7001234399999996      8.2676854199999994
   692   1      16.283529349999998      2.0630700399999999      8.4046778199999999
   693   1             14.40056618             12.79956434      8.0815807999999993
   694   1      20.263427759999999      9.3863637299999994      8.2662439600000006
   695   1             22.51570482             26.84324466               8.4141309
   696   1      2.1670224500000002      15.064411079999999      9.8429391899999992
   697   1      7.9687849399999999      4.7086494099999996      9.9030968500000007
   698   1      18.290519960000001      26.998477659999999      8.0568742699999998
   699   1      20.466077120000001      2.4031946500000001      8.4417189199999996
   700   1      16.385193780000002             27.92275145      9.1644191700000004
   701   1      14.341339039999999      3.1572335900000001      9.1230898299999996
   702   1      24.483640390000001             23.37725854              8.37159634
   703   1             22.35737799      3.4530937399999999      9.2196703099999997
   704   1      26.569890770000001             19.76371842      8.5676886200000002
   705   1      4.1798244100000002              2.35383999      7.9466704200000002
   706   1      6.0803858799999997              3.50887569      9.2233681799999996
   707   1      12.254500670000001      23.433367239999999      8.3542431700000002
   708   1      20.168604940000002      16.363075739999999      8.3310815900000001
   709   1      22.339931920000001      1.1441777799999999              10.0929211
   710   1      18.455479709999999             19.93926836      8.1774491999999999
   711   1      2.0694595200000001      6.0092684800000002      8.1997882600000001
   712   1      32.605983190000003      23.416952030000001      8.3412976600000004
   713   1             28.21061353      28.086844660000001      9.2434057799999998
   714   1      3.8680344500000001      21.142950219999999      8.8571483799999999
   715   1    0.096896659999999996             28.00516584      8.9245403799999998
   716   1             10.25161615      20.139731260000001      8.3325376700000007
   717   1      26.376260080000002      24.372712029999999      9.4115130400000009
   718   1    -0.10266699999999999      9.3022075599999994      8.1025599199999991
   719   1             30.67949814             11.04279824      9.1491894800000004
   720   1             30.10329956      3.2159586500000001      8.9773723600000004
   721   1      4.1570971600000002      9.3432462300000001      8.3628365200000001
   722   1      8.1357642600000002             -0.13659788      8.9153464200000005
   723   1      8.1190893400000004      9.5943463300000005      8.6221038300000004
   724   1      5.9977202600000004             10.93406581      9.1902819200000003
   725   1      8.2556829999999994      7.1304065400000001      9.3829448099999997
   726   1             16.13837152      9.3343542300000006      8.0077351700000001
   727   1      16.255953120000001      21.018967700000001      8.9125423000000001
   728   1             26.48611678      12.476806659999999      8.3722224500000006
   729   1      8.1824320700000008      14.090135070000001      9.2451496399999993
   730   1      12.432718100000001      4.8521714999999999              7.46093546
   731   1      14.292796149999999      5.7594301200000002      8.7114600600000003
   732   1      18.286813299999999      10.481442339999999      9.0809990500000008
   733   1      18.394164839999998              17.6540274      8.8829037799999995
   734   1             30.53240417      24.605528549999999      9.4324434999999998
   735   1      24.340060990000001      2.4002613500000001      8.3710280600000004
   736   1      8.3217494399999996             16.18970779      8.2458473899999998
   737   1    -0.44722340999999999      20.909850250000002      9.2729412500000006
   738   1             24.46593026      9.4428230299999996      8.3473340100000009
   739   1      12.258380020000001             13.94047862      9.1885052300000005
   740   1      26.466929019999998      5.8752717399999996      8.2237050499999995
   741   1      24.148343310000001             13.82397845      8.9715207400000008
   742   1      24.221087399999998      4.8165887100000004      10.015243849999999
   743   1             20.14353479      6.9271176700000003      9.3112869200000006
   744   1      32.576209990000002             12.96690403      9.6736835200000009
   745   1             28.43885053             16.09410471              8.38124176
   746   1      6.0890761099999997             13.10293384      8.1167980899999996
   747   1             10.17484001      17.545847550000001      9.3311257600000008
   748   1      8.0189306299999998      23.181675670000001      8.1807593399999998
   749   1      20.279505629999999              11.6750015      9.8528563299999998
   750   1      26.279384709999999      17.505682329999999      9.2960312199999997
   751   1      29.983243470000001             19.93549672      8.2494516000000004
   752   1      5.9796486599999996             15.10629157      9.8178678900000005
   753   1      6.1955854800000001             19.94774804      8.0876098400000007
   754   1      8.2891110300000008      2.4431188700000002              8.52381323
   755   1              6.32090438              5.87923594      8.3742269500000006
   756   1      10.190822730000001             27.07369465      8.2209068300000006
   757   1              2.33980488      26.828185349999998               8.3473457
   758   1             26.55141497             26.72658886      8.5335380099999991
   759   1      30.577142330000001      13.242141589999999              8.10966056
   760   1      28.652003319999999      23.440714570000001      8.1696094299999995
   761   1      16.435131470000002             23.43288553      8.3694034100000003
   762   1      22.316281650000001      10.391644830000001      9.1045391999999996
   763   1             10.20826954      6.0278401800000001      8.2940927000000002
   764   1      12.113348569999999      2.2399403000000002      8.2987916599999991
   765   1             18.39680083      3.3101553400000001      9.2300158400000001
   766   1      22.189246430000001      24.456788240000002              9.47404929
   767   1             30.37742948             17.50095421      9.3055922599999992
   768   1      30.196377259999998      27.141502800000001      8.3797516000000005
   769   2      7.3457377499999996      18.994902549999999      9.2574945500000005
   770   2      8.9892353200000006      18.831293290000001      9.3055094399999998
