N2-dn2-coord-10bar/700K/snapshots/frame-102628/run-000/../data.lammps (written by ASE) 

770 	 atoms 
2  atom types
0.0      32.470343392086264  xlo xhi
0.0      28.120142247150884  ylo yhi
0.0      31.213473999158239  zlo zhi


Atoms 

     1   1      2.0293964600000001      1.1716090800000001    0.023552650000000001
     2   1      6.0880008999999999              1.17168918              0.02556874
     3   1      10.146952280000001              1.17170328    0.025416459999999998
     4   1      14.205754900000001      1.1716496700000001              0.02501565
     5   1             18.26456816              1.17166478              0.02504435
     6   1             22.32338141      1.1716496700000001              0.02501565
     7   1      26.382184030000001              1.17170328    0.025416459999999998
     8   1      30.441135410000001              1.17168918              0.02556874
     9   1  9.1780000000000006e-05      4.6866847900000002    0.025581599999999999
    10   1      4.0587011400000002      4.6866847900000002    0.025581599999999999
    11   1      8.1174961000000003      4.6866290399999997    0.025584639999999999
    12   1             12.17638011      4.6866852999999997              0.02491202
    13   1             16.23517979      4.6866942700000003    0.025006210000000001
    14   1      20.293956519999998      4.6866942700000003    0.025006210000000001
    15   1      24.352756209999999      4.6866852999999997              0.02491202
    16   1      28.411640219999999      4.6866290399999997    0.025584639999999999
    17   1      2.0293964600000001      8.2016395800000002    0.026613040000000001
    18   1      6.0881071599999999      8.2016314300000008              0.02543782
    19   1             10.14701835               8.2017045    0.025156850000000001
    20   1      14.205766049999999      8.2017080900000003    0.024990459999999999
    21   1             18.26456816      8.2017077599999997    0.025091249999999999
    22   1      22.323370260000001      8.2017080900000003    0.024990459999999999
    23   1      26.382117969999999               8.2017045    0.025156850000000001
    24   1      30.441029149999999      8.2016314300000008              0.02543782
    25   1  9.2789999999999998e-05             11.71671873    0.025573410000000001
    26   1              4.05870014             11.71671873    0.025573410000000001
    27   1      8.1176017700000003             11.71668698              0.02497914
    28   1             12.17637068             11.71673069    0.025001590000000001
    29   1      16.235177310000001      11.716730249999999    0.025074039999999999
    30   1      20.293959009999998      11.716730249999999    0.025074039999999999
    31   1      24.352765640000001             11.71673069    0.025001590000000001
    32   1      28.411534549999999             11.71668698              0.02497914
    33   1      2.0293964600000001             15.23167155              0.02525285
    34   1      6.0881728300000004      15.231678799999999    0.025062859999999999
    35   1             10.14698486      15.231762639999999               0.0250786
    36   1             14.20578841             15.23176782    0.025201990000000001
    37   1             18.26456816              15.2317707    0.025149979999999999
    38   1      22.323347900000002             15.23176782    0.025201990000000001
    39   1      26.382151459999999      15.231762639999999               0.0250786
    40   1      30.440963480000001      15.231678799999999    0.025062859999999999
    41   1      32.470327990000001      18.746748629999999    0.024951939999999999
    42   1      4.0588083299999997      18.746748629999999    0.024951939999999999
    43   1      8.1175770200000006      18.746803499999999    0.025222040000000001
    44   1             12.17637459      18.746799750000001    0.025428470000000002
    45   1      16.235159400000001      18.746805200000001    0.025487360000000001
    46   1      20.293976919999999      18.746805200000001    0.025487360000000001
    47   1      24.352761730000001      18.746799750000001    0.025428470000000002
    48   1             28.41155929      18.746803499999999    0.025222040000000001
    49   1      2.0293964600000001      22.261939099999999    0.025844880000000001
    50   1      6.0881419299999999      22.261841799999999    0.025489439999999999
    51   1             10.14692954             22.26176895              0.02551757
    52   1             14.20573559      22.261804690000002    0.025639160000000001
    53   1             18.26456816             22.26178625    0.025640119999999999
    54   1      22.323400729999999      22.261804690000002    0.025639160000000001
    55   1      26.382206780000001             22.26176895              0.02551757
    56   1             30.44099439      22.261841799999999    0.025489439999999999
    57   1  5.6450000000000003e-05      25.776936450000001              0.02613327
    58   1      4.0587364700000004      25.776936450000001              0.02613327
    59   1      8.1175325399999991              25.7767713    0.024734180000000001
    60   1      12.176376469999999      25.776831090000002              0.02545323
    61   1      16.235145939999999      25.776775220000001    0.025273360000000002
    62   1             20.29399038      25.776775220000001    0.025273360000000002
    63   1      24.352759840000001      25.776831090000002              0.02545323
    64   1      28.411603769999999              25.7767713    0.024734180000000001
    65   1  0.00024266000000000001              2.34304215     0.80166565000000001
    66   1      4.0585502699999996              2.34304215     0.80166565000000001
    67   1      8.1157394600000003              2.34454954     0.80169402000000001
    68   1             12.17601256      2.3433829099999999     0.80116898000000003
    69   1      16.235258170000002      2.3433209100000001     0.80090046999999998
    70   1      20.293878150000001      2.3433209100000001     0.80090046999999998
    71   1      24.353123750000002      2.3433829099999999     0.80116898000000003
    72   1      28.413396859999999              2.34454954     0.80169402000000001
    73   1      2.0293964600000001      5.8582218700000004     0.80119762000000005
    74   1      6.0870566899999998      5.8583336700000004              0.80194851
    75   1             10.14649655              5.85853131     0.80121584000000001
    76   1             14.20597894      5.8582938599999999     0.80086840999999998
    77   1             18.26456816      5.8583798500000004               0.8010794
    78   1      22.323157380000001      5.8582938599999999     0.80086840999999998
    79   1             26.38263976              5.85853131     0.80121584000000001
    80   1      30.442079629999999      5.8583336700000004              0.80194851
    81   1  0.00019438999999999999      9.3717771800000005     0.80082061000000004
    82   1      4.0585985400000002      9.3717771800000005     0.80082061000000004
    83   1      8.1175070500000004      9.3725002699999997     0.80149060999999999
    84   1      12.176590020000001      9.3733583399999993     0.80088261999999999
    85   1             16.23512199      9.3733789200000004              0.80106506
    86   1             20.29401433      9.3733789200000004              0.80106506
    87   1      24.352546289999999      9.3733583399999993     0.80088261999999999
    88   1      28.411629269999999      9.3725002699999997     0.80149060999999999
    89   1      2.0293964600000001             12.88692854     0.80220621000000003
    90   1      6.0883212999999996             12.88743848     0.80138414999999996
    91   1      10.147128609999999             12.88859852     0.80085256000000005
    92   1             14.20571782      12.888558189999999     0.80113791000000001
    93   1             18.26456816      12.888409899999999     0.80109381000000002
    94   1      22.323418490000002      12.888558189999999     0.80113791000000001
    95   1             26.38200771             12.88859852     0.80085256000000005
    96   1      30.440815019999999             12.88743848     0.80138414999999996
    97   1              0.00012365      16.403222639999999     0.80145666999999998
    98   1      4.0586692700000002      16.403222639999999     0.80145666999999998
    99   1      8.1174337899999998      16.403825260000001     0.80097196999999998
   100   1              12.1761021             16.40390721     0.80133072000000005
   101   1             16.23503496      16.403861750000001     0.80140014999999998
   102   1      20.294101359999999      16.403861750000001     0.80140014999999998
   103   1      24.353034220000001             16.40390721     0.80133072000000005
   104   1      28.411702529999999      16.403825260000001     0.80097196999999998
   105   1      2.0293964600000001      19.919205120000001     0.80066369999999998
   106   1              6.08752564             19.91894023     0.80122479000000002
   107   1      10.146078839999999             19.91919038     0.80159137999999996
   108   1      14.204993419999999              19.9192584     0.80178742000000003
   109   1             18.26456816      19.919377350000001     0.80194975999999996
   110   1      22.324142899999998              19.9192584     0.80178742000000003
   111   1      26.383057470000001             19.91919038     0.80159137999999996
   112   1      30.441610669999999             19.91894023     0.80122479000000002
   113   1              0.00142012      23.434536609999999     0.80178442000000005
   114   1      4.0573728100000004      23.434536609999999     0.80178442000000005
   115   1      8.1165862000000004      23.433936769999999     0.80182306000000003
   116   1             12.17555218      23.433996919999998     0.80156656000000004
   117   1             16.23465491      23.434040110000002     0.80170828999999999
   118   1      20.294481409999999      23.434040110000002     0.80170828999999999
   119   1      24.353584130000002      23.433996919999998     0.80156656000000004
   120   1      28.412550110000002      23.433936769999999     0.80182306000000003
   121   1      2.0293964600000001      26.949875330000001              0.80297246
   122   1      6.0858208300000003      26.950066320000001              0.80215291
   123   1             10.14598146      26.949241430000001     0.80165810000000004
   124   1             14.20520604      26.948673230000001     0.80131923999999999
   125   1             18.26456816             26.94858318     0.80108193999999999
   126   1      22.323930279999999      26.948673230000001     0.80131923999999999
   127   1      26.383154860000001      26.949241430000001     0.80165810000000004
   128   1             30.44331549      26.950066320000001              0.80215291
   129   1             -0.03590869    0.050803790000000001      1.4220200999999999
   130   1      4.1034136500000002   -0.025359389999999999      1.5985633800000001
   131   1      8.2346174800000007   -0.018309860000000001      1.4094447699999999
   132   1             12.20827222   -0.057689839999999999      1.5974979499999999
   133   1      16.254664309999999      28.203950970000001              1.45379298
   134   1             20.39247842              27.9978245              1.23994648
   135   1      24.325636119999999      28.095960739999999              1.45168297
   136   1      28.503245929999999   -0.099253499999999995      1.5931220800000001
   137   1      1.8749467900000001      3.5835351499999999      1.4124379600000001
   138   1      6.0963009799999996      3.6361819899999999              1.43770775
   139   1      10.262399670000001      3.6073677100000001              1.47235161
   140   1      14.347896929999999      3.5357062699999999              1.50203347
   141   1      18.282269469999999              3.47923537               1.3142289
   142   1      22.222569369999999      3.4338667100000002      1.5901523099999999
   143   1      26.147812590000001      3.4727096199999998      1.3871365600000001
   144   1             30.49252302      3.5789228199999998      1.3944178199999999
   145   1    0.020976189999999999      6.9123773399999999              1.30407468
   146   1              4.03151043      6.9971780600000004      1.5170813000000001
   147   1      8.0423975500000005      6.9774074600000002      1.4546436899999999
   148   1              11.9083758      7.1434308700000004      1.6065832499999999
   149   1             16.28810464      6.9235791899999999              1.63415888
   150   1      20.255644929999999      7.0190933900000001               1.6935581
   151   1      24.321676530000001      7.1250277300000002              1.62757961
   152   1      28.403797690000001      6.9139611399999996              1.46635695
   153   1      1.9033205600000001      10.646752749999999              1.46693837
   154   1      5.9968645699999996             10.59488324      1.3547998400000001
   155   1             10.00137543      10.474769889999999      1.0827435999999999
   156   1      14.269985289999999      10.457779540000001              1.49676085
   157   1              18.3659535      10.468061410000001              1.35703529
   158   1             22.30397868             10.51299712              1.66854882
   159   1      26.410948179999998              10.6054089      1.3769872000000001
   160   1      30.473132939999999             10.43058422              1.45004562
   161   1    0.095961790000000005      13.964283010000001      1.4417142199999999
   162   1      4.0900125300000001      14.118991380000001              1.44447649
   163   1      8.2844985799999993      14.077381109999999      1.5794959900000001
   164   1             12.27137149      13.850492620000001              1.58271085
   165   1      16.372041379999999      13.887009340000001      1.5283703500000001
   166   1      20.316626159999998             13.97710045      1.0973608500000001
   167   1             24.27158842             14.09957672               1.4412547
   168   1      28.443815520000001             14.07665886              1.75495074
   169   1              1.95176299             17.54697123              1.46036802
   170   1      6.1336531799999996      17.378807699999999              1.40647711
   171   1      10.034844290000001      17.639668709999999      1.5603216900000001
   172   1             14.16755345      17.397710539999999              1.19487645
   173   1      18.135987839999999      17.473993149999998      1.5238219200000001
   174   1      22.264002949999998      17.606301349999999              1.28461424
   175   1             26.34998972      17.639862189999999      1.3954026900000001
   176   1      30.356155260000001      17.476644400000001              1.42820813
   177   1   -0.086543090000000003      21.003529579999999              1.51629634
   178   1              4.07674103      20.991771530000001              1.37812238
   179   1      8.1444592900000004      21.266460519999999              1.31389741
   180   1      12.261580520000001      21.084906490000002      1.4482662799999999
   181   1             16.10654963      21.134064739999999              1.53604944
   182   1      20.408843869999998             21.02300202              1.70091467
   183   1             24.38342982      21.012180300000001              1.41760379
   184   1      28.391378700000001      21.155187999999999              1.31930014
   185   1              2.08228196      24.728573820000001      1.5864298100000001
   186   1      6.1434715999999998             24.72448842              1.38854072
   187   1             10.15404579             24.61796871              1.26922391
   188   1             14.07325749             24.71081753              1.37195106
   189   1      18.144024569999999      24.475221879999999      1.5259033099999999
   190   1      22.203832930000001      24.618362619999999              1.58204068
   191   1      26.508089250000001      24.676358149999999              1.42910804
   192   1      30.511313080000001      24.601938409999999      1.5547431700000001
   193   1               2.0431887              1.25064708      2.3470834900000002
   194   1      6.2667014999999999      1.1628407700000001              2.22132723
   195   1             10.27800053      1.1493791799999999      2.4932712600000002
   196   1      14.174379999999999      1.1443138900000001              2.49021917
   197   1      18.405237369999998              1.48344638      2.3134156199999998
   198   1      22.563502280000002     0.98156810999999999      2.2939725200000001
   199   1             26.44631845              1.14250125      2.4695161900000002
   200   1      30.422380400000002      1.1434424700000001      2.4272515000000001
   201   1    -0.11225445000000001      4.6747940999999997      2.4781719999999998
   202   1      3.9978224400000002      4.5490770300000003              2.36637436
   203   1      8.0968584299999993      4.5775270199999998      2.5660739499999998
   204   1      12.179711640000001      4.7684933300000001      2.4793410499999999
   205   1      16.302173610000001      4.7709958400000003      2.5479858700000002
   206   1      20.303444169999999      4.6933685000000001      2.5257759200000001
   207   1      24.296256670000002      4.5395403700000001      2.2793513000000001
   208   1      28.561892350000001      4.5233509600000001              2.20275526
   209   1              1.91584205      8.3431949999999997      2.3628006500000001
   210   1      5.9991761800000001      8.1032611499999998      2.4494819300000001
   211   1      9.8988042699999994      8.3918880900000001      2.5702799600000001
   212   1             14.09972252      8.1878375800000001      2.4539394699999999
   213   1      18.317661680000001      8.2067011799999996      2.4579583600000001
   214   1      22.240193439999999      8.1137599399999996              2.34036585
   215   1      26.550532400000002      8.2200498100000008      2.3164194400000002
   216   1      30.574086810000001      8.0925203299999993      2.4254894899999999
   217   1      32.336610479999997             11.59459176      2.5772079799999998
   218   1      4.1567375000000002             11.77259067              2.35753368
   219   1      8.0732467799999998             11.76408473      2.3940982000000002
   220   1      12.005581380000001      11.651666929999999              2.30851769
   221   1      16.275713100000001              11.7477298      2.5103657099999999
   222   1             20.20648748      11.893565799999999      2.4489391999999999
   223   1      24.323549280000002             11.69143611              2.39500395
   224   1             28.43401686             11.60840219              2.27450208
   225   1      2.1640500999999999      15.288788419999999      2.3552844500000001
   226   1      6.1578408299999996      15.146199259999999      2.3692479199999998
   227   1      10.258839650000001      15.388438259999999      2.4617659999999999
   228   1      14.178616440000001      15.115633969999999      2.3552264599999999
   229   1      18.300812409999999      15.177615060000001      2.4190403699999998
   230   1             22.28611815      15.145579850000001              2.26027683
   231   1      26.296139589999999             15.24346495      2.5408514200000001
   232   1             30.38269451      15.287608090000001      2.2490529600000002
   233   1      32.254604180000001      18.590854419999999      2.2347914599999998
   234   1      4.1368705500000003      18.580886929999998      2.3150794299999999
   235   1      8.0912429400000008      18.788300849999999      2.5726439000000001
   236   1             11.98343324      18.623540859999999      2.3471524700000002
   237   1      16.290488629999999      18.684950099999998      2.3078090499999999
   238   1      20.092248430000001      18.750726159999999      2.3501578599999999
   239   1      24.465391440000001      18.777344920000001      2.4340263900000001
   240   1      28.442131610000001             18.65039252      2.3770614299999999
   241   1      1.9048773400000001      22.099911330000001      2.4044701000000002
   242   1      6.2387743200000001             22.25551862      2.3472729999999999
   243   1      10.302628110000001      22.125107310000001      2.2225011399999999
   244   1             14.18929054      22.384871369999999      2.2573952099999999
   245   1             18.34637695      22.130112740000001      2.3908815400000001
   246   1      22.374260119999999             22.21576744      2.3547993800000002
   247   1      26.453596940000001      22.189428710000001      2.3264674300000001
   248   1      30.367941699999999      22.249040879999999              2.38839632
   249   1              0.00580592      25.688978859999999      2.4583789700000001
   250   1              4.17533931      25.778673340000001              2.54669028
   251   1      8.2621289400000002             25.88974091      2.3274524200000002
   252   1             12.18151185      25.892184910000001      2.4290767500000001
   253   1      16.154101409999999      25.814393259999999      2.4073729199999998
   254   1      20.234152439999999      25.836744320000001      2.4141745999999999
   255   1             24.41797377             25.64159596              2.50245205
   256   1             28.59149657             25.72940058      2.5508777500000002
   257   1     0.11248246000000001              2.32120763      3.2366948600000001
   258   1      4.2275238899999996      2.2411617399999999      3.2745181300000001
   259   1      8.3286020599999997      2.1865700700000001      3.2697957799999999
   260   1      12.281417299999999      2.3137991200000001      3.2544719299999998
   261   1             16.21727915      2.4883202999999998      3.3183823000000001
   262   1      20.412511039999998      2.4302016100000001               3.2956254
   263   1      24.361567059999999      2.2956320400000001      3.3799235300000001
   264   1      28.388896930000001      2.2228031700000002      3.2462616400000002
   265   1              2.07719298      5.8814456799999997      3.1104900899999999
   266   1      6.2505890099999997      5.8110683099999996              3.58330159
   267   1      9.9554792499999998              5.87796042      3.2054039599999999
   268   1      14.129040249999999      5.7880297699999996              3.37694033
   269   1      18.280924729999999      5.7037746299999998      3.1900993799999999
   270   1      22.397721310000001      5.7996526199999998      3.1973228699999998
   271   1      26.365194899999999      5.8612168100000002      3.1821378600000001
   272   1      30.606057310000001      5.7868900700000001      3.2480707500000001
   273   1      32.575246589999999              9.49734838      3.2872489800000002
   274   1      3.8533813700000001      9.4764748799999996      3.2491013199999998
   275   1      8.0580793400000008      9.5054113999999998      3.2129525399999999
   276   1      12.178018059999999      9.3579296700000008      3.3789935299999998
   277   1      16.131271850000001      9.4143284099999995      3.1096473800000002
   278   1             20.35487676      9.5644006099999999      3.3187602100000002
   279   1             24.46700156      9.2950948499999999      3.0501472600000001
   280   1      28.480695749999999      9.2023728699999996      3.1715790199999998
   281   1              2.08418809                12.76013      3.2596085800000001
   282   1      6.1611089400000001      13.006219420000001      3.1537940899999999
   283   1      10.065488889999999             13.00941358      3.2655713300000002
   284   1      14.331971449999999      12.763968439999999              3.16247832
   285   1             18.26725622             12.89758964      3.4456899700000001
   286   1             22.31228595              12.9474196      3.1937249400000001
   287   1      26.274553090000001             12.81518367              3.18430086
   288   1      30.504212500000001             12.82514902      3.2409708699999999
   289   1   -0.035351349999999997      16.287257140000001      3.2205159700000001
   290   1      4.0317684099999997      16.288268649999999      3.2151195800000001
   291   1      8.1519286199999996             16.64730904      3.2900180099999998
   292   1             12.31941161      16.374873109999999              3.30368379
   293   1             16.13760289             16.45060608      3.3550960299999999
   294   1             20.31772891      16.394262810000001      3.2442207199999999
   295   1      24.357897779999998              16.3444942      3.2347892599999999
   296   1             28.55848877      16.230090350000001      3.3267788600000001
   297   1      1.8548171899999999             19.84895934      3.2333417299999998
   298   1      5.8820244600000002      19.891933720000001              3.20389101
   299   1      10.133669790000001             19.92759221      3.4229221299999999
   300   1              14.1320906      19.929402230000001      3.3052121200000002
   301   1      18.117782859999998      19.945758250000001      3.2629119599999998
   302   1      22.424343279999999             19.97251438               3.1290296
   303   1      26.489310889999999      19.831216260000001      3.0439564899999998
   304   1      30.334019219999998      20.009540770000001              3.40896176
   305   1      32.370270499999997      23.366168770000002              3.22390474
   306   1      3.9688708400000001      23.482203169999998      3.2155513899999999
   307   1                8.266432      23.375718299999999      3.2044289899999998
   308   1      12.182669519999999      23.382058659999998      3.1439425700000001
   309   1      16.330553099999999      23.434873759999999      3.1735306799999998
   310   1      20.446483659999998      23.243604609999998      3.3378685199999998
   311   1      24.200157690000001      23.193202429999999      3.3336117000000001
   312   1      28.343742890000001      23.387974360000001      3.1870001700000001
   313   1      2.0453533099999999      26.732814250000001      3.2696439800000001
   314   1      5.9670716800000001             27.07008016      3.1849110199999999
   315   1             10.21336968      26.837704760000001      3.3628007100000001
   316   1      14.344000189999999      26.948999189999999      3.3678930899999999
   317   1      18.130666699999999      27.152119039999999      3.2258545600000001
   318   1      22.339261069999999             26.70258638      3.2556814699999999
   319   1      26.593308230000002             26.94956517              3.35476514
   320   1      30.550970710000001      27.004097170000001      3.2433800000000002
   321   1     0.20474004000000001    0.012131650000000001      4.0759302399999999
   322   1      3.9967675300000001   0.0087956100000000006      4.0579172799999998
   323   1      8.3066544199999992    0.064334489999999994      4.2675781600000002
   324   1      12.261149100000001      28.149998579999998              4.20208944
   325   1      16.306867780000001    0.074436539999999995      4.1570299400000001
   326   1      20.465413829999999      28.124131649999999      4.0319383699999998
   327   1             24.42421847      28.027912019999999      4.0886493699999997
   328   1              28.6222639      28.232792360000001      3.9977311200000001
   329   1      2.1734146299999999      3.6495101499999998      4.0417170799999997
   330   1      6.2527241900000003              3.43602286      4.0232776299999999
   331   1             10.36232476      3.3549877499999998      4.1469271599999997
   332   1      14.207655559999999              3.39804182      4.1268810499999997
   333   1             18.26661987      3.4688944199999998      4.0903496199999996
   334   1      22.486669719999998      3.5333778300000001      4.1030268100000002
   335   1      26.406437929999999      3.4293799300000001      3.9269423300000001
   336   1      30.432220860000001      3.3933684099999999      3.9251290499999998
   337   1 -0.00081605000000000002      7.1209318399999999      4.0976919399999998
   338   1      4.0556237900000003      6.9231274799999998              4.00052596
   339   1      8.2388289700000001              7.18314334              4.20114565
   340   1      12.162534190000001      7.0611545400000004      4.1992932600000001
   341   1      16.304471209999999      7.0425325499999998      4.0906049299999996
   342   1             20.24186916      6.9480005900000004      4.1207769799999996
   343   1      24.528429580000001      7.0120548600000001      4.0358965099999997
   344   1             28.51315198      6.7398000299999996      3.9202823800000002
   345   1      1.9751915799999999             10.49118777      4.0905356099999999
   346   1      5.9551263600000004             10.57533492      4.0780569399999997
   347   1      10.083043379999999      10.547945139999999      4.0971404199999997
   348   1             14.26012367             10.45894393      4.2467877100000004
   349   1             18.23682217             10.62626332      4.1685061000000001
   350   1      22.212823159999999      10.678213700000001      4.2015583400000001
   351   1      26.368587640000001      10.504830979999999      4.0291910499999997
   352   1      30.188711229999999      10.700593019999999      4.0974392799999997
   353   1    0.074373239999999993      14.041798910000001      4.1018056400000003
   354   1      4.0825107899999997             14.10413119      4.0987039000000003
   355   1      8.1433961799999999      14.109954780000001      4.0499954699999998
   356   1             12.34695687      14.176798740000001      4.0834770699999998
   357   1      16.346290010000001      14.071012440000001      4.0655069800000003
   358   1      20.343347810000001      14.086206049999999      4.1225418100000004
   359   1      24.289297390000002      13.960074369999999      3.8416551399999999
   360   1             28.31629916             13.81810314      4.1229147099999999
   361   1              2.12349904      17.582028569999999      4.1030607200000002
   362   1      6.1544160100000003      17.651818810000002      4.0961623300000003
   363   1      10.139264799999999      17.725412720000001      4.1133745099999999
   364   1      14.156298919999999      17.566763989999998      4.1150111300000001
   365   1      18.264581710000002      17.615811799999999      4.2063387199999998
   366   1      22.204336189999999      17.585367460000001      3.9032026599999998
   367   1      26.473474679999999      17.466343290000001      4.1521115699999998
   368   1      30.460685040000001      17.554454199999999      4.1395779700000004
   369   1      32.410992100000001      21.049519570000001      4.2385436199999997
   370   1      4.0053920500000002             21.09088023      4.0560825999999999
   371   1      8.0275177699999993             21.12619011      4.1091133299999996
   372   1             12.09495677             21.06639264      4.1525596499999997
   373   1      16.075791120000002      21.150964009999999      4.3113266499999998
   374   1      20.146241490000001      21.008303489999999      4.1784619000000003
   375   1      24.534499929999999      21.025622989999999      4.0013342600000001
   376   1      28.243796830000001      21.128292699999999      3.9860994700000001
   377   1      1.8980016900000001      24.580950219999998      4.1464115799999997
   378   1      6.0979833699999997      24.558764570000001      3.9676856800000002
   379   1             10.26051884      24.597008049999999      4.0583868499999998
   380   1              14.3568318      24.431150649999999      4.0170092500000001
   381   1             18.09529766      24.746270729999999      4.0070413800000004
   382   1             22.36054523             24.51243998      4.1099661999999997
   383   1             26.56457554      24.582779160000001              4.15820393
   384   1             30.32327386              24.5194923      4.2086810899999998
   385   1      2.0605171800000002              1.16952882      4.8417412300000002
   386   1      6.1446437300000003              1.35602508      5.1151466000000001
   387   1      10.279187240000001      1.1287933800000001                4.968045
   388   1             14.37980583      1.1051975999999999      4.9407500600000001
   389   1      18.395523140000002      1.1964193999999999              4.94872377
   390   1      22.420766650000001              1.08799639      4.7849434000000004
   391   1      26.335600230000001      1.2857840899999999      4.8990792799999996
   392   1             30.57989405              1.10195121      4.8675209400000004
   393   1    0.060985949999999997      4.7303316100000004      4.9081717100000004
   394   1      4.5744098600000003      4.6884040699999998      4.9249335299999997
   395   1      8.2156645000000008      4.6648375800000004      5.0200592200000003
   396   1             12.18000249      4.6614777199999997      4.9744846100000002
   397   1      16.166258200000001      4.6618255299999998      5.1171021799999998
   398   1      20.323475269999999              4.65104031      4.8689066499999996
   399   1      24.544384310000002              4.69331035      4.9917680799999999
   400   1             28.44608929      4.5996493000000003      4.8424368400000004
   401   1              2.08326571      8.2194302199999996      4.8569634800000001
   402   1      6.0899779000000001      7.9963714000000001      5.0165426799999997
   403   1             10.26295958      8.2273869899999994      4.8307067000000004
   404   1             14.14977951      8.1105590200000002      4.9746429599999997
   405   1             18.35547262      8.1351248700000003      5.0066986099999999
   406   1      22.330534539999999      8.2587084999999991      4.8028791599999998
   407   1             26.55679679      7.9451339000000001              4.86149757
   408   1      30.404512990000001      7.9889872999999998      4.9029147799999997
   409   1    0.066493150000000001             11.80664838      4.8302399600000001
   410   1               3.9498864             11.78771233      4.8896874300000004
   411   1      8.1309172099999998             11.67669398      4.6137262300000002
   412   1             12.10751063             11.67466643      4.9108261300000002
   413   1             16.26134244             11.74507805      5.0559776899999997
   414   1      20.243786979999999      11.805655829999999      5.0753329899999997
   415   1             24.41864777      11.694640590000001      4.9588213300000001
   416   1             28.24407545      11.670722019999999      4.8741184799999999
   417   1      2.2121685100000001             15.27037775      5.0474074599999996
   418   1      6.1162267799999999             15.15888741              4.89942762
   419   1      10.222077759999999             15.27533764      4.8219645499999997
   420   1             14.10478584             15.32661321      5.1410370099999998
   421   1      18.046261040000001             15.28768213      4.9323524499999998
   422   1      22.318875590000001      15.406389409999999      4.7660243900000001
   423   1      26.478957250000001             15.06927544      4.9697994899999998
   424   1      30.404562550000001             14.85901836      4.9512113600000003
   425   1   -0.019091159999999999      18.694216579999999      4.8743780900000004
   426   1      4.1503869399999997             18.63294917      4.8733298300000003
   427   1      8.1240191399999997             18.69096699              5.06876368
   428   1      12.246393279999999      18.809366969999999      4.9292387299999998
   429   1      16.181622690000001      18.671821380000001      4.9060104899999999
   430   1      20.290422029999998      18.714343719999999      4.9031767200000003
   431   1      24.374385820000001             18.74052326              4.87264564
   432   1      28.459433749999999      18.872717229999999      4.9139213899999996
   433   1              1.81512516      22.352051660000001      4.8029379399999996
   434   1      6.0017283399999997             22.54290658              5.09268594
   435   1      10.242637289999999      22.448648739999999      4.9202437100000003
   436   1             14.07640299             22.20457326      4.8856161399999998
   437   1      18.104807940000001      22.228655870000001      4.9911404199999998
   438   1             22.41819675              22.2437507      4.9658643400000004
   439   1      26.398738000000002      22.339585419999999      4.8921600600000001
   440   1      30.326234759999998      22.312898659999998      5.0844170699999998
   441   1   0.0085044400000000003      25.710944479999998      5.0946367700000001
   442   1              4.04671541      25.902601709999999      5.0315804699999997
   443   1      8.0252162499999997      25.712302640000001      4.7716911099999999
   444   1             12.44890006      25.721807049999999      4.9286087500000004
   445   1      16.240180899999999      25.866856110000001      4.9565891000000004
   446   1      20.174716889999999             25.71396142               4.9656126
   447   1             24.38058097      25.856181540000001      5.0603374700000003
   448   1      28.536255839999999      25.929431820000001      4.9817738900000004
   449   1    0.069455139999999999      2.3602645400000002      5.6845541700000002
   450   1      4.0306032800000002      2.4327778200000001               5.7049094
   451   1      8.2525475200000002              2.37882609      5.8431114600000003
   452   1             12.35202585      2.3659416499999999      5.5627351200000001
   453   1      16.315326429999999      2.1843003699999999      5.6492169700000003
   454   1      20.453290849999998               2.6083547      5.7952426800000003
   455   1             24.37927797      2.2886834500000002      5.7902081599999997
   456   1      28.497008690000001      2.3221124199999998      5.7520668199999996
   457   1      2.1635216599999998      5.7225251799999999      5.6275162500000002
   458   1      6.2284545500000004      5.8192188600000003              5.94431317
   459   1      10.110387319999999      5.8504842799999999      5.6321125199999997
   460   1      14.296835850000001              5.85177456      5.7670732300000003
   461   1      18.595909769999999      5.7893748799999996      5.7194653400000002
   462   1             22.26573029      5.9747331099999998              5.80045404
   463   1      26.680880930000001      5.6904832399999998              5.85824648
   464   1              30.6093169      5.9625563000000001      5.7576411800000002
   465   1              0.05029629      9.3616488400000009      5.6416499699999996
   466   1      4.2308320000000004      9.5056271700000003      5.7996609000000001
   467   1      8.1787215100000008      9.3776040700000003      5.7108761499999998
   468   1      12.193303800000001      9.4076445399999997      5.8970144400000004
   469   1               16.268051      9.3442631600000006      5.5098517899999999
   470   1      20.287017280000001      9.4296082099999996      5.7869578099999996
   471   1      24.463368119999998      9.4342126700000009               5.5645292
   472   1             28.42772033      9.2264783500000007      5.6977258900000001
   473   1      2.3687701699999999             12.86275736      5.8800728400000004
   474   1      6.2121685299999996      12.728911050000001      5.6121097200000003
   475   1             10.30053728      12.945408540000001               5.6645227
   476   1      14.193400410000001             12.85321034              5.64655548
   477   1             18.32775895             13.06874758      5.8498128500000002
   478   1      22.326867320000002             13.00948872      5.6023514499999996
   479   1             26.51455249             12.77609198      5.9451659699999997
   480   1             30.36284955             12.59503327      5.8921564699999998
   481   1             -0.10916589      16.297032519999998      5.7626470799999998
   482   1      4.2315744999999998      16.327654540000001              5.80773808
   483   1      7.9557339200000001      16.388147650000001      5.9412741599999999
   484   1      12.020586659999999      16.374073289999998      5.8158328099999999
   485   1      16.301370420000001      16.514834489999998      5.8212504699999998
   486   1             20.10242933      16.383351529999999      5.7556966699999998
   487   1      24.412512499999998      16.305274390000001              5.62306244
   488   1             28.40743762      16.344892340000001      5.8155941799999997
   489   1      2.2113543500000001      20.028412849999999      5.6928525800000003
   490   1      6.0047164000000004      20.055936819999999      5.6318130999999996
   491   1             10.03196848             20.03880693      5.9460395100000003
   492   1             14.04676931      19.972746839999999      5.8817296199999998
   493   1             18.23840526      19.812852849999999      5.8302087599999997
   494   1             22.45137647             19.99739443      5.5806692599999996
   495   1      26.299931770000001      20.055238920000001      5.4189694499999996
   496   1      30.407212550000001      19.901034729999999      5.8690383600000002
   497   1      32.426004630000001             23.41866563      5.8410290700000003
   498   1              3.80586592             23.72321445               5.6309657
   499   1      8.1225438499999996             23.44427645      5.8871930900000002
   500   1      12.053683120000001      23.447478570000001      5.7358923500000003
   501   1             16.17654727      23.523007199999999      5.8268052299999997
   502   1             20.25180615              23.4144793      5.6464039000000001
   503   1      24.654379899999999             23.68556195      5.7821967000000001
   504   1      28.263766579999999      23.560418680000002      5.7966717000000001
   505   1      2.1393988799999999      27.157001260000001      5.8161401499999998
   506   1      6.1835714800000003             26.95263044      5.8382695800000004
   507   1              10.1604086             26.83281109      5.7196524899999996
   508   1             14.21505771              26.8717693      5.9229081499999996
   509   1             18.22709124             26.91392974      5.7824117700000004
   510   1      22.340046569999998      26.906063849999999      5.8015348199999996
   511   1              26.4516858             26.97445639      5.7840164700000001
   512   1      30.722971170000001      26.999614699999999      5.7753291300000003
   513   1               0.2149537     0.13856296000000001      6.4920283100000002
   514   1      4.1259297500000001              0.08931335      6.6107102700000002
   515   1      8.3118940600000002   -0.044838999999999997      6.6841592700000003
   516   1      12.470615240000001    0.030035699999999999      6.5443634199999998
   517   1      16.294180059999999   -0.087266079999999996      6.6745938899999997
   518   1      20.270032480000001    -0.11016488000000001      6.6334107099999997
   519   1             24.38150654      28.083910320000001      6.5875162300000003
   520   1      28.457476379999999      27.962163199999999      6.7356111600000004
   521   1      2.1579092499999999              3.43267239      6.5012731700000002
   522   1      6.0637475099999998      3.3108750900000001      6.5549241399999998
   523   1      10.207707060000001      3.5009626599999999              6.68204186
   524   1             14.37503925      3.3723749700000001      6.6431261900000003
   525   1      18.203826289999999      3.5361950200000001      6.6027659700000001
   526   1             22.49154218              3.58414915      6.5525666899999999
   527   1      26.356159760000001      3.6006794900000001      6.5908846700000003
   528   1      30.538875040000001              3.55888201      6.4754072899999997
   529   1    0.097578849999999995               7.0175212      6.5614062000000004
   530   1      4.0262883799999996      7.0278440099999999                6.376506
   531   1      8.2885327199999992      6.9727110899999998      6.6104682099999996
   532   1      12.194755130000001              7.07512863      6.5260767599999996
   533   1      16.328850030000002      7.0955077900000001      6.5251624000000001
   534   1      20.423816890000001      7.1310160600000003      6.6053363899999997
   535   1             24.52619176              6.87114359              6.49457971
   536   1      28.523771369999999      6.7622836700000004      6.7315080199999997
   537   1      1.9648011700000001             10.53104523      6.7322186000000004
   538   1      6.3150452100000001             10.53983311              6.50149241
   539   1      10.172375410000001      10.643672090000001      6.7081214400000002
   540   1      14.353004889999999                10.49211      6.6393781499999998
   541   1      18.314806990000001      10.690738509999999      6.5803352200000003
   542   1             22.45499616      10.752793280000001      6.6067123499999996
   543   1             26.28930708      10.463698730000001      6.5903831799999999
   544   1      30.524682670000001      10.325135660000001      6.4840630600000004
   545   1     0.33014965000000002              13.9412913      6.7027757499999998
   546   1      4.4127808599999998             14.16290156      6.6876198699999998
   547   1      8.2512887300000006             14.09888265      6.4429206499999996
   548   1             12.30260419             13.93367048              6.49374275
   549   1      16.210950230000002      13.965241779999999      6.7428326399999996
   550   1      20.205992909999999             14.03687751      6.6586252000000004
   551   1      24.397961129999999      14.102603070000001      6.4492142100000001
   552   1      28.437087200000001             13.89179957              6.75167742
   553   1              2.05240205      17.647246379999999              6.47176784
   554   1      6.2100750800000002      17.680616029999999      6.6704419899999996
   555   1             10.21539243      17.599300379999999      6.7101092800000002
   556   1      14.367286910000001      17.617127700000001      6.6730191000000003
   557   1      18.182346649999999      17.626399989999999      6.7188205600000002
   558   1             22.32583472      17.732913830000001      6.3019335099999996
   559   1      26.217024439999999             17.71438985      6.4111988999999996
   560   1      30.470191410000002      17.392189030000001      6.6707218599999996
   561   1             -0.10390397      20.962441720000001              6.63173485
   562   1      4.0341589600000001      21.154889149999999      6.8220432300000002
   563   1      7.9975187099999996      21.094534329999998      6.8292335800000004
   564   1             12.12507956      21.021848129999999      6.7864001500000004
   565   1      16.269226499999998      21.103315859999999      6.6178762200000003
   566   1             20.17128383      21.241602369999999      6.5799159600000001
   567   1             24.39878057      21.308391180000001      6.4200179799999999
   568   1             28.20834644              21.1589882      6.6500462799999998
   569   1      2.0029656999999998      24.614810259999999      6.7248613199999996
   570   1      6.1053886400000001      24.716100170000001      6.7739802400000002
   571   1             10.15815312             24.42228609              6.65420927
   572   1      14.091331930000001      24.493183810000001      6.4447434100000001
   573   1      18.234613100000001      24.741364239999999      6.5516825499999998
   574   1      22.550823269999999             24.56286326      6.6993390000000002
   575   1      26.325278699999998      24.752099950000002      6.8841479899999998
   576   1      30.402165180000001             24.50271673      6.7065908900000002
   577   1      2.0767538999999999      1.3136988300000001      7.5353512299999998
   578   1      6.1412407599999996      1.1305330899999999      7.6235054900000003
   579   1             10.26056142              1.08982479      7.3358814800000003
   580   1      14.468410009999999               1.1416172      7.4504852799999997
   581   1      18.293438980000001      1.2484034799999999      7.7293639699999996
   582   1             22.43763453      1.2051212899999999      7.5455520199999997
   583   1      26.685681429999999      1.1711018500000001              7.29412327
   584   1             30.56020771      1.2394749899999999      7.2459420699999999
   585   1      32.571386619999998      4.8469575499999999      7.4745434299999998
   586   1      4.2113331900000004              4.67504878      7.2170569000000002
   587   1      8.3374254699999995              4.64573795      7.6926082100000004
   588   1             12.50794644      4.6365891100000001      7.5419450699999997
   589   1      16.596720220000002              5.02908095      7.6799073099999999
   590   1      20.332045579999999      4.7345273299999997      7.4779427600000004
   591   1             24.42305429      4.7928350100000001      7.6718472599999998
   592   1             28.61572065      4.5312727800000001      7.5075402100000002
   593   1              2.25218081      8.1267671499999992      7.4574810200000003
   594   1      6.0065819999999999      8.1159275700000002      7.4136779500000003
   595   1      10.322577539999999      8.3527038400000002      7.6109867700000002
   596   1      14.232974349999999      8.0876549499999992              7.52698146
   597   1             18.22269992      8.6710612600000001      7.5586068800000001
   598   1      22.663070909999998      8.4215702500000003      7.3156113400000002
   599   1      26.385242890000001      8.1701421199999995      7.4361277499999998
   600   1              30.5059209      8.2494958700000005      7.2600183500000002
   601   1    0.035931789999999998      11.545846510000001      7.6658571499999999
   602   1      4.1590692200000001      11.655876019999999      7.4491199200000002
   603   1      8.2140762600000006             11.72940676      7.2100145099999997
   604   1             12.35044285             11.60829515      7.2679894799999998
   605   1      20.703576040000002      9.4092278500000006      8.1831647099999998
   606   1             20.25291803              11.7207516      7.5833399100000003
   607   1      24.420585079999999      11.813752149999999      7.3671391599999998
   608   1             24.51619973      9.5574917100000008      8.2481200099999992
   609   1      2.3215075399999998             15.19740893      7.8021358100000002
   610   1              6.42163065      15.312126709999999      7.5996324499999997
   611   1      10.259973540000001      15.239354430000001      7.4703955400000002
   612   1             14.22496211      15.296124880000001      7.4339706400000001
   613   1             18.29278923      15.446314060000001      7.3157046100000001
   614   1      22.288817389999998      15.413443259999999      7.2570333800000002
   615   1             26.25609467             15.31657787      7.5509808600000001
   616   1      30.658719489999999             15.05425997      7.5303024399999998
   617   1             -0.12193785      18.590559259999999      7.5332774300000001
   618   1      3.9858369699999998             18.79407024              7.57077168
   619   1      8.0889887799999993      18.835172740000001      7.7540263400000002
   620   1      12.161858710000001             18.46292644      7.4728311300000003
   621   1      16.234693740000001      18.852628190000001      7.3887448899999999
   622   1      20.106047310000001      18.616071080000001      7.4619457799999998
   623   1             24.16029391      18.853715739999998      7.4467922900000003
   624   1      28.188200160000001      18.569606969999999      7.3865914500000001
   625   1      1.9229531200000001      22.270730499999999      7.3266217300000003
   626   1      6.0355900900000004      22.390087319999999      7.6313974699999996
   627   1      10.312260009999999      19.653055649999999      8.5926107900000002
   628   1      13.985449729999999             22.11002783      7.7755276899999997
   629   1             18.36401137      22.540980210000001      7.5408337799999998
   630   1      22.322529209999999      22.159503059999999      7.4024297900000002
   631   1             26.42081653             22.23579097      7.2828641799999998
   632   1             30.31000023      22.172426600000001      7.8601352200000001
   633   1             32.45785343             25.71350004      7.5831575500000001
   634   1      4.0146231099999996      25.835439860000001      7.4555474999999998
   635   1      8.1893605399999991             25.73479605              7.43202958
   636   1              12.2658159      25.701107279999999      7.4984795799999997
   637   1      15.957511289999999      25.811978700000001      7.6570613400000003
   638   1             20.42549103             25.74427902      7.5094153800000001
   639   1      24.176603329999999      25.844325309999999              7.50294873
   640   1      28.482145379999999             25.64510275              7.62122586
   641   1      4.3490657099999996      6.9352729200000001      8.7980512399999995
   642   1      2.2039068500000001      8.1573223600000002      9.9077264100000004
   643   1             12.24227088      2.4357430299999998      8.0196588599999998
   644   1      16.346329860000001              0.24381521      9.0195233300000002
   645   1      10.058532120000001      22.155590830000001      7.8510674800000002
   646   1      22.617092589999999             24.87775963      9.4026035199999995
   647   1             22.77875555              3.29691263      8.8098898299999995
   648   1      32.483589219999999      2.2455991100000001      8.1394590499999993
   649   1     0.35032601000000002      16.349130420000002      8.2064857999999994
   650   1      1.7679961200000001      24.856258740000001      9.2977876500000001
   651   1      18.221987110000001             24.53977313      8.9753546100000001
   652   1      10.452729079999999      5.9815354899999997      8.1489151900000003
   653   1             24.35843388      14.360490260000001      8.9764513800000003
   654   1      3.9315282599999999              0.15195759      9.0945150100000003
   655   1      22.238680630000001      27.073439659999998      8.3165386100000003
   656   1      4.3081185499999997      4.5072650799999998      9.7059547100000003
   657   1      8.1682242600000006      9.4590374700000002              8.27806861
   658   1             16.14605791             16.40134814      8.2617860699999994
   659   1      6.1821987399999996              10.6279123      9.0425693500000008
   660   1              10.2574497              3.90017872      9.0467958199999998
   661   1      26.323301010000002      26.954982309999998      8.1965104800000006
   662   1             26.75276058      6.0406908899999996      8.2115351099999998
   663   1      20.205518179999999      2.4062614999999998      8.1064139799999992
   664   1      2.3746092000000001             12.70224213      8.5159455400000006
   665   1      10.213426589999999             10.60497556      9.2680957700000004
   666   1      12.036706880000001      21.309962980000002      9.1906966200000006
   667   1      8.7079506700000007             16.56001483      8.5505143700000001
   668   1      16.412733849999999             11.74791008      7.5106068300000004
   669   1      30.584778490000001             12.49236616      8.2707548499999994
   670   1             28.42318758      9.1986747199999996      8.1849181499999997
   671   1      4.5257839999999998      13.900532249999999      9.2554555700000005
   672   1      32.388167240000001      13.818400560000001      9.0557809700000007
   673   1              0.21939496  -0.0094234599999999998      8.9762166600000004
   674   1      2.2634019099999998      17.582486830000001              9.01207958
   675   1      24.199077219999999      16.459610420000001      8.0117154599999996
   676   1      12.102876309999999      23.509515480000001      8.1432511200000004
   677   1      22.344113350000001      5.9620182699999997      8.2701381499999993
   678   1             24.26332773      19.089694770000001      9.7397236899999999
   679   1      24.633522960000001              7.22015429      8.9552370799999998
   680   1             28.39577598             11.50883134      7.4868485900000001
   681   1      1.8106857300000001              3.57290866      8.8000549699999997
   682   1      6.4695277000000004      17.518026420000002      9.0811752099999996
   683   1      5.9185457299999999      24.557804709999999      9.0026226000000005
   684   1      10.605600539999999      12.964756080000001              8.17739394
   685   1      22.058372469999998      19.919588539999999      8.3459382099999999
   686   1      22.259812790000002             17.49547939      8.9914615500000004
   687   1              22.3559375             13.22490472              8.12729708
   688   1      28.530895050000002      13.747853279999999      9.0764568699999995
   689   1      19.919201359999999      21.332338839999998      9.0512115099999999
   690   1      3.9412265999999998             21.18576174      9.0754458699999994
   691   1     0.13045963999999999      6.8743404899999998      8.9279895000000007
   692   1              22.3178543      22.111716130000001      9.8965164199999993
   693   1             18.34942775      10.792850899999999      8.9477839899999996
   694   1      20.230904200000001      16.276652080000002      8.3485853399999996
   695   1      24.385088970000002      23.529685659999998      8.3246041599999998
   696   1      28.258622769999999      21.029247600000001      9.1103821699999994
   697   1      3.9373127800000001      2.4517668800000001      8.2748933200000003
   698   1      16.220218790000001      22.995517830000001      8.3064695000000004
   699   1      20.440097430000002             25.72589975      9.9636701700000003
   700   1             18.15975474      26.873622560000001      8.2418808099999996
   701   1             13.91515416      27.123145940000001      8.4690079699999998
   702   1      28.292370729999998      23.431878650000002      8.4604613299999993
   703   1      20.219729439999998             28.10840735      9.0466689999999996
   704   1      30.381521920000001      24.542901449999999      9.1784286900000005
   705   1      2.2148108799999999              5.89057093      7.9350487200000002
   706   1      8.0877115899999996             28.14358275      9.1073954799999992
   707   1      14.562494729999999      5.8447184099999996      8.3787775399999997
   708   1              20.5123997             18.73656729      9.7213773499999991
   709   1             24.27779701             28.22940642      9.0361781600000004
   710   1             18.26313871      19.921726190000001      8.0939767200000006
   711   1      30.509303469999999      3.4762151399999999      9.0141993500000002
   712   1    0.049825590000000003      23.409167849999999      8.4598616900000003
   713   1      30.371077060000001              1.10897969              9.63900121
   714   1      32.444736749999997      21.014247600000001      9.0582922000000003
   715   1             30.54679097      26.999194360000001      8.2062351200000005
   716   1      14.086488620000001      24.574359479999998      8.9948044500000002
   717   1      26.390385999999999      22.582823399999999      9.7985957199999998
   718   1      26.469123360000001              3.79094957      8.9843100499999995
   719   1              1.61409677      10.450070330000001      9.3314299700000003
   720   1             30.44952773      6.1095906099999997      8.2646750999999998
   721   1      4.0318370000000003      9.3279379700000007      8.6653235100000003
   722   1      8.0979090500000002             20.83680476      9.1985088400000006
   723   1      6.3585987399999997      5.8624161199999998              8.47598947
   724   1              5.79982299      8.4148824799999993      9.9797068000000007
   725   1             12.31415893      6.9832861299999998      8.9687957199999992
   726   1             16.07216794      9.4085160299999995      8.3263097300000002
   727   1      18.172963459999998      17.619246409999999      9.0561387199999999
   728   1             30.44092637      10.338626319999999              9.00583679
   729   1      8.2250062699999997      14.190236430000001      8.9433533500000006
   730   1              8.44137542      2.2411126800000001      8.2976723099999994
   731   1             12.49557791      9.6018147999999997      8.3599601999999997
   732   1      16.560202929999999      7.3063680399999997      8.8893426400000006
   733   1      18.331866229999999             13.18321555      8.4320033799999994
   734   1      2.0142707400000002      27.057302830000001      8.1492619200000007
   735   1      24.674826100000001      2.3418727700000002              8.36948282
   736   1              8.26817432             11.75256096      9.6186920899999997
   737   1             30.22250107      19.706849290000001      8.4518856000000007
   738   1    0.050995850000000002      9.0463029200000005              8.00383523
   739   1             14.05583642      13.037631449999999      8.1555032399999998
   740   1      18.678155480000001               6.2569583      8.2210304199999999
   741   1             26.25603327      12.895873399999999      8.4219035200000008
   742   1      28.567637529999999      2.1785380600000002      8.4998684299999994
   743   1      18.363966139999999      3.9629485999999998      9.0137804900000003
   744   1              30.8613733             17.03600372      9.2026370800000006
   745   1      2.0218379199999998      20.114225869999999      8.0958309600000007
   746   1      6.3006077600000001      12.972509909999999              8.13567748
   747   1             12.25572118             16.23034702      8.4181910799999997
   748   1      8.0680773499999994      23.505310170000001      8.2462377700000005
   749   1             26.38249935      17.476447400000001      8.8214944200000005
   750   1      28.495040459999998      16.197683479999998      8.2287587500000008
   751   1      24.379113929999999      21.209442989999999      8.9842195300000007
   752   1      4.2000530899999999             16.40051961      8.3433821600000009
   753   1      6.0347243700000002             19.81782883      8.0751528799999992
   754   1      10.156770590000001      26.976369250000001      8.0131810300000001
   755   1      6.3192611599999999      3.3801425100000002      8.8414607299999997
   756   1      10.055451250000001      24.634962850000001      9.0456296999999992
   757   1      3.7883315799999999      23.592691729999999      8.3308552500000008
   758   1             26.60543852      1.2938694399999999      9.6185615999999996
   759   1      26.370098209999998      19.939451030000001      8.1473813199999991
   760   1      27.148204339999999             25.16141803      9.5695734600000009
   761   1             14.21605521             19.46703681      8.4950620800000003
   762   1      26.828534680000001             10.41319732      9.2785061199999994
   763   1      8.6539925100000001      7.2274747000000001      9.1111955499999997
   764   1      6.1400845300000002      26.956868870000001      8.2244043900000001
   765   1      16.264090750000001      2.4924222199999999      8.3213092999999994
   766   1      20.693190659999999      23.577000640000001      8.3732226300000008
   767   1      28.417053119999999      27.634798350000001      9.4300127400000004
   768   1      1.8902685100000001      22.311586590000001      9.8326394799999992
   769   2      28.698152740000001      10.703015600000001      9.3383748099999995
   770   2      27.681608789999999      12.155767279999999      9.4013751400000007
