N2-dn2-coord-10bar/700K/snapshots/frame-76957/run-000/../data.lammps (written by ASE) 

770 	 atoms 
2  atom types
0.0      32.470343392086264  xlo xhi
0.0      28.120142247150884  ylo yhi
0.0      31.213473999158239  zlo zhi


Atoms 

     1   1      2.0293964600000001      1.1716090800000001    0.023552650000000001
     2   1      6.0880008999999999              1.17168918              0.02556874
     3   1      10.146952280000001              1.17170328    0.025416459999999998
     4   1      14.205754900000001      1.1716496700000001              0.02501565
     5   1             18.26456816              1.17166478              0.02504435
     6   1             22.32338141      1.1716496700000001              0.02501565
     7   1      26.382184030000001              1.17170328    0.025416459999999998
     8   1      30.441135410000001              1.17168918              0.02556874
     9   1  9.1780000000000006e-05      4.6866847900000002    0.025581599999999999
    10   1      4.0587011400000002      4.6866847900000002    0.025581599999999999
    11   1      8.1174961000000003      4.6866290399999997    0.025584639999999999
    12   1             12.17638011      4.6866852999999997              0.02491202
    13   1             16.23517979      4.6866942700000003    0.025006210000000001
    14   1      20.293956519999998      4.6866942700000003    0.025006210000000001
    15   1      24.352756209999999      4.6866852999999997              0.02491202
    16   1      28.411640219999999      4.6866290399999997    0.025584639999999999
    17   1      2.0293964600000001      8.2016395800000002    0.026613040000000001
    18   1      6.0881071599999999      8.2016314300000008              0.02543782
    19   1             10.14701835               8.2017045    0.025156850000000001
    20   1      14.205766049999999      8.2017080900000003    0.024990459999999999
    21   1             18.26456816      8.2017077599999997    0.025091249999999999
    22   1      22.323370260000001      8.2017080900000003    0.024990459999999999
    23   1      26.382117969999999               8.2017045    0.025156850000000001
    24   1      30.441029149999999      8.2016314300000008              0.02543782
    25   1  9.2789999999999998e-05             11.71671873    0.025573410000000001
    26   1              4.05870014             11.71671873    0.025573410000000001
    27   1      8.1176017700000003             11.71668698              0.02497914
    28   1             12.17637068             11.71673069    0.025001590000000001
    29   1      16.235177310000001      11.716730249999999    0.025074039999999999
    30   1      20.293959009999998      11.716730249999999    0.025074039999999999
    31   1      24.352765640000001             11.71673069    0.025001590000000001
    32   1      28.411534549999999             11.71668698              0.02497914
    33   1      2.0293964600000001             15.23167155              0.02525285
    34   1      6.0881728300000004      15.231678799999999    0.025062859999999999
    35   1             10.14698486      15.231762639999999               0.0250786
    36   1             14.20578841             15.23176782    0.025201990000000001
    37   1             18.26456816              15.2317707    0.025149979999999999
    38   1      22.323347900000002             15.23176782    0.025201990000000001
    39   1      26.382151459999999      15.231762639999999               0.0250786
    40   1      30.440963480000001      15.231678799999999    0.025062859999999999
    41   1      32.470327990000001      18.746748629999999    0.024951939999999999
    42   1      4.0588083299999997      18.746748629999999    0.024951939999999999
    43   1      8.1175770200000006      18.746803499999999    0.025222040000000001
    44   1             12.17637459      18.746799750000001    0.025428470000000002
    45   1      16.235159400000001      18.746805200000001    0.025487360000000001
    46   1      20.293976919999999      18.746805200000001    0.025487360000000001
    47   1      24.352761730000001      18.746799750000001    0.025428470000000002
    48   1             28.41155929      18.746803499999999    0.025222040000000001
    49   1      2.0293964600000001      22.261939099999999    0.025844880000000001
    50   1      6.0881419299999999      22.261841799999999    0.025489439999999999
    51   1             10.14692954             22.26176895              0.02551757
    52   1             14.20573559      22.261804690000002    0.025639160000000001
    53   1             18.26456816             22.26178625    0.025640119999999999
    54   1      22.323400729999999      22.261804690000002    0.025639160000000001
    55   1      26.382206780000001             22.26176895              0.02551757
    56   1             30.44099439      22.261841799999999    0.025489439999999999
    57   1  5.6450000000000003e-05      25.776936450000001              0.02613327
    58   1      4.0587364700000004      25.776936450000001              0.02613327
    59   1      8.1175325399999991              25.7767713    0.024734180000000001
    60   1      12.176376469999999      25.776831090000002              0.02545323
    61   1      16.235145939999999      25.776775220000001    0.025273360000000002
    62   1             20.29399038      25.776775220000001    0.025273360000000002
    63   1      24.352759840000001      25.776831090000002              0.02545323
    64   1      28.411603769999999              25.7767713    0.024734180000000001
    65   1  0.00024266000000000001              2.34304215     0.80166565000000001
    66   1      4.0585502699999996              2.34304215     0.80166565000000001
    67   1      8.1157394600000003              2.34454954     0.80169402000000001
    68   1             12.17601256      2.3433829099999999     0.80116898000000003
    69   1      16.235258170000002      2.3433209100000001     0.80090046999999998
    70   1      20.293878150000001      2.3433209100000001     0.80090046999999998
    71   1      24.353123750000002      2.3433829099999999     0.80116898000000003
    72   1      28.413396859999999              2.34454954     0.80169402000000001
    73   1      2.0293964600000001      5.8582218700000004     0.80119762000000005
    74   1      6.0870566899999998      5.8583336700000004              0.80194851
    75   1             10.14649655              5.85853131     0.80121584000000001
    76   1             14.20597894      5.8582938599999999     0.80086840999999998
    77   1             18.26456816      5.8583798500000004               0.8010794
    78   1      22.323157380000001      5.8582938599999999     0.80086840999999998
    79   1             26.38263976              5.85853131     0.80121584000000001
    80   1      30.442079629999999      5.8583336700000004              0.80194851
    81   1  0.00019438999999999999      9.3717771800000005     0.80082061000000004
    82   1      4.0585985400000002      9.3717771800000005     0.80082061000000004
    83   1      8.1175070500000004      9.3725002699999997     0.80149060999999999
    84   1      12.176590020000001      9.3733583399999993     0.80088261999999999
    85   1             16.23512199      9.3733789200000004              0.80106506
    86   1             20.29401433      9.3733789200000004              0.80106506
    87   1      24.352546289999999      9.3733583399999993     0.80088261999999999
    88   1      28.411629269999999      9.3725002699999997     0.80149060999999999
    89   1      2.0293964600000001             12.88692854     0.80220621000000003
    90   1      6.0883212999999996             12.88743848     0.80138414999999996
    91   1      10.147128609999999             12.88859852     0.80085256000000005
    92   1             14.20571782      12.888558189999999     0.80113791000000001
    93   1             18.26456816      12.888409899999999     0.80109381000000002
    94   1      22.323418490000002      12.888558189999999     0.80113791000000001
    95   1             26.38200771             12.88859852     0.80085256000000005
    96   1      30.440815019999999             12.88743848     0.80138414999999996
    97   1              0.00012365      16.403222639999999     0.80145666999999998
    98   1      4.0586692700000002      16.403222639999999     0.80145666999999998
    99   1      8.1174337899999998      16.403825260000001     0.80097196999999998
   100   1              12.1761021             16.40390721     0.80133072000000005
   101   1             16.23503496      16.403861750000001     0.80140014999999998
   102   1      20.294101359999999      16.403861750000001     0.80140014999999998
   103   1      24.353034220000001             16.40390721     0.80133072000000005
   104   1      28.411702529999999      16.403825260000001     0.80097196999999998
   105   1      2.0293964600000001      19.919205120000001     0.80066369999999998
   106   1              6.08752564             19.91894023     0.80122479000000002
   107   1      10.146078839999999             19.91919038     0.80159137999999996
   108   1      14.204993419999999              19.9192584     0.80178742000000003
   109   1             18.26456816      19.919377350000001     0.80194975999999996
   110   1      22.324142899999998              19.9192584     0.80178742000000003
   111   1      26.383057470000001             19.91919038     0.80159137999999996
   112   1      30.441610669999999             19.91894023     0.80122479000000002
   113   1              0.00142012      23.434536609999999     0.80178442000000005
   114   1      4.0573728100000004      23.434536609999999     0.80178442000000005
   115   1      8.1165862000000004      23.433936769999999     0.80182306000000003
   116   1             12.17555218      23.433996919999998     0.80156656000000004
   117   1             16.23465491      23.434040110000002     0.80170828999999999
   118   1      20.294481409999999      23.434040110000002     0.80170828999999999
   119   1      24.353584130000002      23.433996919999998     0.80156656000000004
   120   1      28.412550110000002      23.433936769999999     0.80182306000000003
   121   1      2.0293964600000001      26.949875330000001              0.80297246
   122   1      6.0858208300000003      26.950066320000001              0.80215291
   123   1             10.14598146      26.949241430000001     0.80165810000000004
   124   1             14.20520604      26.948673230000001     0.80131923999999999
   125   1             18.26456816             26.94858318     0.80108193999999999
   126   1      22.323930279999999      26.948673230000001     0.80131923999999999
   127   1      26.383154860000001      26.949241430000001     0.80165810000000004
   128   1             30.44331549      26.950066320000001              0.80215291
   129   1      32.503309360000003      28.199760340000001      1.7398604900000001
   130   1      4.1228376600000001      28.060817069999999              1.50742211
   131   1      8.0905126900000006      28.187881999999998              1.44587394
   132   1             12.15443531   -0.073528049999999998      1.4598404300000001
   133   1      16.319909729999999   -0.051262759999999997              1.38778231
   134   1             20.35398606      28.239134230000001              1.42145682
   135   1      24.413246350000001   -0.053580410000000002      1.2084742399999999
   136   1      28.419090189999999             -0.10872155      1.2840040699999999
   137   1      2.0116853099999998      3.5299215899999998      1.4298112700000001
   138   1      6.1641735100000004      3.6635922600000002              1.50852593
   139   1      10.015187210000001      3.5464921399999998              1.39037455
   140   1             14.10808591      3.5262227500000001      1.4078951200000001
   141   1              18.2524178      3.4510524400000002              1.45479816
   142   1             22.40204202               3.5218406      1.6385034300000001
   143   1      26.370700060000001      3.7154469699999999              1.57607447
   144   1      30.485906159999999      3.4287895100000001              1.42539134
   145   1      32.525341930000003      6.9941372900000003              1.44296432
   146   1      4.0624607499999996      6.9565484499999997      1.3713295999999999
   147   1      8.1302691199999995      6.9971748800000002              1.54528836
   148   1             12.09241029      7.0054340000000002              1.43235124
   149   1             16.15422594              7.11363769      1.7582089400000001
   150   1      20.336891260000002      7.1030751900000002      1.5839661300000001
   151   1      24.324919139999999      7.0082545700000001              1.45350768
   152   1      28.267969579999999      7.0280013400000003              1.41871737
   153   1               1.9420118             10.55197061               1.3305806
   154   1      6.2261803899999997             10.61481931      1.3582752499999999
   155   1             10.28537629      10.577564089999999      1.4934051100000001
   156   1             14.20803912      10.491956200000001      1.5808402100000001
   157   1      18.209060059999999             10.50292213              1.38251686
   158   1      22.387993949999998             10.48100105              1.37687516
   159   1      26.316024089999999             10.68854953      1.3393061799999999
   160   1      30.401250940000001             10.51024617              1.48628541
   161   1             32.52381767             14.15222734              1.32702293
   162   1              4.16277455             14.06184279      1.6370884999999999
   163   1      8.1420839699999998             14.17801414              1.51272411
   164   1      12.112735199999999      14.023418380000001              1.61083274
   165   1      16.290374270000001      14.058500560000001               1.2196581
   166   1      20.345722030000001      13.994392530000001      1.3585539499999999
   167   1      24.238472420000001      13.932703679999999              1.22616579
   168   1      28.436206949999999             14.07213028              0.97685886
   169   1              2.02103681      17.704616479999999              1.51058286
   170   1      6.1804974899999996      17.558230590000001               1.4931245
   171   1      10.244987399999999             17.70504158      1.2759516099999999
   172   1      14.221370889999999      17.587444099999999              1.45349043
   173   1      18.439749800000001             17.55227738      1.3626145599999999
   174   1      22.320500599999999      17.564729459999999      1.2557030199999999
   175   1             26.31582706      17.530300560000001      1.4353049499999999
   176   1      30.289992699999999      17.605700129999999              1.27246872
   177   1    -0.14204025000000001      21.084789520000001              1.67923318
   178   1      4.1607392499999998             21.09897514      1.2408520300000001
   179   1      8.0938884400000006      21.125301050000001               1.5715492
   180   1      12.149429080000001             21.18497915      1.4900897799999999
   181   1      16.116945600000001      21.023282420000001      1.5883105500000001
   182   1             20.30668747      20.818248390000001              1.36231009
   183   1      24.351188010000001      20.926532430000002              1.37307471
   184   1      28.492397929999999      20.965000620000001      1.3197983600000001
   185   1      2.1069454400000001             24.55115567              1.60809359
   186   1      5.9584480400000004             24.62514187      1.6083998399999999
   187   1             10.26423305             24.68206872              1.55537872
   188   1      14.159223649999999      24.666435629999999              1.54719688
   189   1             18.31455622      24.662190240000001      1.3766225999999999
   190   1      22.217460989999999      24.645602180000001      1.6806956399999999
   191   1      26.398534340000001      24.642550700000001      1.6406081400000001
   192   1      30.383634489999999      24.619963049999999      1.5501307499999999
   193   1      2.1458407799999999              1.02137802               2.4334487
   194   1      6.2495408899999996      1.2134999900000001      2.4133857299999999
   195   1             10.16302018      1.2982011899999999      2.4608217699999999
   196   1             14.22730325              1.02547436      2.4550520699999998
   197   1      18.218925420000001      1.2524110500000001      2.5020663600000002
   198   1      22.305857159999999              1.08451297      2.5502621200000002
   199   1             26.54423551              1.44584998      2.3637282900000001
   200   1      30.450397840000001      1.1521188499999999      2.4419055900000002
   201   1   -0.033659269999999998              4.59188434      2.3925099699999999
   202   1      4.1211500799999996      4.4643046000000002      2.4814396599999999
   203   1      8.2683220399999993      4.5372116800000004      2.5252631000000001
   204   1      12.164311400000001      4.7035584400000001              2.48787979
   205   1      16.133159079999999      4.7153837999999997      2.3354933199999999
   206   1             20.22808169      4.6803948599999998      2.3555721100000002
   207   1             24.40176336      4.8940030700000001      2.4636709699999999
   208   1      28.549836519999999      4.6812273600000003      2.3701099299999999
   209   1               2.0537771      8.2300436599999998      2.3987006499999999
   210   1      6.1910322300000002      8.1181373299999997      2.3010863100000001
   211   1             10.14839746      8.1318943800000003              2.50730173
   212   1             13.97419605      8.1961642999999995      2.5532666399999999
   213   1      18.222552610000001      8.2511370599999996      2.4308023699999999
   214   1      22.464018620000001      8.2136817499999992      2.4210917900000002
   215   1      26.419947329999999      8.4046138900000003              2.38732736
   216   1      30.438445649999998      8.0764541199999993      2.3909009600000002
   217   1             32.52748879             11.59984598      2.4637327400000002
   218   1      4.0396869999999998      11.597453740000001              2.41035471
   219   1      8.1691912000000002      11.628705679999999      2.4494379899999998
   220   1             12.28234608      11.788583340000001      2.4903619099999998
   221   1      16.283723720000001             11.65557098      2.3999355000000002
   222   1      20.287489059999999      11.737248040000001      2.3355852100000001
   223   1      24.405232959999999             11.70207171      2.2891060900000002
   224   1      28.390417970000001      11.707888519999999              2.45021515
   225   1              1.96774362      15.393358539999999      2.3637123899999999
   226   1      6.1276505700000001      15.298959849999999      2.5613080400000001
   227   1      10.165659659999999             15.33171823      2.4882590599999999
   228   1      14.174872260000001             15.13993363      2.6978228999999998
   229   1      18.183913530000002              15.1791918      2.4002715499999998
   230   1      22.422113379999999      15.248039929999999      2.5166289399999999
   231   1              26.4984845             15.23315983              2.47200788
   232   1      30.497714989999999             15.14248621      2.4959189300000002
   233   1   -0.033628030000000003      18.848625389999999              2.30102881
   234   1      4.0367316100000004      18.730868109999999      2.3407896099999999
   235   1              8.12063983             18.85504852      2.4411849399999999
   236   1             12.24429407             18.79686706              2.56292155
   237   1      16.279158150000001      18.571196310000001      2.4295178800000001
   238   1      20.406719729999999      18.718276159999998      2.4191746699999999
   239   1      24.400898340000001             18.66389006      2.5760956199999998
   240   1             28.46899844      18.913670029999999              2.52114313
   241   1              2.01257229      22.188850949999999      2.3432304099999999
   242   1      6.1031547399999999      22.393880370000002      2.4267079100000002
   243   1      10.058301500000001      22.062017229999999      2.5136209699999998
   244   1      14.203094739999999      22.327801610000002              2.46112967
   245   1      18.323746369999999      22.188891470000002      2.4091338800000002
   246   1      22.211403659999998      22.346693590000001      2.2742722199999998
   247   1      26.177783909999999      22.299290240000001      2.4327736799999999
   248   1      30.453652850000001      22.286805609999998      2.3541450300000002
   249   1              0.01102387              25.8012418      2.5123691899999998
   250   1      4.0903594999999999             25.74169182      2.6473853699999998
   251   1      8.1382503199999991      25.783242950000002      2.5088767199999999
   252   1             12.28129116      25.842978240000001      2.4994110799999998
   253   1      16.231097930000001             25.70338915      2.5132742399999999
   254   1      20.083152340000002      25.878285000000002      2.4624373500000001
   255   1      24.385152189999999      25.880287880000001      2.4607558900000002
   256   1      28.394322599999999      25.778972660000001      2.5273606900000001
   257   1   -0.055934669999999999      2.2617060800000002      3.3291247799999999
   258   1              4.20268468              2.14408274      3.3228418500000001
   259   1      8.0647077700000001      2.4168696199999999      3.2809308700000002
   260   1      12.417630190000001      2.3279825199999999              3.25325759
   261   1      16.100405330000001      2.3857635899999998      3.3620898800000001
   262   1      20.442100610000001      2.4281596400000001      3.2128379100000002
   263   1      24.330980660000002      2.5782482299999998              3.17923022
   264   1      28.498007149999999      2.3339255099999998      3.3571763799999998
   265   1      2.1519606100000002      5.7365210600000003      3.2344280099999998
   266   1      6.0378061399999998      5.8353468700000004      3.2105125999999999
   267   1      10.234905879999999      5.9230878599999999      3.3121746999999999
   268   1      14.253646310000001      5.9338516300000004      3.3197332799999999
   269   1      18.103618019999999      6.0398255399999998              3.14446387
   270   1      22.402659969999998      5.8414413500000002      3.3659193599999999
   271   1      26.651463889999999              6.05797308      3.2555781600000002
   272   1      30.547098519999999      5.8986119199999996      3.3704764900000002
   273   1             -0.02479131      9.3035768599999997      3.2659493400000001
   274   1      4.1506809000000002      9.1869809300000007      3.3264580700000002
   275   1      8.1847501999999999      9.3092083700000003              3.32767854
   276   1             12.20248043      9.3130708799999997      3.2428191200000001
   277   1      16.001313060000001      9.4631762899999998      3.2981918800000001
   278   1             20.26519648      9.2647400799999993      3.2153707100000002
   279   1      24.319106399999999      9.3840970800000001      3.4163621900000001
   280   1             28.53192069      9.4186287400000008              3.24304806
   281   1      1.9274992900000001      12.785254889999999      3.2899846899999998
   282   1      6.0469542000000001             12.97738419      3.1764076999999999
   283   1             10.15892332             12.94850205      3.2373840600000001
   284   1      14.309571589999999      12.679029209999999      3.2088418700000001
   285   1      18.290989320000001      12.753826439999999      3.1443489100000002
   286   1      22.415601129999999      12.745865869999999               3.3051233
   287   1      26.266155340000001             12.85966432      3.2362974800000002
   288   1      30.361597450000001              12.9159024      3.1438616100000001
   289   1   -0.015901459999999999      16.294858980000001      3.1052643899999999
   290   1      4.0503659299999999      16.466733680000001      3.2526656599999999
   291   1      8.1646452400000005      16.496252510000001      3.1064601399999998
   292   1      12.198288639999999      16.353797100000001      3.3006500000000001
   293   1      16.097214879999999             16.32877835      3.2246669899999998
   294   1             20.27894856      16.316768490000001              3.16162133
   295   1             24.35674921             16.41919511      3.1885768799999998
   296   1             28.55783722             16.70401408      3.2699922799999999
   297   1              2.10520679      19.821544070000002              3.33427498
   298   1      6.0225822100000004             20.05830851      3.3104706400000001
   299   1             10.15409725      19.856914759999999      3.4305726399999998
   300   1             14.23483989      19.821207999999999      3.4044916000000001
   301   1      18.287514380000001      19.820584090000001      3.2393744199999999
   302   1             22.43348799      19.935882450000001      3.2779572799999999
   303   1      26.392975010000001             19.98242793              3.24376672
   304   1      30.512607410000001      20.042669719999999      3.4049559299999999
   305   1             -0.11216158      23.427477020000001              3.55980132
   306   1              3.98477456             23.38170547      3.3921863299999999
   307   1      8.2705986100000004             23.41768837      3.2750618199999999
   308   1             12.09786029      23.602501629999999      3.2112482600000001
   309   1      16.249333239999999             23.42004893              3.18071108
   310   1             20.34988001      23.446988959999999      3.2995830100000001
   311   1             24.29599077             23.56763939      3.4014375700000001
   312   1      28.302494620000001      23.294750010000001      3.2877772900000002
   313   1      2.0525242800000001      26.892877049999999      3.2575263300000001
   314   1      5.9961333100000003      26.888121859999998      3.2864417000000001
   315   1             10.31675355      26.885256529999999      3.2347658799999999
   316   1             14.46741025             26.96163117              3.26976727
   317   1      18.258056790000001      27.029717229999999              3.26472242
   318   1      22.160218449999999      27.035673540000001      3.3395396599999998
   319   1             26.37307406      27.010316849999999      3.3809267200000002
   320   1      30.459865059999998      27.081217800000001      3.1711704599999999
   321   1      32.636068039999998      28.290369179999999      4.1114410899999996
   322   1      3.8986185299999998      28.142264050000001      3.9967617799999999
   323   1      8.0970990700000005              0.02374913      3.9467820699999998
   324   1              12.3721248    0.048799299999999997      4.1221912100000004
   325   1      16.401170910000001             28.37085622              4.30648564
   326   1      20.198681830000002   -0.078851809999999994      4.0918348900000003
   327   1      24.321712250000001      28.387834139999999      3.8740766799999999
   328   1      28.285460350000001   -0.013561190000000001              4.03309389
   329   1      2.0510624800000001      3.5542647999999999              3.99074456
   330   1      6.1690600800000004              3.58118267      4.0294484199999996
   331   1      10.139189979999999      3.5203943299999998      4.1128792699999996
   332   1             14.25402326      3.7023381999999998      4.2611960599999996
   333   1      18.084326099999998      3.7768748799999998      3.8934513700000002
   334   1      22.309644689999999              3.51822452      4.2551968200000001
   335   1      26.388760489999999      3.6300356699999998      4.1766348300000002
   336   1      30.658848859999999      3.5501943900000001      4.1223687800000004
   337   1              0.23579718      6.8065453500000004      4.1142519200000001
   338   1      4.1417133799999997      6.9665782900000002      4.1027142300000001
   339   1      8.0294687200000006      7.1644565800000004      4.1530004500000004
   340   1             12.16598299      7.0968198999999998      4.2918820100000001
   341   1      16.101108440000001      7.1080078699999998      4.1604708300000004
   342   1             20.32938755      6.9862392499999997      3.9988663400000002
   343   1             24.44512666      7.1204478599999996      4.1644685299999997
   344   1      28.502141689999998      7.0491313199999999      3.9231171499999999
   345   1              2.09930957      10.400505969999999      3.9457409499999998
   346   1      6.2380069499999999      10.495672109999999      4.2748912299999997
   347   1      10.065984419999999             10.54119923      4.1168302099999998
   348   1      14.135819870000001             10.35719334      4.3019023199999999
   349   1             18.26586644      10.547763809999999      4.1513609999999996
   350   1              22.2408696             10.51975388      4.0732022299999997
   351   1      26.378776689999999      10.507777219999999      3.9090545400000001
   352   1      30.517441529999999      10.433890480000001      4.0684446899999998
   353   1      32.523776439999999      14.009007280000001      3.9226040599999998
   354   1      4.1695305100000004      13.964099300000001      4.1710501600000001
   355   1      8.1912663899999991      14.248645420000001      4.1539730700000002
   356   1      12.102622309999999              13.9302758              4.20541593
   357   1      16.092636280000001             13.90558446              4.12244177
   358   1             20.19249323      14.005311450000001              3.98260988
   359   1             24.22341548      14.009403450000001              3.97602937
   360   1      28.328093890000002      14.224338680000001      3.8080089199999998
   361   1              1.91080827      17.663353730000001      4.2053389299999999
   362   1      6.1420252299999998      17.569057539999999      4.0707273199999996
   363   1              10.2577648      17.508628439999999      4.0609819099999998
   364   1             14.18955311      17.637960840000002      4.1803186500000002
   365   1      18.288450950000001      17.518555339999999      4.0353109900000002
   366   1      22.341099719999999             17.77389131      4.1797079699999999
   367   1      26.318336330000001             17.66423962      3.9367682300000002
   368   1             30.51350115              17.7623125      4.1057478400000003
   369   1      32.363947140000001      21.200727260000001      4.2476577799999999
   370   1      3.9123032200000001      21.098451399999998               4.2399955
   371   1      7.9587885600000003      20.930479120000001      4.2216352800000001
   372   1      12.244813880000001      21.024086830000002      4.0217300700000003
   373   1      16.247396670000001      20.930465080000001      4.1735360699999999
   374   1      20.213906959999999      21.012337550000002      4.0113088000000001
   375   1      24.166897760000001      21.095770779999999      4.0975668499999998
   376   1      28.204498600000001             21.06622471      4.1550700000000003
   377   1              1.95536241      24.570106209999999      4.1995015200000001
   378   1      6.1883337000000003      24.649348580000002      3.9917130599999999
   379   1             10.20543936              24.4636663      4.1583448900000004
   380   1             14.35897748      24.663716099999998      4.2573305799999996
   381   1      18.352482049999999      24.445402040000001      4.0752391699999997
   382   1      22.205939820000001      24.624921270000002      4.0768548400000002
   383   1      26.389029610000001              24.6207569      4.3394677899999996
   384   1      30.406181830000001             24.64536786      4.0879376799999996
   385   1      2.0161882100000001              1.21381764      5.1243851899999999
   386   1      6.0854811199999999              1.12403656              4.99241943
   387   1      10.396906939999999      1.1967920000000001      4.9101664200000004
   388   1             14.33980873      1.3619530500000001              5.15558082
   389   1      18.477420460000001              1.48820565      4.9100233900000001
   390   1      22.282334639999998      1.2960129300000001      5.0174190200000002
   391   1      26.377236459999999              1.22235837      4.8425536899999999
   392   1      30.475261280000002     0.95749207000000003      5.0055195699999997
   393   1      32.764209710000003      4.6581021299999996      4.7534244399999999
   394   1      4.2941894100000004      4.6624651400000001      5.0426874100000001
   395   1      8.0403153500000002      4.7889654200000003      4.9566707399999999
   396   1      12.215482189999999      4.9588290300000004      5.0140780600000001
   397   1      16.158903080000002      4.7763903900000004      5.0152330000000003
   398   1      20.209751990000001      4.6831846700000002      5.1477778299999999
   399   1             24.44626306      4.6372203599999997      4.9711689699999999
   400   1             28.48483002      4.6347518000000001      4.7940779100000004
   401   1      2.0464429700000002      7.9734267900000004      4.9424615999999997
   402   1      6.0368084900000003              8.12205786      4.9389390999999998
   403   1      10.183486179999999      8.1510777700000006      4.9966086900000004
   404   1      14.178209430000001      8.1516187000000002      5.2497293599999999
   405   1      18.280592259999999      8.2256152500000006              5.03435392
   406   1      22.501477959999999      8.2648829399999997      4.9848469599999996
   407   1      26.439377539999999      8.2840094200000003              4.89006893
   408   1             30.65911509      7.9036829800000001      4.9385352600000001
   409   1     0.26516995999999998      11.547966280000001      4.7866874399999997
   410   1      4.0781777000000003             11.57306105      4.8779173299999998
   411   1      8.1090613099999995             11.69207477      4.9041384900000002
   412   1      12.200835870000001             11.60558754      4.9814132200000003
   413   1      16.029368980000001              11.6712659      4.9845809299999999
   414   1      20.398675220000001      11.709552820000001      4.9357847399999999
   415   1      24.411318040000001      11.669468630000001      4.9419919800000001
   416   1      28.420639470000001             11.73194563      4.7801205299999996
   417   1      2.2401895700000001             15.27828066      4.9782605699999998
   418   1              6.31301398      15.408369799999999      5.0428432000000001
   419   1      10.199098060000001             15.39342137      4.8546700100000004
   420   1             14.12136244      14.914238810000001      5.0852954099999996
   421   1      18.169892229999999      15.085486489999999              4.86963159
   422   1      22.219524830000001      15.179547790000001      5.0082758700000003
   423   1      26.510894780000001             15.41083776      4.9607747599999996
   424   1      30.622304100000001      15.174463729999999      4.8673915499999998
   425   1      32.510523859999999      18.868856510000001      4.9773642000000002
   426   1      4.0661396200000004      18.805742519999999              4.84985439
   427   1      8.2638479999999994             18.67983319      4.7946980300000002
   428   1      12.292234260000001             18.77455557      5.0527659399999996
   429   1             16.27929439      18.448962460000001      4.9446743199999998
   430   1      20.249648560000001      18.809199599999999      4.9335065199999999
   431   1             24.37656307             18.66250059      5.0399229099999996
   432   1      28.346100799999999      18.841281939999998      4.8130607400000001
   433   1      2.1349843100000001      22.231177259999999      5.0319333300000002
   434   1      6.1977510899999997      22.340403210000002      5.0672068299999999
   435   1      10.005028729999999      22.164830420000001      4.9178639799999999
   436   1      14.276966890000001             22.21780189      4.9433669299999998
   437   1      18.169925930000002      22.216230190000001      4.9985089199999999
   438   1      22.336552709999999      22.259125099999999      4.8463680900000004
   439   1             26.36825924      22.264163109999998      5.0555903000000004
   440   1      30.256729199999999      22.225949679999999      5.0477896199999996
   441   1   -0.054514849999999997      25.843071479999999      5.0839599900000003
   442   1      4.1286937400000001      25.859282499999999      5.0230461399999999
   443   1      8.3621496799999999      25.831675619999999      5.0525796100000004
   444   1      12.267734450000001      25.824671559999999      4.9610283600000002
   445   1             16.38905815      25.773174959999999              5.14061725
   446   1      20.226971710000001             25.71837932      4.9111343700000001
   447   1      24.124861599999999      25.860467620000001      4.8738301999999996
   448   1      28.361847310000002      25.743796660000001      5.0367990300000001
   449   1    -0.15287833000000001      2.4546907400000002      5.8478435400000004
   450   1      4.1469510300000003              2.29226273              5.69140377
   451   1      8.3105742199999995              2.27252929              5.72713977
   452   1      12.168246659999999      2.5720149000000001      5.5780480399999997
   453   1             16.36933616      2.4843029699999999      5.7357131700000004
   454   1      20.525583189999999      2.5271368999999999      5.8148758899999997
   455   1      24.306386610000001      2.4519198100000001      5.7435873300000004
   456   1             28.38316378      2.3537253800000002      5.5784844900000001
   457   1      2.0688194100000001      5.7248204300000003      5.8747997600000001
   458   1      6.1037645999999999              5.86744003      5.7370317599999998
   459   1             10.01913611      5.9750621300000004      5.8670798299999998
   460   1             14.17507144      5.9821279900000004      5.9250778799999999
   461   1      18.048903469999999      6.0424261699999997      5.5735584600000001
   462   1      22.453615240000001              6.03078906      5.9465722699999999
   463   1      26.517350830000002      5.8594372100000003      5.7166380300000004
   464   1             30.55290415      5.6495125000000002      5.7756168299999997
   465   1     0.14783594999999999      9.3488927499999992      5.6614850499999996
   466   1      4.1599823599999999      9.2684909599999994      5.7729451899999997
   467   1      8.0011192199999996      9.3656981699999999      5.7095881400000001
   468   1             12.10566217      9.1938777399999996      5.9936618700000004
   469   1      16.282568869999999      9.2664623600000002      5.8898538599999997
   470   1             20.27151271      9.4334758500000007      5.7459580800000003
   471   1              24.6484095      9.4100875899999998      5.7475855200000003
   472   1             28.47217229      9.3673246999999993      5.7205746700000004
   473   1      2.0264180000000001             13.03045498      5.9342269400000003
   474   1      6.0721139800000001             12.92718294      5.7833828900000004
   475   1             10.15138962      12.954493729999999      5.7890541000000004
   476   1             14.11831396      12.693611929999999      5.7958307400000004
   477   1      18.351867720000001      12.851653900000001      5.7569754800000004
   478   1      22.455474479999999      12.847165370000001      5.8831133700000002
   479   1              26.4840242             12.87673109              5.59611868
   480   1      30.310996020000001      12.904868479999999      5.4902142100000004
   481   1      32.517894179999999             16.53872694              5.80676638
   482   1      4.0979383399999998      16.401655680000001              5.79588795
   483   1      8.3382164599999999      16.363362049999999              5.75505303
   484   1             12.30598067      16.221391229999998      5.8203020099999998
   485   1             16.28504504      16.203259769999999              5.84312085
   486   1      20.102660669999999      16.360029839999999      5.8167534400000003
   487   1             24.34268294      16.375795780000001      5.7511049300000003
   488   1      28.501648700000001      16.477980689999999      5.7671257200000001
   489   1      2.1972273599999999              19.7768956              6.01605481
   490   1               6.2065427      19.769358279999999      5.7403594900000003
   491   1      10.278175510000001             19.90624841      5.9254602600000004
   492   1      14.216663069999999             19.77657598              5.88980981
   493   1             18.17110254      19.895811980000001      5.6775424399999999
   494   1      22.208825010000002              19.8230474      5.6607299600000003
   495   1              26.4340166             19.92492992      5.8538309899999996
   496   1      30.545809469999998             19.84803131      5.8488677600000001
   497   1      32.436802550000003      23.382285549999999      5.8592103099999999
   498   1      3.9897237699999999             23.46093213      5.9904062700000003
   499   1      8.1053749800000006      23.463479580000001      5.9437859399999997
   500   1      12.427404960000001      23.320921720000001      5.8663031099999996
   501   1             16.00792315      23.417433219999999      5.8802752299999996
   502   1      20.153707149999999      23.399261509999999              5.73619974
   503   1      24.368406220000001      23.385844760000001      5.8773724400000003
   504   1      28.323086539999998      23.431215009999999              5.91205581
   505   1      2.0816773099999999             26.88397569      5.8503430300000003
   506   1      6.2295717599999998      26.994276630000002      5.7178393400000003
   507   1      10.480630229999999      27.074269480000002      5.8260850800000004
   508   1      14.437585459999999      27.226925529999999      5.7993356699999996
   509   1      18.498110830000002      27.118125150000001      5.9504409999999996
   510   1             22.15083426      26.971147599999998      5.7351162799999997
   511   1      26.409539250000002      27.045341539999999      5.6414674199999997
   512   1      30.304893209999999      26.813104890000002      5.9055852099999999
   513   1      32.594624570000001             28.18392987      6.4564550199999999
   514   1      4.1653420499999996             28.08439748      6.7723736499999996
   515   1      8.2433447900000001              -0.1000508      6.6165867499999997
   516   1      12.390364549999999      28.327022379999999      6.5627859900000001
   517   1      16.537847450000001              0.19001956              7.15611686
   518   1      20.051122029999998      28.527345260000001      6.7123959700000002
   519   1             24.38791964   -0.079659160000000007      6.4196054399999998
   520   1      28.342401519999999      28.191475860000001      6.5452160800000003
   521   1      1.9498368699999999      3.4469370800000001      6.5620593100000004
   522   1      6.1350824700000004              3.66209462               6.6077743
   523   1             10.12101112      3.6358531300000001      6.7621601699999996
   524   1             14.25396849      3.4483594200000001      6.7052196799999999
   525   1             18.44206307      3.8992352700000001      6.6616898200000003
   526   1      22.548624310000001      3.5601988100000002              6.98179675
   527   1      26.490048210000001      3.6474810099999999      6.5932556900000003
   528   1      30.407136269999999      3.4575802000000002      6.6914676100000001
   529   1   0.0041379499999999996      7.0487771099999996      6.6719970999999996
   530   1      3.9379283200000001      6.9675657900000001      6.6677311399999999
   531   1      8.0876638300000003      6.9373365700000003      6.7045538499999999
   532   1             12.28418286      6.9093234299999997      6.8294340900000003
   533   1             16.11867509      7.0803390400000001      6.8451941500000002
   534   1      20.274723170000001      7.0378367300000004      6.6124343300000001
   535   1      24.442289630000001      7.1118538899999999      6.7685467199999998
   536   1             28.50592108      7.0868951899999999      6.4546402599999997
   537   1      2.1686676299999998             10.49199303      6.4024441000000003
   538   1              6.14104122      10.574358780000001      6.7193151599999998
   539   1             10.07866989             10.62223417      6.5882843700000002
   540   1             14.08306181      10.598324509999999      6.7915637899999997
   541   1      18.137866219999999             10.51997285      6.5882374099999996
   542   1             22.27523004             10.68086467      6.4272792799999996
   543   1             26.52023625      10.620314260000001      6.6107675300000004
   544   1      30.502164650000001      10.509251689999999              6.45420821
   545   1      32.616868609999997             14.05828737      6.8094001000000004
   546   1      4.1108423600000004             14.10028477      6.5410109800000003
   547   1      8.1190487900000008             14.13704302      6.6523281499999998
   548   1             12.11330965             13.87849089      6.6976065599999997
   549   1      16.367066269999999      13.844730269999999      6.6463729000000003
   550   1      20.293503739999998              14.0393588      6.5271103300000002
   551   1             24.31180921             14.08549296      6.4287636099999999
   552   1             28.49631703             14.20345809      6.6100148699999997
   553   1      2.1192288399999999             17.64989907      6.6649226300000004
   554   1      6.1545267800000003      17.572448919999999              6.56690664
   555   1             10.45649719             17.72589164      6.4886103000000004
   556   1             14.31917552      17.352116420000002      6.6554001700000001
   557   1             18.22040659      17.523012749999999      6.7603285499999997
   558   1      22.207527689999999      17.548584479999999      6.5351398200000004
   559   1             26.26828793             17.47856711      6.5623472500000002
   560   1      30.428200149999999      17.755853980000001      6.7620789600000002
   561   1             32.46478192      21.141497009999998      6.6788337499999999
   562   1      4.3395058400000002             21.11044729      6.7022221899999996
   563   1      8.0288118999999991      21.274902699999998      6.6287681000000003
   564   1             12.37513702      21.024393209999999      6.8176907800000004
   565   1      16.114586859999999             20.94206994      6.7516877199999996
   566   1      20.287691179999999      21.229176989999999      6.4476234100000003
   567   1               24.324365      21.169456100000001      6.7738949599999998
   568   1      28.474233359999999             21.09630808      6.9390961500000001
   569   1      1.8811215400000001      24.397582969999998              6.59953828
   570   1      6.1531375300000004      24.770401700000001      6.5680261900000003
   571   1             10.37005884      24.680062230000001      6.6889355799999999
   572   1      14.237840050000001             24.68598325              6.92431252
   573   1      18.108998410000002             24.48047609      6.5137639500000004
   574   1      22.230701060000001      24.641089999999998              6.38762104
   575   1             26.53049558      24.615378629999999      6.5704490299999998
   576   1             30.30458904             24.45879768      6.6161914599999996
   577   1      2.0856874599999999     0.99860663000000005      7.5816517899999996
   578   1      6.1952688199999999      1.2323180899999999      7.4653864099999998
   579   1      10.318329390000001              1.26751386      7.6802528700000003
   580   1             14.44943408      1.3325315499999999      7.5177092400000003
   581   1             18.41312112              1.67988417              7.50583534
   582   1             22.39020889              1.11834649      7.2606649599999997
   583   1      26.281209650000001      1.2700029100000001              7.52932398
   584   1      30.386670980000002      1.1342352499999999      7.2196802399999997
   585   1      32.414569389999997      4.6019601000000003      7.3786824500000003
   586   1      4.0147466100000004      4.6095217999999996      7.5988280699999997
   587   1      8.1342365900000004      4.7206179800000001      7.6320238500000004
   588   1      12.325504499999999      4.5610537300000003      7.4627042499999998
   589   1      16.179502960000001              4.91026922      7.6980667800000004
   590   1      20.592252370000001      4.9624990899999997              7.70870722
   591   1      24.453727050000001      4.8062814400000002      7.5776804799999997
   592   1             28.41199937      4.8293749999999998              7.33183644
   593   1      2.0274600999999999      8.1882406000000003              7.58445883
   594   1      6.2124407799999997      8.2037337899999994      7.2850526699999998
   595   1             10.31271431      8.4566278199999996      7.7700021899999996
   596   1             14.23658825      8.1545993699999997      7.8110647999999996
   597   1      18.309838360000001      8.0595002099999995      7.4613908000000002
   598   1             22.21405738      8.4296058899999995      7.3893913299999996
   599   1             26.62343572      8.4204720599999998              7.40965674
   600   1             30.63457734      8.2615347799999999      7.3532366299999996
   601   1     0.45345591000000002             11.70550501      7.2089524300000001
   602   1      4.0636949900000001      11.702191190000001      7.4796471100000002
   603   1      8.1653118599999992             11.84216827      7.2655615300000003
   604   1      12.109301909999999             11.59107041      7.5130653699999996
   605   1      18.300902130000001      10.692093359999999      9.0381287399999994
   606   1      20.239820959999999             11.76448276      7.6142431000000004
   607   1             24.53511907             11.71955625      7.3496552700000004
   608   1              28.5337578      7.2805430099999997      8.9128786899999994
   609   1      2.2413115600000002             15.30375594              7.60651572
   610   1      6.0900068000000003      15.335615300000001      7.4746549299999998
   611   1             10.18565388             15.38256445               7.3530362
   612   1      14.462424950000001      15.052143210000001      7.8181724199999998
   613   1      18.492619090000002             15.15958958      7.3441744099999999
   614   1      22.254888780000002      15.376532940000001              7.49162325
   615   1      26.177832810000002      15.235053990000001      7.4345506800000001
   616   1             30.45295308      15.376860730000001      7.4077509900000003
   617   1     0.18396338000000001      18.743756959999999      7.6490253299999997
   618   1      4.1981829299999998      18.767121790000001      7.4465688200000004
   619   1      8.3396269200000006             18.84801466      7.3181991999999996
   620   1      12.194984740000001      18.673919779999999      7.7421140199999998
   621   1              16.2575547      18.699246200000001      7.4484217800000003
   622   1      20.282926929999999      18.764447820000001      7.4427966000000003
   623   1              24.4561782      18.565563780000002      7.3982115000000004
   624   1      28.100250760000002      18.722527159999999      7.5841888400000004
   625   1      2.1091038700000002      22.147056469999999      7.3432199999999996
   626   1      6.1775357800000004      22.359189010000001      7.5167133499999998
   627   1      10.143397849999999      22.427958060000002      7.5425098000000004
   628   1      14.215257660000001      22.142440449999999      7.5296408599999998
   629   1      18.085680060000001             22.18565001      7.6850142799999999
   630   1      22.363601809999999      22.298020319999999      7.3483680600000003
   631   1      26.347959400000001      22.272632179999999      7.5902301300000001
   632   1      30.594874050000001      22.112327919999998      7.5728623700000002
   633   1      32.277060839999997             25.78660592      7.5130189400000003
   634   1      4.1055194200000003      25.848040340000001      7.3499999100000002
   635   1      8.1225324000000008      25.884463100000001      7.8198445799999998
   636   1      12.349096339999999      25.934641020000001      7.4871326399999996
   637   1      16.438745109999999             25.91891283      7.5879691200000003
   638   1             20.09319739             25.82229401      7.4290672799999999
   639   1      24.340353889999999      25.776708979999999      7.4236630100000003
   640   1      28.605865300000001      25.832758569999999      7.8459536300000003
   641   1      3.9647233100000001      7.0720999300000003      9.0821808300000004
   642   1      1.8110321199999999      3.7702661499999999      9.0429596199999995
   643   1             10.55266503              3.62361566      9.3315273399999992
   644   1             12.37429234      2.3649598699999999              8.40071528
   645   1      12.043556479999999      21.153437660000002      9.1429754299999999
   646   1      18.441222490000001      3.5993989800000001      9.3404896599999994
   647   1      22.819452559999998      6.2516502000000003      8.4892990600000005
   648   1      30.280613970000001      3.5356236399999998      9.0453920700000001
   649   1      32.275039169999999      4.7546594899999999      9.7324433199999998
   650   1      2.0718313199999998      26.587093159999998      8.5538653999999994
   651   1             12.18769857      28.130135970000001      9.0704998799999998
   652   1      10.193926380000001             10.81580458      9.0025121299999995
   653   1      22.166702730000001      10.460859620000001      8.7476532700000007
   654   1      4.1797813000000001      27.881114190000002      9.1920623599999995
   655   1             18.27282082      5.8907719700000003      8.5294506099999996
   656   1      6.1998916099999999      7.9245233300000004      9.8871438699999992
   657   1      8.2758189499999997      9.6159817099999998      8.3760156499999994
   658   1      16.387403819999999             16.47472256      8.3171908999999999
   659   1      6.1432832399999997              10.3342698      9.2551324699999995
   660   1             10.37312229      6.0461877800000003      8.3207055800000003
   661   1      18.337820319999999      27.325660150000001      8.5473551699999994
   662   1      26.604337109999999              10.5701865      8.9494904999999996
   663   1             20.35478552      7.0458582300000003      9.0832153000000009
   664   1      2.2469014999999999             10.34158263      8.7135389100000005
   665   1             10.17057176             13.19435968      8.3561055999999994
   666   1      10.198234319999999      17.800000270000002      9.0516986999999993
   667   1             14.38360759             19.73761227      8.4329972699999995
   668   1      16.237478549999999      11.584637900000001      7.5797006800000002
   669   1      22.587014920000001             13.04974644              8.42694425
   670   1      24.495171360000001      9.1614518300000007      8.4518982699999992
   671   1              2.02010588      17.891117120000001              8.95259699
   672   1      2.2157372400000002             12.96416207      8.4966890700000004
   673   1      6.0637966399999996      17.626932149999998      8.9757381600000006
   674   1      6.1938276800000001      15.441956510000001      9.9946127899999997
   675   1             14.07632188             17.28149719      9.4317206999999996
   676   1              10.2215799      19.964058680000001      8.1632049099999993
   677   1             14.23478188              12.7144563      8.5065143699999997
   678   1      22.284871389999999      17.606558339999999      9.0075251699999992
   679   1             26.42911909             13.04474677      7.9253279599999997
   680   1      28.536876150000001      11.899295049999999               7.4315536
   681   1      32.593761880000002   -0.013540140000000001      9.0491752099999996
   682   1      8.1819237099999995      16.347057280000001      8.4039723899999998
   683   1      6.1659414899999998      27.144556999999999      8.4368669799999996
   684   1      7.9013219000000001             13.96707348      9.4411540200000008
   685   1      22.251425659999999      19.861765649999999              8.09686211
   686   1             22.07357253      22.426315339999999      9.8555003400000007
   687   1      28.300681170000001      16.306017409999999              8.24148061
   688   1      30.625426990000001      12.207113639999999              8.13324085
   689   1      24.102523000000001      21.223669610000002      9.3108345499999992
   690   1              3.31540568             24.10935825      8.6031171099999995
   691   1      4.2726474699999999      4.6979284899999998      9.9356435100000002
   692   1      14.381554919999999      27.058941969999999      8.2626025399999996
   693   1      18.190028900000001      19.898689919999999      8.2771619300000001
   694   1      20.198174720000001      16.585170309999999      8.4773170800000006
   695   1      24.404703680000001      23.389178909999998      8.5134384399999998
   696   1             28.50672256      23.314857700000001      8.1490645199999996
   697   1              3.92324699      2.1619673700000002      8.5900273499999997
   698   1      10.366454940000001      24.783269629999999      9.2023773799999997
   699   1             20.42800467             23.29850338      8.3682460600000006
   700   1             18.33818861      24.542337570000001      8.9323649100000004
   701   1      16.291262459999999      2.4331195800000001      8.4222370299999998
   702   1             24.81478444      25.888481840000001      9.7711324200000007
   703   1             20.37251972      2.5396201999999999      8.4745341300000003
   704   1      30.262303110000001               1.1003296      9.6350752199999992
   705   1      2.0840442299999999      5.9169193199999999      8.2418757800000009
   706   1      6.2592430999999999      1.1220301100000001      9.9291652599999995
   707   1      14.123752919999999      5.9644181500000002      8.3396043199999994
   708   1      16.347899030000001      21.392766139999999      8.9931426000000005
   709   1      22.013471729999999      27.202730970000001      8.2233114500000006
   710   1             20.29439236      20.978098840000001              8.81642613
   711   1      28.301939180000002              2.46019816      8.2171475100000002
   712   1    0.081153439999999993      23.454692390000002      8.3399734100000007
   713   1      32.548324119999997               2.4576718      8.4585940900000001
   714   1      30.442929849999999             24.61901941      8.9486849700000004
   715   1      30.360364740000001      27.172776549999998      8.3412421999999999
   716   1             14.40386305      3.5296374400000001      9.0022522200000008
   717   1      24.443610580000001      28.116303070000001      8.9517408399999994
   718   1      26.095843670000001              3.72775035      8.9008890199999993
   719   1      32.447069949999999              7.19171038      9.1201570899999993
   720   1      30.397751079999999               5.7112919      8.3149336500000004
   721   1      4.2581875900000004      9.0800895199999996      8.4136091299999993
   722   1             12.31961532      16.318128949999998      8.1928599599999998
   723   1              6.02512414      5.9239084200000001      8.3695681499999992
   724   1              8.14282884      6.8701643199999998      9.3331179500000001
   725   1             12.27100881      9.3505372399999995      8.5327300000000008
   726   1             16.02293294      6.8691074199999997      9.5753727800000004
   727   1      16.022422630000001      23.653530140000001      8.4815972100000003
   728   1      28.895453790000001      9.7201300199999991      8.1600885200000004
   729   1              8.28307152             18.94626689      9.7449834899999992
   730   1      8.2339192499999996      2.3283227800000001      8.1649251100000004
   731   1              16.3756789      9.0153141399999992      8.4802955499999992
   732   1      18.285704840000001      8.1776839799999994      9.7200494299999995
   733   1      18.282781740000001      12.917754459999999      8.1041935800000005
   734   1      2.0436485200000001              1.15387302      9.7698575699999992
   735   1      24.181021170000001      2.2303382599999999      8.1223597000000005
   736   1      4.0341869900000003      11.554433420000001      9.8091523400000007
   737   1             30.17131844      19.734764439999999              8.29887218
   738   1      32.330829450000003      9.7439650100000001      8.2380766899999998
   739   1      12.361897539999999      14.384278589999999      9.2093793599999998
   740   1             14.78480579             10.46729582      9.2993836400000003
   741   1      20.218751749999999              13.8584566      9.0348662500000003
   742   1      26.466866169999999      6.0201977299999996      8.0741050899999998
   743   1             20.13525112      9.2414938000000006      7.9776383600000003
   744   1      4.2393450799999997      14.075414110000001      8.9507626699999996
   745   1      2.3070397200000001      20.178127759999999      8.3895014400000001
   746   1      6.1569990199999998             12.63716136      8.3316391200000002
   747   1             10.06825813             15.57698442      9.6168856100000006
   748   1      8.0043425799999994      21.325741619999999      9.0036218199999993
   749   1      24.298319209999999      16.377074140000001      8.4903688699999993
   750   1             26.39982268      17.544461689999999      9.1875636600000004
   751   1      24.262607460000002      18.656407439999999      9.7337402700000002
   752   1      3.8992876399999998             16.48534999      8.2875860299999999
   753   1      4.3748141299999999      21.716190130000001      8.9635029500000005
   754   1      8.1833672899999996      23.645421880000001      8.4473667300000006
   755   1      5.8910373099999997             24.22335137      8.8910695200000003
   756   1              10.2558787             26.94886262      8.2350270200000004
   757   1      10.120385479999999      22.355580570000001      9.9723570499999994
   758   1             26.42212408      26.970332580000001      8.1372593299999991
   759   1             26.19888491      19.836628189999999      8.4636154000000001
   760   1      26.671728460000001      24.514386930000001      9.0274691800000006
   761   1      6.1151018800000001      19.973069639999999      8.2659282399999991
   762   1              0.22899818      16.170935620000002      8.4289603300000007
   763   1      6.3303214199999998              3.52600326      9.3257975099999992
   764   1      8.2618212100000008             28.05120127      9.0327965900000002
   765   1             12.22787739      23.497883529999999      8.2069699000000007
   766   1      22.713848039999998      24.794946960000001      8.9967143699999994
   767   1              28.2132173      28.371258640000001      8.9353020000000001
   768   1      32.609086750000003      20.904440789999999      9.0452009699999998
   769   2      9.0157907000000002      12.229954380000001      9.5459987799999997
   770   2              7.71190189      11.395258719999999      8.9700194399999997
