N2-dn2-coord-10bar/300K/snapshots/frame-51195/run-000/../data.lammps (written by ASE) 

770 	 atoms 
2  atom types
0.0      32.470343392086264  xlo xhi
0.0      28.120142247150884  ylo yhi
0.0      31.213473999158239  zlo zhi


Atoms 

     1   1      2.0293964600000001      1.1716090800000001    0.023552650000000001
     2   1      6.0880008999999999              1.17168918              0.02556874
     3   1      10.146952280000001              1.17170328    0.025416459999999998
     4   1      14.205754900000001      1.1716496700000001              0.02501565
     5   1             18.26456816              1.17166478              0.02504435
     6   1             22.32338141      1.1716496700000001              0.02501565
     7   1      26.382184030000001              1.17170328    0.025416459999999998
     8   1      30.441135410000001              1.17168918              0.02556874
     9   1  9.1780000000000006e-05      4.6866847900000002    0.025581599999999999
    10   1      4.0587011400000002      4.6866847900000002    0.025581599999999999
    11   1      8.1174961000000003      4.6866290399999997    0.025584639999999999
    12   1             12.17638011      4.6866852999999997              0.02491202
    13   1             16.23517979      4.6866942700000003    0.025006210000000001
    14   1      20.293956519999998      4.6866942700000003    0.025006210000000001
    15   1      24.352756209999999      4.6866852999999997              0.02491202
    16   1      28.411640219999999      4.6866290399999997    0.025584639999999999
    17   1      2.0293964600000001      8.2016395800000002    0.026613040000000001
    18   1      6.0881071599999999      8.2016314300000008              0.02543782
    19   1             10.14701835               8.2017045    0.025156850000000001
    20   1      14.205766049999999      8.2017080900000003    0.024990459999999999
    21   1             18.26456816      8.2017077599999997    0.025091249999999999
    22   1      22.323370260000001      8.2017080900000003    0.024990459999999999
    23   1      26.382117969999999               8.2017045    0.025156850000000001
    24   1      30.441029149999999      8.2016314300000008              0.02543782
    25   1  9.2789999999999998e-05             11.71671873    0.025573410000000001
    26   1              4.05870014             11.71671873    0.025573410000000001
    27   1      8.1176017700000003             11.71668698              0.02497914
    28   1             12.17637068             11.71673069    0.025001590000000001
    29   1      16.235177310000001      11.716730249999999    0.025074039999999999
    30   1      20.293959009999998      11.716730249999999    0.025074039999999999
    31   1      24.352765640000001             11.71673069    0.025001590000000001
    32   1      28.411534549999999             11.71668698              0.02497914
    33   1      2.0293964600000001             15.23167155              0.02525285
    34   1      6.0881728300000004      15.231678799999999    0.025062859999999999
    35   1             10.14698486      15.231762639999999               0.0250786
    36   1             14.20578841             15.23176782    0.025201990000000001
    37   1             18.26456816              15.2317707    0.025149979999999999
    38   1      22.323347900000002             15.23176782    0.025201990000000001
    39   1      26.382151459999999      15.231762639999999               0.0250786
    40   1      30.440963480000001      15.231678799999999    0.025062859999999999
    41   1      32.470327990000001      18.746748629999999    0.024951939999999999
    42   1      4.0588083299999997      18.746748629999999    0.024951939999999999
    43   1      8.1175770200000006      18.746803499999999    0.025222040000000001
    44   1             12.17637459      18.746799750000001    0.025428470000000002
    45   1      16.235159400000001      18.746805200000001    0.025487360000000001
    46   1      20.293976919999999      18.746805200000001    0.025487360000000001
    47   1      24.352761730000001      18.746799750000001    0.025428470000000002
    48   1             28.41155929      18.746803499999999    0.025222040000000001
    49   1      2.0293964600000001      22.261939099999999    0.025844880000000001
    50   1      6.0881419299999999      22.261841799999999    0.025489439999999999
    51   1             10.14692954             22.26176895              0.02551757
    52   1             14.20573559      22.261804690000002    0.025639160000000001
    53   1             18.26456816             22.26178625    0.025640119999999999
    54   1      22.323400729999999      22.261804690000002    0.025639160000000001
    55   1      26.382206780000001             22.26176895              0.02551757
    56   1             30.44099439      22.261841799999999    0.025489439999999999
    57   1  5.6450000000000003e-05      25.776936450000001              0.02613327
    58   1      4.0587364700000004      25.776936450000001              0.02613327
    59   1      8.1175325399999991              25.7767713    0.024734180000000001
    60   1      12.176376469999999      25.776831090000002              0.02545323
    61   1      16.235145939999999      25.776775220000001    0.025273360000000002
    62   1             20.29399038      25.776775220000001    0.025273360000000002
    63   1      24.352759840000001      25.776831090000002              0.02545323
    64   1      28.411603769999999              25.7767713    0.024734180000000001
    65   1  0.00024266000000000001              2.34304215     0.80166565000000001
    66   1      4.0585502699999996              2.34304215     0.80166565000000001
    67   1      8.1157394600000003              2.34454954     0.80169402000000001
    68   1             12.17601256      2.3433829099999999     0.80116898000000003
    69   1      16.235258170000002      2.3433209100000001     0.80090046999999998
    70   1      20.293878150000001      2.3433209100000001     0.80090046999999998
    71   1      24.353123750000002      2.3433829099999999     0.80116898000000003
    72   1      28.413396859999999              2.34454954     0.80169402000000001
    73   1      2.0293964600000001      5.8582218700000004     0.80119762000000005
    74   1      6.0870566899999998      5.8583336700000004              0.80194851
    75   1             10.14649655              5.85853131     0.80121584000000001
    76   1             14.20597894      5.8582938599999999     0.80086840999999998
    77   1             18.26456816      5.8583798500000004               0.8010794
    78   1      22.323157380000001      5.8582938599999999     0.80086840999999998
    79   1             26.38263976              5.85853131     0.80121584000000001
    80   1      30.442079629999999      5.8583336700000004              0.80194851
    81   1  0.00019438999999999999      9.3717771800000005     0.80082061000000004
    82   1      4.0585985400000002      9.3717771800000005     0.80082061000000004
    83   1      8.1175070500000004      9.3725002699999997     0.80149060999999999
    84   1      12.176590020000001      9.3733583399999993     0.80088261999999999
    85   1             16.23512199      9.3733789200000004              0.80106506
    86   1             20.29401433      9.3733789200000004              0.80106506
    87   1      24.352546289999999      9.3733583399999993     0.80088261999999999
    88   1      28.411629269999999      9.3725002699999997     0.80149060999999999
    89   1      2.0293964600000001             12.88692854     0.80220621000000003
    90   1      6.0883212999999996             12.88743848     0.80138414999999996
    91   1      10.147128609999999             12.88859852     0.80085256000000005
    92   1             14.20571782      12.888558189999999     0.80113791000000001
    93   1             18.26456816      12.888409899999999     0.80109381000000002
    94   1      22.323418490000002      12.888558189999999     0.80113791000000001
    95   1             26.38200771             12.88859852     0.80085256000000005
    96   1      30.440815019999999             12.88743848     0.80138414999999996
    97   1              0.00012365      16.403222639999999     0.80145666999999998
    98   1      4.0586692700000002      16.403222639999999     0.80145666999999998
    99   1      8.1174337899999998      16.403825260000001     0.80097196999999998
   100   1              12.1761021             16.40390721     0.80133072000000005
   101   1             16.23503496      16.403861750000001     0.80140014999999998
   102   1      20.294101359999999      16.403861750000001     0.80140014999999998
   103   1      24.353034220000001             16.40390721     0.80133072000000005
   104   1      28.411702529999999      16.403825260000001     0.80097196999999998
   105   1      2.0293964600000001      19.919205120000001     0.80066369999999998
   106   1              6.08752564             19.91894023     0.80122479000000002
   107   1      10.146078839999999             19.91919038     0.80159137999999996
   108   1      14.204993419999999              19.9192584     0.80178742000000003
   109   1             18.26456816      19.919377350000001     0.80194975999999996
   110   1      22.324142899999998              19.9192584     0.80178742000000003
   111   1      26.383057470000001             19.91919038     0.80159137999999996
   112   1      30.441610669999999             19.91894023     0.80122479000000002
   113   1              0.00142012      23.434536609999999     0.80178442000000005
   114   1      4.0573728100000004      23.434536609999999     0.80178442000000005
   115   1      8.1165862000000004      23.433936769999999     0.80182306000000003
   116   1             12.17555218      23.433996919999998     0.80156656000000004
   117   1             16.23465491      23.434040110000002     0.80170828999999999
   118   1      20.294481409999999      23.434040110000002     0.80170828999999999
   119   1      24.353584130000002      23.433996919999998     0.80156656000000004
   120   1      28.412550110000002      23.433936769999999     0.80182306000000003
   121   1      2.0293964600000001      26.949875330000001              0.80297246
   122   1      6.0858208300000003      26.950066320000001              0.80215291
   123   1             10.14598146      26.949241430000001     0.80165810000000004
   124   1             14.20520604      26.948673230000001     0.80131923999999999
   125   1             18.26456816             26.94858318     0.80108193999999999
   126   1      22.323930279999999      26.948673230000001     0.80131923999999999
   127   1      26.383154860000001      26.949241430000001     0.80165810000000004
   128   1             30.44331549      26.950066320000001              0.80215291
   129   1      32.432007319999997      28.201276119999999              1.56436731
   130   1      4.1090772600000003  -0.0059407599999999998      1.6669270700000001
   131   1      8.0900380100000007   -0.082356319999999997              1.50353611
   132   1             12.09245175      28.156688580000001      1.4133820100000001
   133   1      16.266699070000001    0.048738780000000002              1.36376728
   134   1             20.28634873      28.076940820000001              1.47875687
   135   1             24.47761886      28.135996479999999      1.4962840100000001
   136   1      28.439067560000002    0.087616509999999995              1.54092092
   137   1              2.01615374      3.4690105899999999              1.61820768
   138   1      6.0804160999999999      3.5656347799999999      1.4150110300000001
   139   1             10.18595391      3.5176439300000002      1.4582512999999999
   140   1      14.188085989999999      3.5597458899999999              1.56981652
   141   1      18.244940010000001      3.5795602400000002      1.5698761000000001
   142   1             22.30522375      3.5056784200000002              1.37098454
   143   1             26.44927422      3.5426841699999998              1.50785112
   144   1             30.40450835      3.4914735800000001               1.3522425
   145   1              0.01525549      7.0570960100000004      1.4583672299999999
   146   1      4.1341834500000001      7.0474555399999996      1.4288471899999999
   147   1      8.0830499099999997              7.09818017              1.34225109
   148   1      12.103179040000001      6.9075792900000001      1.4900133200000001
   149   1      16.228790050000001      7.0047303000000003      1.4227388400000001
   150   1      20.268107839999999      7.0417449000000003      1.5600873099999999
   151   1      24.310049459999998      7.0664641599999998               1.4119297
   152   1      28.448727900000002      6.9404900500000002                1.336452
   153   1      2.0301405699999999             10.47380201              1.37751581
   154   1      6.0557922700000004             10.64580484      1.4016701499999999
   155   1      10.086113920000001      10.598154859999999              1.44634901
   156   1      14.324867980000001             10.58589299      1.5050583799999999
   157   1      18.246025589999999              10.5335945      1.3899902900000001
   158   1      22.256672300000002             10.54255494      1.4951006200000001
   159   1      26.461130069999999      10.443807339999999              1.38371219
   160   1             30.33824358             10.45812664      1.5184777300000001
   161   1             -0.03028028             14.02639888              1.23702421
   162   1      4.0417632399999999             14.11794265      1.4162288599999999
   163   1      8.1160053800000007      14.049059850000001      1.4744496899999999
   164   1              12.2118787      14.041526449999999      1.4800180999999999
   165   1             16.15981322      14.007864700000001              1.33988475
   166   1             20.16566598      14.079193979999999      1.5313211900000001
   167   1             24.35382766             14.01062402              1.44905358
   168   1      28.521606540000001             14.05116621              1.45633693
   169   1      2.0514533099999999      17.603868680000001              1.42419506
   170   1      5.9614777200000004             17.58564359              1.44378647
   171   1      10.136816809999999      17.407677379999999      1.4412243199999999
   172   1      14.151148340000001      17.557826590000001              1.52016792
   173   1      18.365547719999999      17.625086899999999              1.49211513
   174   1      22.297561170000002             17.57348494              1.37628047
   175   1             26.38150856      17.554984810000001              1.40716818
   176   1             30.54859102      17.499120340000001      1.5283236200000001
   177   1      32.432812669999997      21.086456930000001      1.4215298000000001
   178   1      4.1088543900000003      21.217435200000001      1.5468875099999999
   179   1      8.1893256599999997             21.02318854      1.4673414499999999
   180   1      12.178358920000001      21.030184729999998              1.26200085
   181   1      16.262396240000001      21.101173259999999      1.4770988199999999
   182   1      20.239367990000002             21.12095884              1.52691281
   183   1      24.345756489999999      21.024148610000001      1.5732929200000001
   184   1             28.34250479             20.99722053      1.5289439300000001
   185   1      1.9631123500000001      24.632214080000001              1.53900996
   186   1      6.1321005199999998      24.496894560000001              1.57405979
   187   1      10.156697729999999      24.686753169999999              1.50730988
   188   1      14.205033999999999             24.50384373      1.4413949500000001
   189   1             18.27249814      24.629917320000001      1.5375356099999999
   190   1      22.238481019999998      24.626622999999999      1.4527146900000001
   191   1             26.39485561             24.53703002      1.5601594999999999
   192   1      30.507736139999999             24.69627105      1.4282442200000001
   193   1              2.08252623      1.1783245600000001      2.4085107799999999
   194   1      6.1625614999999998      1.0985378100000001      2.3997840400000001
   195   1             10.08371153      1.1304267400000001      2.3903947900000002
   196   1      14.165915350000001              1.13309539              2.36952345
   197   1             18.22587893      1.1131235500000001      2.3725681700000001
   198   1      22.401385229999999      1.1910218699999999      2.3925271800000001
   199   1      26.447372489999999      1.1949178199999999      2.4836295800000001
   200   1             30.47150456      1.1746021499999999              2.43403094
   201   1      32.410414789999997      4.6369335400000002               2.4437791
   202   1      4.0855863899999996      4.6266770599999996      2.4634588599999998
   203   1      8.1439050900000005      4.7421402500000003      2.3966202000000001
   204   1      12.060139599999999      4.6088201800000004      2.4508529100000001
   205   1      16.182885290000002      4.6349350999999999      2.4532780399999998
   206   1      20.279200790000001      4.7219197900000003      2.4316270699999998
   207   1      24.337024830000001      4.6211135299999997      2.4273093100000001
   208   1      28.441015629999999               4.7199168      2.4184461000000002
   209   1      2.1787032700000002      8.1712657100000001      2.4334654699999998
   210   1      6.0170458299999998      8.1787466900000005      2.3905189099999999
   211   1      10.182763619999999      8.2232965700000005      2.4249518000000001
   212   1      14.172051140000001      8.1468790099999993      2.4233429000000002
   213   1      18.169039819999998      8.2218492399999992      2.3280880900000001
   214   1      22.271944739999999      8.1416036300000005      2.4327651700000001
   215   1      26.373482589999998      8.0874141300000009      2.4177729999999999
   216   1      30.422798270000001      8.1318418399999999              2.38110819
   217   1    -0.13262806999999999             11.62524047      2.3302595199999998
   218   1      3.9283108000000002      11.707959689999999      2.3375524099999998
   219   1      8.0596489200000008      11.695490660000001      2.3531106099999999
   220   1      12.165368640000001             11.58436751              2.30631071
   221   1      16.260349009999999             11.60173283      2.5378937000000001
   222   1             20.33056925             11.64903632      2.4152530099999998
   223   1      24.462355330000001             11.71094031      2.4920988899999998
   224   1      28.368579860000001      11.719402710000001      2.4030597999999999
   225   1      2.0945541400000001             15.17973149      2.4990055799999999
   226   1      6.0605413300000004             15.18277466      2.4377724500000002
   227   1      10.222879300000001              15.1708833              2.42971249
   228   1             14.27271683             15.22761671      2.4457643299999998
   229   1      18.245218170000001      15.242333370000001      2.4459986100000002
   230   1      22.134960920000001      15.284379299999999      2.3521637000000002
   231   1      26.256688860000001             15.18082223      2.4511282799999998
   232   1              30.4978281             15.16550898      2.4189480099999998
   233   1   -0.081571359999999996             18.77216219      2.3455163200000002
   234   1      3.9411481500000001      18.729627369999999      2.4945432799999998
   235   1      8.0183575099999995      18.659923809999999      2.3377957600000001
   236   1      12.213469959999999             18.62612129      2.4730245000000002
   237   1      16.222595519999999      18.673954439999999      2.3914134900000001
   238   1      20.342546989999999              18.6385735      2.4620166800000001
   239   1              24.3546163      18.726895039999999      2.3260866199999999
   240   1      28.436648649999999      18.626761299999998      2.2517377199999999
   241   1      1.9551534100000001      22.229251690000002      2.4054488100000002
   242   1      6.2256394799999999      22.140258410000001      2.4707712700000002
   243   1      10.179212590000001      22.266685160000002      2.4417699700000002
   244   1      14.273184369999999      22.107232400000001      2.4417310400000001
   245   1             18.26287331             22.31758833      2.4751805099999999
   246   1      22.325449259999999      22.255901550000001      2.5262700100000002
   247   1             26.38633694      22.119018359999998              2.45237689
   248   1      30.448292649999999              22.2037853      2.4142130399999999
   249   1      32.475051129999997      25.879995990000001      2.4904887100000002
   250   1      3.9484228799999999             25.74632944      2.4814408299999999
   251   1      8.1691928399999991      25.715428859999999              2.42321366
   252   1             12.23209542      25.756797299999999              2.39228562
   253   1      16.139771509999999             25.89662985      2.2954034399999999
   254   1      20.232172800000001             25.81010053      2.5079719800000002
   255   1      24.384435400000001      25.697320569999999      2.4236907599999999
   256   1      28.351712710000001      25.813842080000001      2.3748845900000002
   257   1      32.516359729999998      2.2655929299999999      3.2696231299999998
   258   1              4.16616623              2.28490159              3.24843371
   259   1      8.1286673100000009      2.2175837299999999              3.35083244
   260   1              12.1798514      2.3250070799999998      3.2101655099999999
   261   1             16.21229821      2.4561527399999998      3.2739139700000002
   262   1             20.33133656              2.30184035              3.31908067
   263   1      24.378550059999998              2.30527506      3.2230028599999998
   264   1      28.428425019999999      2.4636065600000001      3.2377998099999998
   265   1              1.96811216              5.82395598      3.2351899500000001
   266   1      6.0415392700000004      5.6376963099999999              3.25821446
   267   1      10.160014439999999              5.75841007      3.2838872100000001
   268   1      14.083340659999999      5.8391738799999997      3.3047023499999999
   269   1      18.321157849999999      5.8729246899999996              3.28058848
   270   1      22.375349910000001      5.7963511900000002      3.3548277799999999
   271   1             26.33575274      5.8070063000000003      3.0950518100000002
   272   1      30.536546269999999      5.8309608300000004               3.2988415
   273   1              32.4780461      9.3275210099999999      3.1927853900000001
   274   1      4.0663326499999997      9.3595949699999998      3.2520294500000002
   275   1      8.0473680900000009      9.3647906800000005      3.2382272099999998
   276   1      12.243504850000001      9.3026038399999997      3.4049322900000001
   277   1      16.256630980000001      9.4184610899999992      3.3340186900000002
   278   1      20.358701180000001      9.2980483599999992      3.3000737500000001
   279   1      24.259707509999998      9.3269509700000004              3.30148061
   280   1      28.402439529999999      9.3179374700000004      3.2686988499999998
   281   1      2.0477995600000001             12.95599382      3.2889806899999998
   282   1      6.0603249699999999      12.857638400000001      3.3398318900000001
   283   1      10.234849369999999             12.74026774              3.18274167
   284   1             14.31723453              12.8960597              3.23690393
   285   1      18.308653029999999             12.77909925      3.3293942699999999
   286   1      22.388461970000002      12.903432840000001              3.23807885
   287   1      26.404998330000002      12.910280569999999      3.3516315099999998
   288   1             30.39509936             12.80524458              3.30388364
   289   1      32.571729570000002      16.372225889999999      3.1714044800000001
   290   1      4.0087222000000002      16.370345889999999      3.3611287999999999
   291   1      8.1345203000000001             16.25039069      3.2004367600000001
   292   1             12.25761054      16.308141620000001      3.2281349499999998
   293   1      16.262750499999999      16.336441499999999      3.2120253999999999
   294   1      20.261732339999998      16.433245979999999      3.2460433900000001
   295   1      24.264460369999998      16.378089670000001      3.2075305599999999
   296   1      28.402571680000001      16.277892130000001      3.2235372999999998
   297   1      2.0019187999999999             19.91655828      3.3983009200000001
   298   1              6.03956011             19.87788698      3.3544208000000002
   299   1      10.107296639999999      19.804343639999999              3.27672454
   300   1      14.189094900000001      19.855841040000001      3.3112750399999999
   301   1             18.30816781             19.97664984      3.1408854100000001
   302   1      22.350156070000001      19.946564850000001              3.30648893
   303   1             26.40461998             19.81092181              3.32741285
   304   1      30.452238099999999      19.869850799999998      3.1161832700000001
   305   1      32.495820070000001      23.480318799999999      3.2424973700000002
   306   1      3.9621136300000002      23.413072830000001      3.2554553400000001
   307   1      8.1221736999999994      23.330411609999999      3.3474148600000002
   308   1             12.14062723             23.41959378              3.28857014
   309   1             16.20253988             23.43351857      3.2503763000000001
   310   1             20.28000316      23.509106079999999      3.2984620200000001
   311   1      24.359696540000002      23.361260420000001      3.2970748300000001
   312   1             28.40686328      23.426907889999999      3.1679088100000001
   313   1      2.0685547899999999      26.952247740000001      3.3521461600000002
   314   1      6.0394339199999996             26.91762701              3.26058029
   315   1             10.17943264      26.985524909999999              3.20839732
   316   1             14.29691384             26.97800518      3.1738730199999998
   317   1      18.234063290000002      26.986754359999999      3.2837956099999999
   318   1      22.445267900000001             27.00620339      3.1898297900000001
   319   1      26.420394089999998      26.995000789999999              3.22984399
   320   1      30.434313490000001             26.94848885      3.3393961499999998
   321   1              0.08903258              0.04201804              4.11394371
   322   1      4.0891687399999999      28.065191460000001      4.0918130499999998
   323   1      8.1596796299999994      28.021559849999999      4.1507840800000002
   324   1             12.45431726   -0.032464239999999998              4.10976856
   325   1      16.032894979999998    0.082176769999999996      4.1023172399999996
   326   1      20.297243170000002   -0.022894970000000001      3.9829721199999999
   327   1      24.506647820000001              28.0683644      4.0792796899999999
   328   1      28.431664380000001  -0.0079938600000000002      4.0786627800000002
   329   1              2.03450884      3.3554602899999999      4.0925564799999998
   330   1      6.1947808799999997      3.3483530099999999      4.0697961200000004
   331   1      10.120680070000001      3.3930336699999999      4.1434882000000002
   332   1             14.14868914              3.52851391      4.0719966699999999
   333   1             18.37718173      3.6029212899999998              4.08335705
   334   1             22.35902514      3.3496666300000002      4.0124572799999996
   335   1      26.377014450000001      3.3981224600000002      4.1367606800000001
   336   1      30.478140289999999              3.47769073      4.0698978800000001
   337   1              0.02809391              7.10979078               4.1268205
   338   1      4.1044111000000001      6.9321505200000004      4.0776268599999996
   339   1      8.0882877400000002              7.02194992      4.1019624400000003
   340   1             12.15704786      7.0321637800000003      4.0630210199999999
   341   1      16.228646850000001      7.0207205999999998      4.0614256199999996
   342   1             20.26573492      6.8874501600000002      4.0952878500000001
   343   1             24.32701556      7.0129170299999997      4.1166094299999996
   344   1      28.487927930000001              7.00895299      4.0426872700000001
   345   1              1.94811774      10.607266109999999      3.9945315199999998
   346   1      6.0259922699999997      10.522745130000001      4.0979763599999997
   347   1      10.130180559999999      10.446942959999999      4.0629979499999997
   348   1             14.26406358             10.46730348      4.1042407499999998
   349   1              18.2877738      10.563744959999999      4.1419326300000003
   350   1      22.391366510000001      10.556421090000001      4.1255811400000004
   351   1      26.382805000000001             10.50730808      4.0764832499999999
   352   1      30.506550310000002              10.4702479      4.0614733000000003
   353   1             32.47468997      14.096030089999999              3.98823521
   354   1      4.0299836899999999             14.12372848      4.1490665900000003
   355   1      8.1103504100000006      14.026905940000001      4.1757920100000003
   356   1      12.310118259999999      13.968913880000001      4.0385551199999998
   357   1      16.375077009999998             14.05124795      4.0638552800000003
   358   1      20.338237110000001              14.0267018      4.0612708199999998
   359   1      24.428890160000002      14.088449199999999      4.0397076500000004
   360   1             28.46260526      13.986176459999999              4.16836787
   361   1      2.0415531200000001      17.562163349999999      4.0483707300000003
   362   1      6.0817280699999996      17.407184050000001      4.0841523999999998
   363   1      10.091654630000001      17.427708599999999      4.0455842799999999
   364   1             14.21685162             17.49095402      4.0905137199999997
   365   1      18.346265549999998      17.487271589999999      4.0586624999999996
   366   1      22.353999940000001             17.58013974      3.9977463200000001
   367   1      26.374046209999999      17.436926509999999      3.9643524999999999
   368   1             30.46999306      17.466746409999999      4.0098262299999998
   369   1             32.44877803      21.073186419999999      4.0600466700000002
   370   1      3.9724338800000001      21.110053440000002      4.1781844399999999
   371   1      8.2250916299999997      21.004339999999999      4.0794173999999996
   372   1      12.107171490000001      21.062368719999998      4.0715541000000002
   373   1      16.276681079999999      21.009773289999998      4.1380074999999996
   374   1      20.326197879999999      21.255538269999999              4.03993775
   375   1      24.333747209999999      21.030062610000002      4.1034484100000004
   376   1      28.483945569999999             21.14725589      3.9176780999999998
   377   1      1.9474149199999999      24.538567839999999      4.1549951900000002
   378   1      6.0943743499999998      24.541803640000001      4.0726305299999996
   379   1      10.168736259999999             24.53172326      4.1269621499999998
   380   1             14.08910738      24.470872320000002      4.1463188799999999
   381   1      18.032731089999999      24.637597899999999      4.1264983900000001
   382   1      22.320279920000001      24.626218420000001      4.0336131399999999
   383   1      26.355870960000001      24.553468039999998      4.1328161100000003
   384   1      30.523900000000001      24.559930720000001      4.0554322100000002
   385   1      2.0968168999999999      1.0616499100000001      4.9152908000000002
   386   1      6.1135088499999997              1.01773567      5.0298295099999999
   387   1             10.24840528      1.0783253799999999      4.9185901699999999
   388   1      14.230633449999999              1.34292667      4.9388289800000003
   389   1      18.249751119999999              1.16099928      4.9125475300000003
   390   1      22.320580530000001      1.1059442500000001      5.0377717799999999
   391   1      26.493077499999998      1.0439086399999999      5.0444600399999997
   392   1             30.49423689      1.1196835700000001      4.9321436500000004
   393   1              0.01257494      4.6179318199999999      4.9453541300000001
   394   1      4.1075835300000003      4.6077689599999996      5.0329335300000002
   395   1      8.2260784600000001      4.6390980199999996      4.8987515999999998
   396   1             12.10734493      4.7769055700000003      4.8677549899999999
   397   1      16.205704140000002      4.7375149199999997      5.0326373799999997
   398   1      20.421825599999998      4.6144309999999997              4.97674679
   399   1      24.364324360000001      4.5952796600000001              4.88252241
   400   1      28.495290019999999              4.68535346      4.8377587499999999
   401   1      2.1225103399999998      8.2295827799999994      4.8777178899999996
   402   1              6.08307763      8.0423080599999999      4.9210915599999998
   403   1      10.117532280000001      8.2307667500000008      4.8712277500000001
   404   1             14.22369759      8.1472920299999991      4.9253768300000003
   405   1      18.218163310000001              8.23914832      4.8948931299999998
   406   1      22.234942060000002      8.1848440700000005      4.9811826999999997
   407   1             26.34061629      8.1462763299999992      5.0226771100000001
   408   1      30.361258719999999      8.1450149399999994      4.9449296800000004
   409   1             -0.02039885             11.74128617      4.7939159900000003
   410   1              4.06325044             11.71126027      4.9298929400000002
   411   1      8.0668110500000001             11.66385273      4.8830564699999996
   412   1      12.115685879999999      11.650508390000001      4.8865766800000001
   413   1             16.27129708      11.723641389999999      4.9593197699999996
   414   1      20.394571979999998      11.700004059999999      5.0428281500000001
   415   1             24.39503594             11.72302009      4.9460459700000001
   416   1      28.356892980000001      11.667522379999999              4.91187635
   417   1      1.9828263500000001             15.23595753      4.9644592899999997
   418   1      6.0471978799999997             15.24438653      4.9196736300000001
   419   1             10.25861954             15.07163018      4.8352767300000004
   420   1             14.29985903      15.135616430000001      4.8988567400000003
   421   1      18.322199680000001      15.182287090000001      4.9581430800000001
   422   1      22.356202679999999      15.234584999999999      4.8071885300000003
   423   1      26.409069070000001             15.19673272      5.0352834599999996
   424   1      30.447780349999999             15.19980546      4.9255525100000002
   425   1   0.0074319499999999997      18.818616670000001               4.7645108
   426   1      4.0756604599999999      18.727292909999999      5.0254506000000001
   427   1              8.03627176      18.724395059999999      4.9116581300000002
   428   1      12.090924940000001      18.707369740000001      4.8841162699999998
   429   1      16.274139770000001      18.788581189999999      4.8017190899999997
   430   1      20.352579550000002             18.76594098              4.98869469
   431   1      24.342645770000001      18.644359120000001      4.9682118099999997
   432   1      28.355524290000002      18.624835170000001              4.84036665
   433   1      2.0205913899999999      22.336212759999999      4.9494740500000001
   434   1      6.0248413799999998             22.15603437      4.9402144100000003
   435   1      10.184210240000001      22.238631059999999      4.9854437799999998
   436   1      14.298151620000001      22.200384740000001              4.94525141
   437   1      18.325054569999999             22.25379547      4.8846437500000004
   438   1      22.253785440000001      22.378344259999999      5.0628890000000002
   439   1      26.364555419999999             22.24459882              4.90166725
   440   1      30.444072009999999      22.176334440000002      4.9672901100000004
   441   1   0.0059135400000000001      25.706906669999999      4.9375352799999996
   442   1      4.0179784200000004      25.674881979999999      4.8802432199999997
   443   1      8.1378018099999991      25.732781159999998      5.0263987700000001
   444   1              12.2092566      25.689780330000001      5.0283653199999998
   445   1      16.193398869999999      25.836399669999999              4.98519252
   446   1             20.33714092      25.814641559999998      4.9641618300000001
   447   1      24.497721259999999      25.751455490000001      4.9137974800000004
   448   1      28.458674160000001      25.739012880000001      4.8236107300000004
   449   1              0.12405579      2.3255969300000001      5.7231918300000002
   450   1      4.0706410899999996      2.2124993900000001      5.7812593699999999
   451   1      8.2743026999999998      2.3047958199999998              5.84278458
   452   1             12.13740424      2.4483912399999999      5.5889486100000001
   453   1      16.242148190000002      2.3998083100000001              5.76354963
   454   1      20.244271810000001      2.3383263099999998      5.7467241900000001
   455   1      24.387116729999999              2.25333089      5.7506158899999997
   456   1      28.487632290000001      2.3460568400000001      5.6391027400000002
   457   1      2.1404784499999998      5.7858837799999998      5.7893380700000003
   458   1      6.1901355300000001      5.6639690099999997      5.7645737700000002
   459   1      10.065382079999999      5.9823970199999996      5.6957514600000003
   460   1      14.122178460000001      5.8383276300000002      5.7314797500000001
   461   1             18.27921851      5.8761906799999997      5.8362724899999998
   462   1      22.338713819999999                5.840662      5.8173465000000002
   463   1             26.36277016      5.7351245300000002      5.6975490799999999
   464   1      30.535046650000002              5.85112231              5.75235831
   465   1    0.019763039999999999      9.3458716600000002      5.6788415900000002
   466   1      4.0480356799999999      9.4628075000000003      5.7131715999999999
   467   1      8.0257737299999992      9.3294311000000008      5.7579831099999996
   468   1             12.25193808      9.2829690300000003      5.8391338499999996
   469   1             16.21256404      9.3190325000000005      5.8568732499999996
   470   1      20.339260400000001      9.2807928900000007      5.8445654899999999
   471   1      24.350512080000001      9.3568401899999998      5.8691835499999998
   472   1      28.479781819999999      9.3055157400000006      5.7517484300000001
   473   1      1.9432302699999999             12.97064662      5.5507013799999996
   474   1      6.0782509300000003              12.8336018      5.7614507000000001
   475   1      10.128985309999999      12.861630829999999      5.6893246499999997
   476   1             14.20261468             12.86005666      5.6489286999999999
   477   1      18.402370139999999               12.795584      5.7760756600000001
   478   1             22.33393229             12.88245929      5.6550617000000001
   479   1      26.394764339999998             12.96921015      5.8209158499999996
   480   1      30.453865239999999             12.76844874      5.7030238000000004
   481   1              0.02201405      16.358829020000002      5.6100838900000003
   482   1      4.0155831600000003      16.452005119999999      5.8293582099999997
   483   1      8.1989897999999997      16.326372060000001      5.6554827799999998
   484   1      12.224198100000001      16.299478140000002      5.7756632799999998
   485   1      16.324745669999999             16.39120668              5.56439006
   486   1      20.412400330000001      16.456201790000001              5.79897244
   487   1      24.319458359999999      16.268066910000002      5.7448857499999999
   488   1      28.394024470000002      16.250997309999999      5.6997540999999998
   489   1      2.0453044299999998      20.068492020000001      5.8104916199999996
   490   1              6.14419396      19.848063499999999      5.7097191799999996
   491   1      10.188083600000001      19.781181119999999              5.82676266
   492   1             14.31690208      19.840741609999998      5.7314776199999997
   493   1             18.27993734      19.902831039999999      5.6292637499999998
   494   1      22.315520419999999      19.891723819999999      5.8246024900000002
   495   1      26.476031979999998             19.91469472      5.7592552499999998
   496   1      30.417218819999999      19.845987959999999      5.7189937899999999
   497   1      32.485776440000002      23.406855820000001      5.7076112600000002
   498   1      4.0337651499999998      23.475169269999999              5.80212488
   499   1      8.1996498899999999      23.324107489999999      5.8048576699999996
   500   1             12.24531032             23.32877311      5.7736779499999997
   501   1             16.23244622      23.525201719999998      5.7837455799999997
   502   1      20.251890190000001      23.449279480000001      5.8682207100000001
   503   1      24.294477319999999      23.435499369999999      5.7708663700000002
   504   1      28.452653959999999      23.456652030000001      5.7492287400000004
   505   1      2.0257980999999998      26.847126899999999              5.76507156
   506   1              6.14961643      26.840296859999999      5.6836339599999999
   507   1             10.19216748      26.883360100000001      5.7315303499999999
   508   1             14.13660314      26.987676950000001              5.74114039
   509   1             18.22556805      26.971085420000001      5.7427836799999996
   510   1      22.428358939999999      26.912348510000001              5.70514864
   511   1      26.475707140000001             26.91669723      5.7899848499999997
   512   1      30.549733830000001      26.886327139999999              5.79327638
   513   1      32.597154949999997              28.1022608              6.67607062
   514   1      4.1174067499999998      28.020773930000001      6.5860480099999998
   515   1      8.0831314499999998             28.03717181      6.6871841700000001
   516   1      12.108114670000001    0.025424789999999999      6.6125025300000004
   517   1      16.155663669999999    0.059579399999999998      6.6314805200000002
   518   1      20.391467769999998    0.066093719999999995      6.6661833799999997
   519   1      24.354922269999999      28.010331170000001      6.5610791300000004
   520   1             28.50482431             28.18398208      6.5556321200000003
   521   1      2.2034616599999999      3.3377558600000001      6.5920524499999997
   522   1      5.9498888399999998      3.3615389499999999      6.6860500399999996
   523   1             10.21875522               3.4807674      6.5781550299999996
   524   1      14.191083539999999      3.5570659099999999      6.6566665199999999
   525   1             18.30797291              3.51494207      6.5818691400000002
   526   1      22.286626829999999              3.53245502              6.51940601
   527   1      26.468479970000001              3.42398216      6.6190718400000002
   528   1             30.59354738      3.4132912399999999      6.5197779699999998
   529   1      32.651478570000002      7.0055020700000004      6.6685788500000003
   530   1      4.1025708600000002      7.0133063800000004      6.6647173500000001
   531   1      8.1383257100000002      6.9843038200000001      6.6058242199999997
   532   1             12.14284801      7.1040776599999997              6.64199099
   533   1             16.19424673      7.0450395400000003              6.57856591
   534   1      20.362202790000001      6.9718751599999997               6.5969989
   535   1      24.379281120000002      7.0686775400000004      6.6111948700000003
   536   1      28.346215669999999      6.9455101399999997      6.5924752900000003
   537   1              1.98794475      10.631394999999999      6.5430512199999997
   538   1      6.0927354999999999             10.54856646      6.6226733199999996
   539   1      10.134366399999999             10.47268802      6.5311901900000002
   540   1      14.298098339999999             10.46916863      6.6276665000000001
   541   1      18.317788310000001      10.453398030000001      6.6319176500000001
   542   1      22.405267179999999             10.45923552      6.5679007199999999
   543   1      26.384206930000001             10.43000659      6.5307710999999999
   544   1      30.467337520000001      10.553807150000001      6.5428591200000001
   545   1      32.298574719999998      14.064616470000001      6.5337910700000004
   546   1              4.11828767             14.18211093      6.6195483299999998
   547   1      8.1601928600000004             14.01201938      6.5655020400000002
   548   1               12.222951              13.9727768      6.5698800500000001
   549   1             16.30678623             14.03550064      6.5024871900000001
   550   1      20.432010829999999      14.061814160000001      6.4555543200000001
   551   1      24.371676010000002             14.05283049      6.7416170900000001
   552   1      28.366954369999998      13.959348779999999      6.6255008100000001
   553   1      2.1165745299999998      17.535940199999999      6.5162395799999997
   554   1      6.1919441700000002             17.53443029      6.7291474600000001
   555   1             10.16566639             17.38149941      6.6189629700000001
   556   1      14.361485610000001      17.536785500000001      6.5703369699999996
   557   1      18.283618010000001      17.631285330000001      6.5861710499999999
   558   1      22.384415189999999      17.585639969999999      6.6397058800000002
   559   1      26.340234129999999      17.610287280000001      6.4712544699999999
   560   1      30.272723119999998      17.444417560000002      6.5192813000000003
   561   1      32.359905959999999      21.076678820000001      6.6404386000000004
   562   1      4.1396292299999997      21.151595499999999      6.6206424200000003
   563   1      8.2854953099999999      20.985040940000001      6.6620137599999998
   564   1             12.21686686             20.96122493      6.7569497399999996
   565   1      16.258718340000001      21.235039799999999      6.5570402300000001
   566   1      20.269502509999999             21.10847433      6.6614222200000004
   567   1      24.397113279999999      21.087184990000001      6.5814963200000003
   568   1      28.444133109999999      21.134879980000001              6.54848608
   569   1      2.0300146099999998      24.546674830000001      6.6488529400000003
   570   1      6.0890405200000002      24.522775859999999      6.5674932799999999
   571   1             10.27139165      24.588124220000001      6.6318069099999999
   572   1      14.186800030000001      24.667920779999999      6.5981282500000002
   573   1             18.23102935      24.653674689999999      6.6578734800000001
   574   1      22.334485529999998      24.513408380000001      6.5045878100000003
   575   1      26.311403200000001      24.472172019999999      6.6505717500000001
   576   1      30.545852830000001      24.597241910000001      6.5317080299999999
   577   1      2.1195260600000001              1.10677925      7.5862105099999999
   578   1      6.1209781799999998     0.97261204000000001      7.6135642600000004
   579   1      10.120082249999999      1.1828089799999999      7.5812456800000003
   580   1             14.24591071      1.0158913199999999      7.5484700399999998
   581   1      18.288714509999998              1.19508291              7.49348057
   582   1      22.386074829999998              1.12538827      7.5916279800000002
   583   1      26.381161630000001              1.23748974      7.5689159699999999
   584   1             30.39378249      1.1240101600000001      7.5356836700000001
   585   1    0.063110609999999998      4.5292981899999996      7.5826780300000003
   586   1      4.1213870500000001      4.6216744600000004      7.4835767799999999
   587   1      8.1550758400000003      4.4852606399999999      7.6013450000000002
   588   1             12.09055948      4.7057555200000003      7.4834495900000002
   589   1      16.129073720000001      4.6920715700000004      7.5636769800000003
   590   1      20.272180819999999      4.7143986099999999      7.6651217599999999
   591   1      24.297398879999999      4.6519166299999997              7.40446106
   592   1      28.401394249999999      4.5464995799999999      7.4130724399999997
   593   1      2.0562166799999999      8.2161842200000006      7.5023060299999997
   594   1              6.20831351      8.1573085800000005      7.5521722899999997
   595   1             10.07498653              8.05597925      7.4600674299999996
   596   1              14.1830093              8.18812769      7.4877576000000001
   597   1      18.185594909999999      8.1411908700000009      7.5487439099999998
   598   1             22.32919631      8.2093628499999998      7.4724358000000004
   599   1      26.257053249999998              8.06709809              7.62286324
   600   1             30.42215843      8.0201632200000006              7.58538084
   601   1             -0.08356661      11.788343340000001              7.57856167
   602   1      4.0334380000000003             11.78334856      7.5767980899999996
   603   1      8.0689401499999995             11.65061393      7.5172252000000004
   604   1             12.19988405      11.551205510000001      7.4788498399999996
   605   1             16.35241104      11.602758550000001      7.5766290300000003
   606   1             20.26277065      11.726265639999999      7.6192833499999999
   607   1             24.38300177      11.650713209999999      7.5414106600000004
   608   1             28.40596579      11.638495020000001      7.4522413600000004
   609   1      1.9952319000000001             15.27715469      7.5284847399999997
   610   1      6.1238242500000002             15.15383714      7.5434802799999998
   611   1      10.273919230000001              15.0949686      7.5381008500000002
   612   1             14.28339588             15.13765139              7.48650284
   613   1      18.513005870000001      15.277288970000001      7.4649402900000004
   614   1      22.266043570000001      15.268336769999999      7.5900260900000003
   615   1      26.440594780000001      15.118898010000001      7.6947829199999997
   616   1      30.345224909999999      15.170868069999999      7.5400590000000003
   617   1             -0.02565899      18.819941889999999      7.3322184899999998
   618   1      4.1618112500000004             18.72995001      7.5713054299999998
   619   1      8.3154993000000008      18.635499849999999      7.5986335399999998
   620   1      12.304645860000001      18.566319960000001      7.5526687700000004
   621   1             16.14892364      18.766586740000001      7.5053457000000003
   622   1             20.26031261      18.733288200000001              7.51407588
   623   1             24.27691746      18.795297269999999      7.5470781899999997
   624   1      28.298429899999999      18.745989040000001      7.4693967900000002
   625   1      1.8262288900000001             22.15225796      7.5273937799999997
   626   1      6.1180240499999998      22.113436620000002              7.37592479
   627   1             10.22923067      22.130258380000001      7.6080276700000002
   628   1      14.128483040000001      22.358717080000002      7.5701047499999996
   629   1      18.285381879999999      22.333346689999999      7.6674742599999997
   630   1      22.262961430000001      22.199647909999999      7.5698261799999997
   631   1      26.389575310000001      22.145632559999999              7.53948704
   632   1      30.341311940000001      22.373506859999999      7.6243027300000001
   633   1   -0.016344239999999999      25.773373639999999      7.5691431800000002
   634   1      4.0633790300000001             25.77618799      7.4516726000000002
   635   1      8.2979262699999996      25.594803420000002      7.5417670699999997
   636   1             12.17434076             25.79105114      7.5203751099999998
   637   1      16.186504200000002      25.747987739999999      7.5798074900000003
   638   1      20.312513379999999      25.772413069999999      7.5782881299999998
   639   1      24.155885770000001      25.581263190000001              7.64653648
   640   1      28.513240799999998      25.811279450000001      7.5828678700000003
   641   1             32.55261977               2.2365336      8.2761885399999997
   642   1      4.1420781699999996      2.2628484499999999      8.3444325999999993
   643   1      8.1686248500000005      2.1323480799999999      8.3748668199999994
   644   1      12.233335370000001              2.31527247              8.12569388
   645   1      16.252531399999999      2.3474558399999998      8.2673450899999992
   646   1             20.35921175      2.2829431499999999      8.1168434900000008
   647   1             24.34773659              2.37846008      8.1645050300000008
   648   1      28.379484049999999      2.2797137200000002      8.1584620500000007
   649   1      2.1068960400000001      5.8280258500000004      8.1818400800000006
   650   1      6.2406196899999999      5.8776933900000001      8.1834747500000002
   651   1             10.04265927      5.7588048900000004              8.11960865
   652   1      14.146885190000001      5.8830691499999999      8.0599807899999991
   653   1             18.19197351      5.8557494500000002      8.2660033800000008
   654   1      22.238015690000001      5.8042901200000001      8.1920552000000004
   655   1      26.310454180000001      5.7492956599999996              8.26181856
   656   1      30.447193939999998      5.6391240399999996      8.1499979299999996
   657   1      32.542117529999999      9.3980610099999993      8.1907680000000003
   658   1              4.18956909      9.2814672100000006      8.1762018899999998
   659   1      8.1541895899999997      9.2771347199999994      8.1581967399999993
   660   1             12.02583473              9.33215182      8.2231576799999999
   661   1             16.17825921      9.3387033899999992      8.4284170199999995
   662   1      20.305894720000001              9.37486876      8.2348674499999994
   663   1             24.33645804      9.3382504599999994      8.3243516700000004
   664   1             28.40338002      9.2440136499999994      8.1624930899999999
   665   1      1.9679716899999999      12.855074549999999      8.1264904399999995
   666   1      6.1849150899999996             12.82488461      8.2379875499999997
   667   1             10.23233583      12.663244519999999      8.1639095600000005
   668   1             14.36663126      12.777977269999999      8.0551448600000004
   669   1             18.37219941             12.95974374      8.1903392700000008
   670   1      22.376080909999999             12.96883935      8.0405024699999998
   671   1      26.373467659999999             12.71979864      8.2995450000000002
   672   1      30.435497470000001      12.825594600000001      8.2325759600000001
   673   1      32.393198069999997      16.441431479999999      7.9865900200000004
   674   1      4.2340450000000001             16.42410521      8.3446076199999997
   675   1      8.2755436200000005      16.180718989999999      8.0366974100000004
   676   1      12.356893790000001      16.190288039999999      8.2289008399999997
   677   1             16.24938556      16.367599850000001      7.8602812499999999
   678   1      20.355235489999998      16.407306760000001      8.3174853500000001
   679   1             24.28368622      16.392241550000001      8.1163089999999993
   680   1      28.401229690000001      16.357845640000001      8.1586626399999993
   681   1      1.9381164500000001      19.780467399999999      8.2076863899999992
   682   1      6.1180789999999998      19.959950639999999      8.2193378300000006
   683   1             10.33367775      19.736810760000001      8.2910851399999999
   684   1             14.15011966      19.916199169999999      8.2763755400000001
   685   1             18.23276804      19.991661560000001      8.0129791200000007
   686   1             22.23546705      19.921447929999999      8.2381942899999991
   687   1      26.314239100000002      19.831834829999998      8.1511121899999992
   688   1      30.342217959999999      19.931061369999998              8.19457828
   689   1      32.376008859999999             23.39696876      8.0859480000000001
   690   1      4.0134604300000003             23.45146746      8.1852378600000009
   691   1      8.1254731000000007      23.246184339999999      8.2534893500000006
   692   1      12.240954220000001      23.427989910000001      8.1991877899999999
   693   1             16.24139418      23.514198390000001      8.2878084899999998
   694   1      20.260255619999999      23.448421320000001      8.2418972700000008
   695   1      24.372232289999999      23.288207289999999      8.3835110099999994
   696   1             28.31588683      23.390097220000001      8.2775754399999997
   697   1              2.10837224      26.854619970000002      8.2041776100000003
   698   1      6.2573823300000004      26.770237519999998      8.2308669800000001
   699   1             10.25647571      26.881525750000002      8.1235753200000005
   700   1      14.141889219999999      26.942322260000001      8.1905284199999997
   701   1             18.34681505      27.002455099999999      8.1608205700000003
   702   1      22.235053990000001      26.932371660000001      8.1680548900000005
   703   1      26.199418850000001             26.89088263      8.0896764799999996
   704   1      30.529802279999998      27.132514830000002      8.2131067000000009
   705   1              0.12972601      27.992601610000001      9.0605248899999999
   706   1      4.3365797400000003    -0.19751139000000001      8.9356131699999999
   707   1      8.1961551099999994             -0.29633229      9.0901471199999992
   708   1             12.19607993    0.084200700000000003      8.9779536400000008
   709   1      16.193706800000001             -0.12894164      8.9448913500000007
   710   1             20.31954348   -0.012092139999999999      9.0159466500000001
   711   1      24.350599370000001             -0.25358459      8.9105568300000009
   712   1      28.352889789999999   0.0056930599999999998      8.9630531100000006
   713   1      2.1483483300000001      3.5757191399999999              9.03287817
   714   1      6.3227248899999999      3.6774399999999998      9.0770574800000006
   715   1      10.344649799999999      3.5792874299999999      8.9885403200000002
   716   1      14.157213670000001      3.3976729400000001      8.9761642899999998
   717   1             18.38626142      3.4822931399999999      9.0444035899999999
   718   1      22.327420929999999              3.59374079      8.9814421200000005
   719   1             26.44280972      3.4617230299999999      8.9982278400000002
   720   1      30.325153350000001      3.2949108800000002      8.9260660299999994
   721   1      32.683296779999999      6.8912725500000001              8.98750757
   722   1      4.1564481300000002      6.8540429500000002      8.9724339499999992
   723   1              8.11612987      7.0261384299999996      9.0108793499999997
   724   1      12.006201519999999              6.97184136      8.9792396700000001
   725   1      16.147177030000002              7.04257036      8.8933388400000002
   726   1      20.111362790000001      7.0035337499999999      9.0299289399999996
   727   1      24.280784749999999      7.0115616799999998      9.0083449099999999
   728   1      28.380932290000001      6.9300222500000004      9.0456558499999993
   729   1      1.9637198899999999             10.52309075      8.9276822800000009
   730   1      6.2063424200000004             10.53444992      9.0655398300000005
   731   1      10.175655069999999      10.525364590000001      8.9804406199999995
   732   1             14.03723905             10.57963777      8.9298207400000003
   733   1               18.280531      10.612755630000001      9.0777318099999995
   734   1      22.442821469999998             10.49064624      8.8976711799999997
   735   1      26.473493510000001             10.48269853      9.0203178499999996
   736   1             30.42700889             10.52998914      8.9392023100000007
   737   1    0.065764859999999994              14.0941212      8.8905579100000001
   738   1              3.97664493      13.995662060000001      8.9536708399999991
   739   1      8.2471731399999992             13.93349606      8.9072893999999998
   740   1             12.18458221             13.78134457      8.9012160700000003
   741   1      16.327940760000001      14.165006910000001      8.8801094000000003
   742   1      20.437965429999998             14.03773369              8.90380824
   743   1      24.330428000000001             14.08260591      9.0587881899999996
   744   1      28.365894340000001             13.96972828      9.1211324099999995
   745   1      2.0892141299999998             17.37784053      8.8563314900000005
   746   1              6.24673737      17.550515579999999      8.9707290299999993
   747   1      10.280130059999999             17.32531599      9.0413800999999996
   748   1             14.35713303      17.564979950000001      8.8466822999999994
   749   1             18.14583863             17.68770228      8.8372106299999995
   750   1      22.332729919999998      17.516074979999999      9.0359388900000006
   751   1      26.246706079999999      17.526780609999999      8.9669622199999992
   752   1             30.41337506      17.691668830000001      8.8870934699999999
   753   1    -0.20434319000000001      21.151168009999999      9.0616042199999995
   754   1      3.8578005100000001      21.027845060000001      8.8904022699999992
   755   1              8.16101162             21.07894714      8.9325183900000003
   756   1             12.06198404      21.127512100000001      9.0575481300000007
   757   1      16.262949280000001              21.0902639      8.9449342099999996
   758   1      20.152935840000001      21.157495440000002      9.0433190900000007
   759   1      24.332443820000002             21.07085936      9.0447799700000004
   760   1      28.294440529999999      21.137116089999999      9.0565502900000006
   761   1      1.9737830999999999             24.49422787      8.9179015400000008
   762   1      6.1148283499999998      24.475622120000001              9.04941292
   763   1      10.206356189999999      24.530900549999998      9.0482826299999992
   764   1      14.245402009999999             24.44431226      9.0734208600000006
   765   1      18.140503840000001      24.882415559999998      9.0830744899999996
   766   1      22.325196420000001      24.708483659999999      8.9902620399999993
   767   1             26.35118052      24.711306619999998      9.1425640700000006
   768   1      30.335303799999998      24.581273549999999      8.9923861299999999
   769   2      29.170842149999999      26.142725280000001      9.3971319399999995
   770   2             27.49429043             26.20223996      9.3851080099999997
