N2-dn2-coord-10bar/300K/snapshots/frame-37899/run-000/../data.lammps (written by ASE) 

770 	 atoms 
2  atom types
0.0      32.470343392086264  xlo xhi
0.0      28.120142247150884  ylo yhi
0.0      31.213473999158239  zlo zhi


Atoms 

     1   1      2.0293964600000001      1.1716090800000001    0.023552650000000001
     2   1      6.0880008999999999              1.17168918              0.02556874
     3   1      10.146952280000001              1.17170328    0.025416459999999998
     4   1      14.205754900000001      1.1716496700000001              0.02501565
     5   1             18.26456816              1.17166478              0.02504435
     6   1             22.32338141      1.1716496700000001              0.02501565
     7   1      26.382184030000001              1.17170328    0.025416459999999998
     8   1      30.441135410000001              1.17168918              0.02556874
     9   1  9.1780000000000006e-05      4.6866847900000002    0.025581599999999999
    10   1      4.0587011400000002      4.6866847900000002    0.025581599999999999
    11   1      8.1174961000000003      4.6866290399999997    0.025584639999999999
    12   1             12.17638011      4.6866852999999997              0.02491202
    13   1             16.23517979      4.6866942700000003    0.025006210000000001
    14   1      20.293956519999998      4.6866942700000003    0.025006210000000001
    15   1      24.352756209999999      4.6866852999999997              0.02491202
    16   1      28.411640219999999      4.6866290399999997    0.025584639999999999
    17   1      2.0293964600000001      8.2016395800000002    0.026613040000000001
    18   1      6.0881071599999999      8.2016314300000008              0.02543782
    19   1             10.14701835               8.2017045    0.025156850000000001
    20   1      14.205766049999999      8.2017080900000003    0.024990459999999999
    21   1             18.26456816      8.2017077599999997    0.025091249999999999
    22   1      22.323370260000001      8.2017080900000003    0.024990459999999999
    23   1      26.382117969999999               8.2017045    0.025156850000000001
    24   1      30.441029149999999      8.2016314300000008              0.02543782
    25   1  9.2789999999999998e-05             11.71671873    0.025573410000000001
    26   1              4.05870014             11.71671873    0.025573410000000001
    27   1      8.1176017700000003             11.71668698              0.02497914
    28   1             12.17637068             11.71673069    0.025001590000000001
    29   1      16.235177310000001      11.716730249999999    0.025074039999999999
    30   1      20.293959009999998      11.716730249999999    0.025074039999999999
    31   1      24.352765640000001             11.71673069    0.025001590000000001
    32   1      28.411534549999999             11.71668698              0.02497914
    33   1      2.0293964600000001             15.23167155              0.02525285
    34   1      6.0881728300000004      15.231678799999999    0.025062859999999999
    35   1             10.14698486      15.231762639999999               0.0250786
    36   1             14.20578841             15.23176782    0.025201990000000001
    37   1             18.26456816              15.2317707    0.025149979999999999
    38   1      22.323347900000002             15.23176782    0.025201990000000001
    39   1      26.382151459999999      15.231762639999999               0.0250786
    40   1      30.440963480000001      15.231678799999999    0.025062859999999999
    41   1      32.470327990000001      18.746748629999999    0.024951939999999999
    42   1      4.0588083299999997      18.746748629999999    0.024951939999999999
    43   1      8.1175770200000006      18.746803499999999    0.025222040000000001
    44   1             12.17637459      18.746799750000001    0.025428470000000002
    45   1      16.235159400000001      18.746805200000001    0.025487360000000001
    46   1      20.293976919999999      18.746805200000001    0.025487360000000001
    47   1      24.352761730000001      18.746799750000001    0.025428470000000002
    48   1             28.41155929      18.746803499999999    0.025222040000000001
    49   1      2.0293964600000001      22.261939099999999    0.025844880000000001
    50   1      6.0881419299999999      22.261841799999999    0.025489439999999999
    51   1             10.14692954             22.26176895              0.02551757
    52   1             14.20573559      22.261804690000002    0.025639160000000001
    53   1             18.26456816             22.26178625    0.025640119999999999
    54   1      22.323400729999999      22.261804690000002    0.025639160000000001
    55   1      26.382206780000001             22.26176895              0.02551757
    56   1             30.44099439      22.261841799999999    0.025489439999999999
    57   1  5.6450000000000003e-05      25.776936450000001              0.02613327
    58   1      4.0587364700000004      25.776936450000001              0.02613327
    59   1      8.1175325399999991              25.7767713    0.024734180000000001
    60   1      12.176376469999999      25.776831090000002              0.02545323
    61   1      16.235145939999999      25.776775220000001    0.025273360000000002
    62   1             20.29399038      25.776775220000001    0.025273360000000002
    63   1      24.352759840000001      25.776831090000002              0.02545323
    64   1      28.411603769999999              25.7767713    0.024734180000000001
    65   1  0.00024266000000000001              2.34304215     0.80166565000000001
    66   1      4.0585502699999996              2.34304215     0.80166565000000001
    67   1      8.1157394600000003              2.34454954     0.80169402000000001
    68   1             12.17601256      2.3433829099999999     0.80116898000000003
    69   1      16.235258170000002      2.3433209100000001     0.80090046999999998
    70   1      20.293878150000001      2.3433209100000001     0.80090046999999998
    71   1      24.353123750000002      2.3433829099999999     0.80116898000000003
    72   1      28.413396859999999              2.34454954     0.80169402000000001
    73   1      2.0293964600000001      5.8582218700000004     0.80119762000000005
    74   1      6.0870566899999998      5.8583336700000004              0.80194851
    75   1             10.14649655              5.85853131     0.80121584000000001
    76   1             14.20597894      5.8582938599999999     0.80086840999999998
    77   1             18.26456816      5.8583798500000004               0.8010794
    78   1      22.323157380000001      5.8582938599999999     0.80086840999999998
    79   1             26.38263976              5.85853131     0.80121584000000001
    80   1      30.442079629999999      5.8583336700000004              0.80194851
    81   1  0.00019438999999999999      9.3717771800000005     0.80082061000000004
    82   1      4.0585985400000002      9.3717771800000005     0.80082061000000004
    83   1      8.1175070500000004      9.3725002699999997     0.80149060999999999
    84   1      12.176590020000001      9.3733583399999993     0.80088261999999999
    85   1             16.23512199      9.3733789200000004              0.80106506
    86   1             20.29401433      9.3733789200000004              0.80106506
    87   1      24.352546289999999      9.3733583399999993     0.80088261999999999
    88   1      28.411629269999999      9.3725002699999997     0.80149060999999999
    89   1      2.0293964600000001             12.88692854     0.80220621000000003
    90   1      6.0883212999999996             12.88743848     0.80138414999999996
    91   1      10.147128609999999             12.88859852     0.80085256000000005
    92   1             14.20571782      12.888558189999999     0.80113791000000001
    93   1             18.26456816      12.888409899999999     0.80109381000000002
    94   1      22.323418490000002      12.888558189999999     0.80113791000000001
    95   1             26.38200771             12.88859852     0.80085256000000005
    96   1      30.440815019999999             12.88743848     0.80138414999999996
    97   1              0.00012365      16.403222639999999     0.80145666999999998
    98   1      4.0586692700000002      16.403222639999999     0.80145666999999998
    99   1      8.1174337899999998      16.403825260000001     0.80097196999999998
   100   1              12.1761021             16.40390721     0.80133072000000005
   101   1             16.23503496      16.403861750000001     0.80140014999999998
   102   1      20.294101359999999      16.403861750000001     0.80140014999999998
   103   1      24.353034220000001             16.40390721     0.80133072000000005
   104   1      28.411702529999999      16.403825260000001     0.80097196999999998
   105   1      2.0293964600000001      19.919205120000001     0.80066369999999998
   106   1              6.08752564             19.91894023     0.80122479000000002
   107   1      10.146078839999999             19.91919038     0.80159137999999996
   108   1      14.204993419999999              19.9192584     0.80178742000000003
   109   1             18.26456816      19.919377350000001     0.80194975999999996
   110   1      22.324142899999998              19.9192584     0.80178742000000003
   111   1      26.383057470000001             19.91919038     0.80159137999999996
   112   1      30.441610669999999             19.91894023     0.80122479000000002
   113   1              0.00142012      23.434536609999999     0.80178442000000005
   114   1      4.0573728100000004      23.434536609999999     0.80178442000000005
   115   1      8.1165862000000004      23.433936769999999     0.80182306000000003
   116   1             12.17555218      23.433996919999998     0.80156656000000004
   117   1             16.23465491      23.434040110000002     0.80170828999999999
   118   1      20.294481409999999      23.434040110000002     0.80170828999999999
   119   1      24.353584130000002      23.433996919999998     0.80156656000000004
   120   1      28.412550110000002      23.433936769999999     0.80182306000000003
   121   1      2.0293964600000001      26.949875330000001              0.80297246
   122   1      6.0858208300000003      26.950066320000001              0.80215291
   123   1             10.14598146      26.949241430000001     0.80165810000000004
   124   1             14.20520604      26.948673230000001     0.80131923999999999
   125   1             18.26456816             26.94858318     0.80108193999999999
   126   1      22.323930279999999      26.948673230000001     0.80131923999999999
   127   1      26.383154860000001      26.949241430000001     0.80165810000000004
   128   1             30.44331549      26.950066320000001              0.80215291
   129   1              0.01227697    0.069479970000000002      1.5327117699999999
   130   1      4.0099483600000001      28.219995350000001      1.5357886599999999
   131   1      8.2014589699999991    0.020455049999999999      1.3776285100000001
   132   1             12.19888854      28.058193549999999              1.45353869
   133   1      16.247317299999999              0.02720146              1.48853357
   134   1      20.340942930000001      28.063007720000002      1.4584847599999999
   135   1      24.312719179999998   -0.080827960000000004              1.45007109
   136   1              28.4701193             28.06442423      1.4662958100000001
   137   1      1.9744406000000001      3.5105081199999999      1.4962360299999999
   138   1      6.0718303899999997              3.55540974              1.48171151
   139   1      10.112762269999999      3.5241871599999999              1.48111361
   140   1              14.1336394      3.5142637799999998              1.47274433
   141   1      18.183014360000001      3.6060629400000002              1.48950458
   142   1      22.238532790000001      3.5465707599999998      1.5151471700000001
   143   1      26.383488450000002      3.5412888200000001              1.44190858
   144   1      30.518953499999999      3.4224197200000002               1.3823691
   145   1              0.04243537      7.0318608300000003      1.4667589299999999
   146   1      4.0040721000000001      7.1136032900000004      1.6399160100000001
   147   1      8.0496598000000006      6.9984900799999998      1.4177833799999999
   148   1              12.1665297      6.9765556000000002              1.53611813
   149   1             16.17168534              7.09371508               1.4452756
   150   1      20.357607569999999      7.0732156100000001      1.4988749699999999
   151   1      24.362367549999998      6.9408484799999997      1.4749643699999999
   152   1      28.374584689999999      7.0692659799999999              1.49463755
   153   1      2.0566963199999999      10.505651889999999      1.6068892400000001
   154   1      6.1453866100000001      10.499553929999999      1.4767132700000001
   155   1             10.17096469              10.5013203      1.4350156700000001
   156   1      14.278077740000001              10.4750116              1.45403719
   157   1             18.24240124             10.53837354      1.4477020899999999
   158   1      22.301769579999998      10.402872029999999              1.52772822
   159   1      26.357769529999999             10.47099113      1.4895163300000001
   160   1      30.449354750000001      10.457439450000001               1.5399623
   161   1      32.538786450000003             13.98755272      1.4594075099999999
   162   1              4.13254272      13.974527739999999              1.43044576
   163   1      8.1249866300000004             14.00270244              1.57680515
   164   1      12.165994189999999      14.031972290000001      1.4524319400000001
   165   1      16.168593909999998      13.991503850000001      1.3518064000000001
   166   1      20.314164009999999      14.022950549999999      1.4377028300000001
   167   1      24.257736860000001             14.03559705      1.4471065299999999
   168   1      28.503191340000001      14.133509249999999      1.4230333399999999
   169   1      1.9610532899999999             17.53158161              1.41553536
   170   1      6.1396193300000004             17.56691137              1.49876247
   171   1             10.16459324      17.678524199999998      1.4054993600000001
   172   1              14.1686386             17.56538325              1.50372712
   173   1             18.29748545      17.579514249999999      1.4605537099999999
   174   1      22.422393419999999             17.46333224      1.4774198000000001
   175   1      26.438724619999999      17.687397669999999      1.4796890700000001
   176   1      30.396410280000001             17.57422944              1.58077661
   177   1              0.01875682             21.06318482      1.4382488499999999
   178   1      4.0833138099999999      21.083106390000001      1.6088007200000001
   179   1      8.1184433299999998      21.164060899999999      1.6094635399999999
   180   1      12.197035420000001      21.163589850000001      1.4893804100000001
   181   1      16.342323189999998      21.170444570000001      1.3963448199999999
   182   1      20.306478219999999      21.028956569999998      1.3583100400000001
   183   1      24.402118009999999             21.05579676      1.5740184699999999
   184   1      28.400205499999998      21.050455750000001      1.4596996600000001
   185   1              1.95453666      24.596284239999999      1.4379293900000001
   186   1              5.99504912      24.615039830000001      1.3500071600000001
   187   1      10.119265889999999             24.56087926      1.4773415599999999
   188   1             14.11582097              24.6577296      1.4068975100000001
   189   1              18.2780652             24.59464612      1.3305845000000001
   190   1             22.33080189             24.66396117              1.50217158
   191   1      26.354974210000002             24.63158546      1.4096960300000001
   192   1      30.540813679999999               24.656419      1.4559897399999999
   193   1              2.02205339      1.1751899100000001      2.4254818199999999
   194   1      5.8486032000000003              1.25294862              2.35920329
   195   1      10.130965870000001              1.14081945      2.3017247200000002
   196   1      14.214066219999999              1.18319518      2.3862610599999998
   197   1             18.30469768      1.2278691799999999      2.3373455700000001
   198   1      22.206439509999999      1.1185265799999999      2.4195658299999998
   199   1      26.339373250000001              1.10800217      2.3483050400000001
   200   1             30.45937945              1.14607561      2.4569520800000002
   201   1   -0.061867970000000001              4.76880302      2.4978038300000001
   202   1      3.9447145099999998      4.6366727000000001      2.2968292400000001
   203   1      8.0467538100000002      4.6854511399999996              2.41118012
   204   1             12.17097379      4.7032708699999999               2.3860356
   205   1      16.246925820000001      4.6583455899999997      2.4413835800000001
   206   1             20.25400265      4.6963180199999996      2.4038706900000002
   207   1      24.444051250000001      4.6293695899999996      2.4261723100000001
   208   1             28.45592955      4.5687660299999999              2.40707212
   209   1              1.94963149      8.2388851600000006      2.4524536800000001
   210   1      6.0930452400000004              8.20191683              2.51060566
   211   1      10.134021150000001      8.2665973600000004              2.27721909
   212   1             14.10147946              8.19038924      2.4859617699999998
   213   1      18.262084430000002      8.1619975100000008      2.3381755800000001
   214   1             22.46387665      8.0487667900000002      2.4928828900000002
   215   1      26.344564559999998      8.2082951899999994              2.37217045
   216   1      30.459585560000001      8.1687086299999994      2.4744408199999999
   217   1      32.556803459999998              11.6488646      2.5104829799999999
   218   1      4.1629258399999998      11.622311870000001      2.4463239300000001
   219   1      8.1094477200000004      11.607641340000001              2.45242893
   220   1             12.06608656      11.737847759999999      2.3850666399999998
   221   1      16.276254059999999      11.668193240000001              2.38656216
   222   1      20.403154430000001             11.63405448      2.3211639000000002
   223   1             24.33359282              11.6982708      2.3540308300000001
   224   1      28.359165959999999             11.77090186      2.3567737900000001
   225   1      2.1166447499999999      15.179296709999999      2.4249170200000001
   226   1      6.0703170000000002      15.320595640000001      2.4045976900000001
   227   1      10.102286749999999      15.140431749999999      2.4654881400000002
   228   1      14.217138390000001      15.195151449999999      2.4354589899999999
   229   1      18.233696160000001      15.234355239999999      2.3811520599999998
   230   1             22.34971255             15.19701061              2.39205493
   231   1      26.444697900000001      15.231728609999999               2.4200393
   232   1      30.540338779999999             15.13755705              2.38100764
   233   1      32.564872749999999      18.736885740000002      2.4524800400000002
   234   1      4.0369089499999999      18.744700479999999      2.3174181699999998
   235   1      8.0796780699999999      18.823555599999999      2.4301021999999999
   236   1             12.16872442             18.70738222              2.35991836
   237   1      16.222038950000002      18.712065750000001      2.3451319800000001
   238   1      20.279448510000002             18.73696395      2.4018773699999998
   239   1      24.325569860000002             18.71210451      2.6154550900000002
   240   1             28.44476045             18.71063929      2.4279845999999998
   241   1      2.0486299300000002             22.23019648      2.3565411900000002
   242   1      6.0013837399999996      22.298197389999999              2.45599385
   243   1             10.14879618      22.187767269999998      2.4063505200000002
   244   1             14.32149847      22.330067830000001      2.4023570699999999
   245   1      18.348758199999999      22.225422729999998              2.30626803
   246   1      22.395562720000001             22.29588433      2.3829408999999999
   247   1      26.367741760000001             22.29296647      2.3491312999999998
   248   1      30.529081640000001             22.18939653               2.4750557
   249   1   -0.048937630000000003      25.883971240000001              2.37739513
   250   1      4.0232608599999997      25.815082499999999      2.3859356200000001
   251   1      8.1348238399999993             25.85733656      2.3430488700000001
   252   1             12.14396344             25.78223294      2.3532618900000002
   253   1      16.247558900000001      25.710113410000002      2.4967872299999998
   254   1      20.257786750000001      25.740107550000001      2.3686111300000001
   255   1      24.436341989999999      25.787974290000001      2.4075061899999999
   256   1      28.413126139999999             25.79068496      2.3806054300000001
   257   1             -0.02991282              2.29314412      3.2718256000000001
   258   1              3.96028768      2.3440939699999999      3.3475053899999998
   259   1      8.0914514700000009      2.3089342899999998              3.23621414
   260   1              12.1302866              2.28408414              3.23640763
   261   1             16.25334513      2.3387706599999998      3.3673249599999999
   262   1      20.258154909999998      2.3857364300000001      3.3143179900000002
   263   1             24.42545655              2.29193201      3.2915143699999998
   264   1      28.441398240000002              2.34974236      3.2497503299999999
   265   1              2.01006711      5.9059464300000002      3.2460654999999998
   266   1              6.15672526              5.81261677      3.3810643699999998
   267   1             10.02396697      6.0396206899999996      3.2359527099999998
   268   1              14.2604638      5.8871303599999996      3.3581468800000001
   269   1      18.161244199999999      5.8926676000000002      3.3564266800000002
   270   1             22.34872858      5.7138712299999996      3.2149722999999999
   271   1      26.428980159999998              5.80990509      3.2404467299999999
   272   1      30.349074420000001      5.9467656099999999              3.29066423
   273   1      32.458796640000003      9.2381693699999996      3.2526856199999998
   274   1      3.9912794300000001      9.3329512999999995      3.2606081900000001
   275   1      8.1248885000000008      9.3516451000000007      3.2269484300000002
   276   1      12.163635810000001      9.3140466400000008      3.1460848499999998
   277   1      16.233979519999998      9.4259330000000006      3.2574480000000001
   278   1      20.293246929999999      9.2713495699999999              3.17415059
   279   1      24.363114419999999      9.4020661699999994      3.2613806200000002
   280   1      28.458286050000002      9.4656299199999996      3.2617835199999998
   281   1      2.1054663900000001             12.77042687      3.2333231499999999
   282   1      6.2446419500000001             12.86324351      3.2870834599999998
   283   1             10.04344137             12.75366957      3.2955131999999998
   284   1             14.21620532      12.810076049999999      3.3336513700000001
   285   1      18.263354790000001             12.83435972      3.1514325900000002
   286   1      22.326631849999998             12.85563456      3.2328839500000002
   287   1      26.418071220000002             13.04245863      3.2729168500000001
   288   1              30.5010385              12.8395414      3.1717261799999998
   289   1    0.066633730000000002      16.302902660000001      3.2441344499999998
   290   1      4.0442814699999996      16.419156359999999      3.2277542000000001
   291   1      8.1947329700000004      16.441132289999999      3.2936657399999998
   292   1             12.11063779             16.40134127      3.1174813399999999
   293   1      16.258632219999999      16.364062820000001      3.3368724799999998
   294   1      20.277943050000001             16.38434822      3.2119327000000002
   295   1      24.283037050000001      16.345224000000002      3.3192906199999999
   296   1             28.45979779      16.318083869999999      3.2618776700000001
   297   1      2.0962161099999999             19.81889241      3.2713355800000001
   298   1      6.0047293599999998      19.881857050000001              3.25846028
   299   1             10.15014174             19.87390006      3.3071910600000001
   300   1      14.149918619999999      19.952805420000001      3.2428888800000002
   301   1      18.222207699999998      20.020025610000001      3.0954763199999999
   302   1      22.316213829999999      19.980472809999998      3.2325599500000002
   303   1             26.41646871      20.009482269999999      3.2901615500000001
   304   1      30.573724609999999             19.95664657      3.2901994399999999
   305   1    0.017311420000000001      23.413305489999999      3.2366475600000002
   306   1              3.98367622             23.30370521      3.3249738099999999
   307   1      8.1411883100000004      23.406056070000002              3.26182507
   308   1      12.220291980000001      23.389455479999999      3.2538504399999999
   309   1             16.25065777             23.41649533      3.1651931800000002
   310   1             20.37262832      23.368195199999999      3.2357231799999999
   311   1             24.35952932      23.458637849999999      3.1953669900000001
   312   1             28.49376839      23.357461440000002      3.2498002600000002
   313   1      1.9908700699999999      26.986497400000001      3.2096818800000002
   314   1      6.0260297100000004      26.982116779999998              3.19267323
   315   1      10.115944369999999      26.906526700000001      3.1499763199999999
   316   1      14.284706140000001             26.87974152      3.2885335699999998
   317   1             18.30836476             26.89311975              3.25418093
   318   1      22.307919259999998      26.891015410000001      3.2875272199999999
   319   1             26.40011595      26.934081460000002      3.1771270999999999
   320   1      30.418317609999999             26.87880036      3.3451881399999999
   321   1              0.02226508      28.072682060000002      4.0885165499999996
   322   1              4.03650967   -0.018313690000000001      4.0747596499999998
   323   1      8.0665595400000001    0.060842790000000001      4.0184175199999999
   324   1      12.177828460000001              -0.1200677      4.0950674100000004
   325   1      16.270818729999998    0.059349840000000001                4.035291
   326   1      20.319518420000001      28.146443099999999      3.9528620999999999
   327   1      24.365220959999998   -0.070373519999999995      4.0415648700000002
   328   1      28.462352689999999   -0.093463320000000003      4.0655147600000001
   329   1      1.9540474699999999      3.5240975300000001      4.0194925499999998
   330   1      6.1305553699999997      3.4760604700000002      4.0284700400000002
   331   1             10.13565376      3.5176649599999998              4.04515124
   332   1             14.30345479      3.5329644500000001      4.0650640899999999
   333   1             18.28981074      3.5941952100000001              4.20456539
   334   1      22.318009140000001              3.37072745              4.17452924
   335   1      26.379633129999998      3.4558045499999999      4.0591356999999997
   336   1             30.45098853      3.5574437300000001      4.1189490299999996
   337   1      32.420914600000003      6.9772883099999996      4.0699842300000002
   338   1      4.0666720700000001      7.0264813200000003      4.0772785300000001
   339   1      8.1631610299999995      7.1324858100000004      4.1733677199999999
   340   1             12.14574518      6.9756856000000003      4.0737991100000004
   341   1      16.232659680000001      7.1092599600000002      4.0541754399999999
   342   1             20.33064525      7.0925016999999997      4.1148163699999998
   343   1      24.307232249999998      7.0739680299999996      4.0185176199999999
   344   1             28.38866041      7.0902352400000002              4.09650304
   345   1              1.95676564             10.49856522      4.1343180899999998
   346   1      6.0738306800000004      10.403735259999999      4.1968110699999999
   347   1             10.14110123             10.51108691              3.99391052
   348   1             14.12776549      10.540178539999999      4.0341310100000003
   349   1      18.323610330000001             10.50084206              4.15024455
   350   1             22.33884351      10.412828279999999      3.9893328499999998
   351   1      26.458081809999999             10.55337215      4.0881502799999998
   352   1             30.41086512             10.56965866              4.04368426
   353   1      32.540822980000002             13.92431614      3.9456797699999999
   354   1      4.0943678400000003               14.062483      4.0039433000000004
   355   1              8.13126003             14.08021471      4.1612164800000002
   356   1      12.134127579999999      13.980422190000001      4.0351898999999998
   357   1      16.179199860000001             14.02304511      3.9993859600000001
   358   1      20.200838489999999             14.04944731      3.9427847699999998
   359   1             24.29927107      14.030511280000001      3.9606593999999999
   360   1      28.509762030000001             14.00583928      4.0557540000000003
   361   1      2.1381531800000002      17.477471040000001      4.0951117300000002
   362   1      6.0249530900000003             17.42772677      4.1479643199999998
   363   1             10.11942887      17.622911330000001      4.0391980399999996
   364   1             14.13945397      17.554831360000001              4.07642682
   365   1      18.279991240000001              17.5831418      3.9565286899999998
   366   1             22.31195628      17.520468820000001      4.1639075200000004
   367   1      26.352205720000001             17.59195776      4.0539036099999999
   368   1      30.589731919999998      17.526825899999999      4.0541177299999998
   369   1              0.19686834             21.08035933      4.0593857800000004
   370   1      4.0428063300000003      21.004200139999998      4.1178607400000002
   371   1      8.0392902700000004      21.191490139999999      4.1137366000000002
   372   1             12.13208983      21.177232419999999      4.1138507799999999
   373   1      16.322825269999999      21.027715730000001      4.0742994899999996
   374   1      20.351927329999999             21.16966755      4.0555335000000001
   375   1      24.470939390000002             21.16998302      4.0899361000000001
   376   1      28.601527619999999      21.082741500000001      4.0831164800000002
   377   1                1.904731             24.60922236      3.9929347700000002
   378   1              5.98445757      24.681709739999999      3.9988712799999999
   379   1      10.174968120000001      24.603475939999999      3.9784975999999999
   380   1             14.27133373              24.6488002      3.9888644200000001
   381   1             18.32290819             24.61251485      3.9520845900000001
   382   1      22.406917440000001             24.62109062      3.9722015000000002
   383   1      26.406220579999999      24.552301239999998      3.9591995199999999
   384   1      30.423419209999999      24.632036230000001      4.0507514200000001
   385   1              1.98364059      1.1687938099999999      5.0292394600000003
   386   1      6.0197238000000004              1.26430478      4.9106492199999998
   387   1             10.13589239              1.11902755      4.8483024600000002
   388   1      14.213849489999999      1.1697632099999999      4.9712762799999997
   389   1      18.278321980000001      1.1141462799999999      4.9393283700000001
   390   1      22.409014880000001              1.21824423      4.9782427699999996
   391   1      26.367101420000001              1.11787824      4.8634152500000001
   392   1      30.414580430000001      1.2198948999999999      4.8913911299999997
   393   1   -0.064469440000000003              4.62137479              4.97933439
   394   1      4.0898627899999997      4.7120562599999998      4.8763481500000001
   395   1      8.1237540799999994      4.7980388100000004              4.94620836
   396   1      12.189090119999999      4.6486455500000003      4.9089788299999997
   397   1      16.255841620000002      4.8160170500000001      4.9190110999999996
   398   1      20.308276710000001      4.7226308799999996      5.0482982999999999
   399   1      24.346949590000001      4.7809710599999997      4.9078413699999999
   400   1             28.41188781      4.6512938100000003      4.8400010099999999
   401   1      2.0519857899999998      8.1267048600000003      4.8582016100000001
   402   1      6.0164884699999996      8.1567283100000001      5.0717230999999998
   403   1             10.15107968      8.3231023200000003              4.89398483
   404   1      14.283630840000001      8.2732139799999995      4.8866651699999997
   405   1      18.278657729999999      8.2617843099999995      4.9121259200000003
   406   1      22.317744099999999      8.1651224800000008              4.93345433
   407   1      26.316304410000001      8.2084448900000009      5.0201597600000003
   408   1      30.470756470000001      8.1980843799999992      4.8319230099999997
   409   1      32.453727299999997             11.53610228      4.9358092899999999
   410   1      4.1280957100000002      11.589552360000001      4.8681293400000003
   411   1      8.0653383299999994      11.626267009999999      5.0210784899999998
   412   1              12.0749572             11.73884531      4.8979688899999996
   413   1             16.27601666      11.729417700000001      4.8618839500000002
   414   1      20.216099490000001      11.718660359999999      4.7834523400000002
   415   1      24.284751419999999             11.70372686      4.8632986899999997
   416   1      28.386807770000001              11.7682258              4.84760817
   417   1      2.1445463600000001             15.17295682      4.8666917500000002
   418   1      6.2261238900000002             15.28653141      4.9305448600000004
   419   1             10.11723179             15.32957229      4.9289981300000001
   420   1      14.264739670000001      15.292316100000001              4.99103472
   421   1      18.261764530000001              15.2485547      5.0607006099999996
   422   1      22.239529560000001      15.220368499999999      4.9417492899999997
   423   1             26.40544719             15.16710735      4.8901521399999996
   424   1              30.4699396      15.099455369999999      4.9344128700000001
   425   1               0.0651862      18.714624820000001      5.0439496899999998
   426   1      4.1110614600000002             18.67891152               4.9926892
   427   1      8.1196315299999995      18.907171380000001              4.90840283
   428   1             12.05572564      18.844647139999999      4.8690197399999997
   429   1             16.16436719      18.767127859999999              4.85407996
   430   1             20.24462179      18.624640280000001      4.9331443000000004
   431   1      24.288085639999998      18.687924970000001              5.04523235
   432   1      28.454771569999998      18.754749879999999      4.9259616900000003
   433   1      2.0185641099999998      22.265389549999998      5.0531091200000002
   434   1      6.1623829800000003      22.458534879999998      4.9147103200000002
   435   1      10.140313839999999             22.35120779      4.9774032100000003
   436   1      14.273396290000001      22.218152539999998      4.9948635499999998
   437   1      18.296221209999999             22.18197103      4.7730328000000002
   438   1      22.387608480000001      22.311530260000001      4.9154716499999997
   439   1      26.493468570000001             22.26792524      4.9401681200000001
   440   1             30.63934227      22.165958580000002      4.8940938300000001
   441   1   -0.060284459999999998      25.826951279999999      4.8727362599999999
   442   1      3.9575125500000001             25.86383476      4.9243321499999997
   443   1      7.9765819899999997             25.86606669      4.8471082900000004
   444   1             12.16730083      25.690152090000002              4.93464569
   445   1             16.38218921             25.73005586      5.0104631900000003
   446   1      20.362291110000001      25.762516250000001              4.87817583
   447   1      24.361786410000001             25.76158517      4.9129108099999996
   448   1      28.416118860000001      25.759684910000001      4.9286603600000003
   449   1   -0.080515489999999995      2.4818248500000002      5.8310481599999999
   450   1              4.00382266              2.35728385              5.84447384
   451   1      8.0293202699999995      2.4383009900000001      5.6807514799999996
   452   1             12.13913983      2.3972046599999999      5.6853492900000004
   453   1      16.339258579999999      2.3850794400000002      5.7186446499999999
   454   1             20.26702478              2.35124829      5.8431434199999996
   455   1      24.419232189999999              2.39460286      5.8177319599999997
   456   1      28.461878129999999      2.4425660300000001      5.7553111899999996
   457   1      2.0146660600000001      5.7439999000000004      5.7723437899999999
   458   1      6.0914815000000004      5.8709888299999999      5.7630164400000004
   459   1             10.23209276      5.9622103299999996      5.6008645399999999
   460   1      14.170328680000001      5.9261576299999996      5.8030503700000002
   461   1             18.19397773              5.95028515      5.8122251199999999
   462   1      22.326335329999999      5.8679249100000002      5.7493299799999997
   463   1      26.394526720000002      5.8588545200000004      5.7713190299999999
   464   1      30.477459169999999      5.8268572799999996      5.7361103800000004
   465   1      32.487474560000003      9.3649153599999995      5.7625047499999997
   466   1      3.9818986600000001      9.3495735199999999      5.7526232100000003
   467   1      8.1191756999999996      9.2910242099999998      5.7423293600000003
   468   1             12.20065778      9.4497490499999994      5.7120835100000003
   469   1      16.241523130000001      9.4814503999999999      5.6882875500000001
   470   1             20.23206905      9.4198377099999995              5.72069414
   471   1      24.290878859999999      9.3330412299999992      5.7836838500000001
   472   1      28.391722550000001      9.4168040899999994      5.7543509500000001
   473   1      2.0305056100000001      12.866493910000001      5.6669138099999996
   474   1      6.0817854100000002             12.91692353      5.7267292000000003
   475   1             10.06767642              13.0360418      5.8909946800000004
   476   1             14.15912775             13.00717697      5.7409100000000004
   477   1      18.247396999999999             12.88164501              5.68726178
   478   1              22.2985297             12.79174175      5.6985942100000004
   479   1             26.41948622             12.91048587      5.7308859300000004
   480   1      30.590484199999999             12.84967507      5.5949250199999998
   481   1      32.408906690000002      16.355727470000001      5.6468338300000003
   482   1      4.2399147199999998      16.353581689999999      5.7427100800000002
   483   1      8.0973710800000003             16.51979656      5.7785671399999998
   484   1      12.102961519999999      16.482034540000001      5.6590902400000003
   485   1      16.356987740000001      16.535848550000001              5.75015184
   486   1             20.27851931      16.464310749999999      5.8392920200000002
   487   1      24.309347989999999      16.337522570000001                5.724685
   488   1      28.461740760000001      16.453528890000001      5.6454823000000003
   489   1      2.0569658500000001             19.95066769      5.8750749999999998
   490   1      5.9930762399999997      19.990561889999999      5.7677525899999997
   491   1             10.07417317             19.95215271      5.7042748300000001
   492   1      14.224268629999999      19.848364190000002      5.7387914000000002
   493   1      18.366624510000001      19.839880399999998      5.5634397800000004
   494   1      22.387836530000001      19.990506329999999              5.74240671
   495   1      26.544991110000002      19.866333439999998               5.8089803
   496   1      30.488913289999999      19.934517499999998      5.8058112199999998
   497   1    0.028316439999999998      23.448369970000002              5.83126357
   498   1      3.9397538700000001      23.405811889999999      5.7744839800000003
   499   1      8.2068862100000004      23.544357689999998      5.7445135399999998
   500   1      12.216936929999999      23.362831880000002      5.6829698799999999
   501   1             16.43797649             23.44638956      5.7967971699999996
   502   1      20.303399840000001      23.345080360000001      5.6712461000000003
   503   1             24.32117628      23.497627080000001      5.7777724399999997
   504   1      28.585217109999999      23.427247510000001      5.6410269700000004
   505   1      1.9831949799999999      27.082077330000001      5.7085032900000003
   506   1      6.0577879399999999             26.96150725      5.7859860100000002
   507   1      10.197700129999999      26.977369620000001               5.6407919
   508   1             14.18150531             26.90196972      5.7517548100000004
   509   1      18.198220259999999      27.029892350000001      5.8453417999999999
   510   1             22.41534536      26.928162709999999      5.6963154400000002
   511   1             26.43634101      26.842913169999999      5.6722708900000001
   512   1      30.351834719999999      26.966883060000001              5.84829621
   513   1   -0.060692509999999998    0.042651540000000002      6.5216324300000004
   514   1      3.9380341400000001    0.035211510000000001      6.6685820199999997
   515   1      8.0172972100000006    0.063675899999999994              6.56143623
   516   1             12.15417332              0.11405388      6.5875720600000003
   517   1              16.2695556              28.2465774      6.6564038099999996
   518   1      20.404751430000001               0.0024662      6.5238868800000001
   519   1      24.526043479999998              0.00364782      6.5312886600000004
   520   1      28.382573090000001      28.113654839999999      6.5422413600000002
   521   1      1.9440512400000001      3.5303841299999998      6.6634898199999997
   522   1      6.1401960400000002      3.5978602899999998      6.5865423099999996
   523   1             10.01617169              3.65334856      6.5519934099999997
   524   1             14.34635366              3.59422335      6.5512035500000003
   525   1      18.261039419999999      3.6476263499999999      6.7170110899999997
   526   1      22.370077169999998              3.61951131      6.6633695499999996
   527   1             26.38009984      3.5933153500000001      6.5239899100000001
   528   1      30.424510649999998      3.5213418700000001              6.73150827
   529   1     0.17659084999999999      6.9930441800000001      6.5819498000000003
   530   1      4.0530674600000003      6.9979422700000002      6.5549450499999997
   531   1      8.1128351799999994      6.9183981699999997      6.6656782799999998
   532   1             12.19496889      7.1465424000000004      6.6326889099999997
   533   1             16.15965671      7.1055550299999997      6.5525918000000001
   534   1      20.303244400000001      7.0829874300000002              6.49883071
   535   1      24.347877759999999      7.0104440400000003      6.6213672700000004
   536   1             28.54366795      7.0410307400000001      6.6166314100000001
   537   1              1.97854708      10.576030039999999      6.5330798400000001
   538   1      6.0832754600000003      10.549095230000001      6.5893127600000003
   539   1              10.1256279      10.689694100000001      6.5456771700000003
   540   1             14.19023866      10.673812330000001      6.5748929399999998
   541   1      18.306001519999999      10.615396759999999      6.5771753300000002
   542   1      22.212035660000002             10.56780346      6.4711049999999997
   543   1      26.335433609999999             10.61090901      6.6017893699999997
   544   1             30.43438832             10.61117973      6.5537293099999996
   545   1             32.60882762             13.99226109      6.4311832100000004
   546   1              4.04433037             13.99514656              6.47704871
   547   1      7.9833436600000001             14.10575613      6.6200971700000002
   548   1             12.15217167      14.260128910000001      6.5079777600000002
   549   1             16.27470525      14.081713580000001      6.6701904699999996
   550   1      20.235055750000001      14.066977509999999      6.5617629600000003
   551   1      24.294398439999998      13.993921139999999      6.5928409700000001
   552   1             28.48887028      14.062062389999999              6.52720989
   553   1      2.1079801699999998      17.740285320000002      6.5804618399999999
   554   1      6.1191334599999996             17.59054145      6.7044965100000002
   555   1      10.092134980000001             17.61953286      6.6064115699999997
   556   1      14.114401790000001             17.56207169      6.5909333999999999
   557   1      18.258493380000001      17.555054649999999      6.5965044199999996
   558   1      22.380231649999999      17.561986770000001      6.5313152299999997
   559   1      26.508287079999999             17.53486307      6.5807069900000004
   560   1      30.525577259999999      17.488236390000001      6.6419738700000002
   561   1      32.518727069999997      21.095630620000001      6.6966014500000002
   562   1      4.0292827600000001             21.14287994      6.7339524800000001
   563   1      8.1030213399999997      21.086548959999998      6.5950089099999998
   564   1      12.253557539999999      21.112491290000001      6.6209792600000004
   565   1      16.373613760000001      21.031828000000001      6.4346011299999999
   566   1             20.36394099             21.15375693      6.5681908399999998
   567   1      24.490592240000002      21.203908299999998      6.5066444299999997
   568   1      28.466209169999999             21.15956555      6.5216853300000004
   569   1              1.89371344      24.713468039999999      6.5913487499999999
   570   1      6.0828154400000001      24.673211500000001      6.6147237399999996
   571   1             10.22095835      24.671539849999998      6.5547746199999999
   572   1             14.19755344      24.630674670000001              6.57167718
   573   1      18.374380030000001             24.64944522      6.4598055499999996
   574   1      22.288531809999999             24.63088192      6.5390071399999998
   575   1      26.437222349999999      24.554739789999999      6.5941464200000004
   576   1      30.565556709999999             24.58662215      6.5655421599999997
   577   1      1.9609660799999999               1.2174806      7.7040556599999999
   578   1      5.9015447099999996              1.23608495      7.5788919999999997
   579   1             10.04617331              1.15807565      7.4155109000000001
   580   1      14.099129489999999              1.23220098      7.4232205899999997
   581   1      18.377086420000001              1.20599082      7.5761615100000004
   582   1             22.54232524              1.22280156      7.5477001899999996
   583   1      26.519874770000001      1.2694272600000001      7.3893887999999999
   584   1      30.377304859999999              1.11257001      7.4611640299999999
   585   1   -0.096974610000000003      4.7561360199999996              7.61951204
   586   1      4.1413420900000002      4.6817189099999998      7.4689940799999999
   587   1      8.1180780200000004      4.6875680099999997      7.6267034699999998
   588   1             12.10654561      4.6173699499999996      7.4504154700000003
   589   1             16.23735065      4.8019805199999999              7.73465823
   590   1      20.264997430000001      4.7218916000000002      7.5352946300000001
   591   1             24.29372102      4.7155038200000003      7.5642972899999998
   592   1             28.46337415      4.6956674200000004      7.4172310699999997
   593   1      2.1054963099999999      8.2044357100000003      7.4880347599999997
   594   1      6.0800028399999997      8.2202725099999991      7.5348667300000001
   595   1              10.1608942      8.2300267100000006      7.5696739500000003
   596   1             14.18208789      8.2880508200000005      7.5888337400000001
   597   1      18.180880739999999      8.2657717500000008      7.4947871099999999
   598   1      22.305648179999999      8.2089071899999997              7.34581368
   599   1      26.491519759999999      8.1713143099999996      7.6584743499999997
   600   1      30.579840440000002      8.2590005400000006      7.3665720099999996
   601   1      32.477211689999997             11.58089034      7.5130865199999999
   602   1      4.1290913900000001      11.704536020000001      7.4733106100000004
   603   1      8.1715893000000008               11.864106      7.6238341800000002
   604   1      12.179903940000001             11.87488413      7.6517914300000003
   605   1      16.233357640000001              11.7076008      7.5066118499999996
   606   1      20.128841550000001             11.74217067      7.5677426399999996
   607   1      24.237633429999999      11.648557759999999      7.4406181199999999
   608   1      28.478150769999999              11.7498618      7.5216274500000004
   609   1      1.9527650599999999             15.14147408      7.2286262299999997
   610   1      6.0410666400000004             15.29544199      7.6465870300000001
   611   1             10.02921553      15.306056420000001      7.5634857499999999
   612   1      14.293316600000001      15.167109999999999      7.5846396699999996
   613   1      18.151693179999999      15.229063010000001      7.5967155799999997
   614   1      22.239314619999998             15.29059007      7.4537721899999996
   615   1             26.45334021      15.299592669999999      7.4131024200000004
   616   1      30.564952989999998             15.21874212      7.4884471100000001
   617   1      32.485351020000003             18.72538849      7.7954966299999997
   618   1      4.2415461900000002              18.8133382      7.6116810499999996
   619   1      8.0905688199999997      18.899878359999999      7.4876778499999999
   620   1             12.04027479      18.783317069999999      7.4487077599999996
   621   1      16.127203600000001      18.614333160000001      7.5112747799999999
   622   1               20.425438      18.683237519999999      7.5289526499999999
   623   1              24.4796257              18.6741326      7.6927877599999999
   624   1              28.5767509             18.83577528      7.5758214199999996
   625   1      2.0992174399999999      22.409408970000001      7.7562447199999998
   626   1      6.0515718700000001      22.324590820000001      7.5086338000000001
   627   1      10.325130270000001             22.30301875      7.4528767499999997
   628   1      14.328118829999999      22.194141689999999      7.5360475300000003
   629   1      18.365925610000001             22.29835637      7.2990566699999997
   630   1      22.419408229999998      22.340108000000001      7.4765880200000003
   631   1             26.37570332      22.309186360000002      7.5723628700000001
   632   1              30.5174968             22.26187444      7.4345828300000001
   633   1             -0.02654397      25.988455210000001      7.7434728799999997
   634   1      4.0028734200000002      25.765130429999999      7.4867130599999996
   635   1              8.16845468      25.795377680000001      7.6044928000000001
   636   1      12.254199290000001      25.870891799999999      7.5772097299999999
   637   1      16.322646599999999              25.7324217      7.6265534600000002
   638   1      20.309109930000002      25.731782890000002      7.5528924599999998
   639   1      24.340545980000002      25.789934899999999      7.4079363100000002
   640   1             28.40827621      25.769341480000001      7.3792624499999997
   641   1      32.329331320000001      2.4045339299999999      8.3404066100000005
   642   1      4.1271151599999998      2.3470693800000002      8.2661447199999998
   643   1      8.0271970400000008      2.4165654399999998      8.0770453100000008
   644   1      12.164723759999999      2.4335784899999999      8.2872230600000005
   645   1             16.31850979              2.40034277      8.1551191900000006
   646   1             20.34967434              2.34468779      8.2782104899999993
   647   1      24.504013629999999              2.39580101      8.0806889900000005
   648   1      28.480928420000001      2.3346664000000001      8.3203966600000001
   649   1      1.9246452700000001      5.7114348599999998      8.2052743100000001
   650   1      6.0491894400000001      5.9147974000000003      8.3850159499999997
   651   1      10.190552800000001              5.91088871      8.1242147500000002
   652   1             14.05490517      5.8883958300000003      8.1543776399999999
   653   1      18.278399520000001      6.0539193400000002      8.2074216300000007
   654   1      22.347765249999998      5.8810896899999996      8.2482470299999999
   655   1             26.31691618      5.7802361800000002              8.20569025
   656   1      30.438684259999999      6.1148000600000003      8.2215013100000007
   657   1      32.551240679999999      9.1958280999999999      8.1886898400000003
   658   1              4.14096464      9.3319416099999994      8.2272590700000006
   659   1      8.0847809300000009      9.3793853699999996      8.3007180500000004
   660   1             12.18123316      9.5371096600000005      8.1331972799999992
   661   1              16.3812642      9.4695011999999998      8.0627775499999998
   662   1      20.347271889999998      9.4313909099999993      8.0798598199999994
   663   1      24.481889649999999      9.2487069700000006              8.19208435
   664   1             28.43609433      9.3493924800000006      8.1857320300000005
   665   1               1.9941167      12.913165360000001      8.1096359499999995
   666   1      6.1011199100000004             12.95312637      8.2452330600000003
   667   1              10.2322506             13.05172333      8.3658632599999994
   668   1             14.17352762              12.9249308      8.1825385199999996
   669   1      18.112376009999998             13.01713799      8.1942194599999993
   670   1      22.262619969999999             12.85998682      8.1093915299999999
   671   1      26.393117270000001      12.897880669999999      8.1683681099999994
   672   1      30.496051309999999      12.916235759999999      8.1523160000000008
   673   1      32.747238670000002      16.407607179999999      8.2966655500000002
   674   1      3.8192850200000001             16.38703623      8.2113391900000003
   675   1      7.9906055599999997      16.483655630000001      8.1869927100000002
   676   1             12.11505502      16.524032439999999      8.0677882000000007
   677   1      16.241168770000002      16.467725919999999              8.22665018
   678   1             20.19772652      16.528155689999998      8.4745069199999996
   679   1      24.276433560000001             16.20709943      8.1664092400000001
   680   1      28.490263330000001      16.462208050000001      8.0328561100000009
   681   1              2.12875222      19.916735719999998      8.2534856300000001
   682   1      6.1535181799999998      19.941722209999998      8.3805316399999992
   683   1      10.152907300000001      20.038452339999999      8.2776783700000003
   684   1      14.111040089999999      19.877467880000001      8.2787019199999996
   685   1      18.374904359999999      19.849082119999998      7.8804474799999999
   686   1      22.316006179999999      19.962191669999999      8.0935312800000005
   687   1      26.535205609999998      20.024468989999999      8.2542867500000003
   688   1             30.55278204      20.022481429999999      8.2193079000000004
   689   1              0.11277573      23.439996910000001      8.4120482400000007
   690   1      4.1561290499999997      23.564707389999999      8.2124274199999991
   691   1      8.1967687900000001             23.50902804      8.1706516100000002
   692   1      12.405191479999999      23.486697079999999      8.1273152100000008
   693   1      16.242391600000001      23.417986800000001      8.1745880700000004
   694   1      20.298139639999999      23.306628310000001      8.1427537099999991
   695   1      24.502413180000001      23.554795810000002      8.1699126900000003
   696   1             28.56776151             23.59105005      8.2007274199999998
   697   1      2.0017531200000001             27.05147504      8.1955833899999995
   698   1      6.0986204900000001      26.907508249999999      8.1705366399999999
   699   1      10.124969500000001      27.014220170000002      8.2562970500000006
   700   1             14.20035813      27.019326339999999      8.1899052399999999
   701   1      18.365078690000001             27.03061589      8.1578622700000007
   702   1      22.455160100000001      26.974244379999998      8.1398324199999994
   703   1      26.414924840000001      26.871525460000001      8.0843190400000005
   704   1      30.353284649999999      26.989498749999999      8.2422384100000006
   705   1              0.01506619    0.038481969999999997      9.0459940599999999
   706   1      4.1194052699999997   -0.076351489999999994      9.1335799299999998
   707   1      7.7844094200000002              0.19882021      8.8588618700000001
   708   1      12.187211769999999      28.143763719999999      8.9288809800000006
   709   1      16.364422000000001      28.201869819999999      8.9569146400000008
   710   1             20.47004248    -0.20241406000000001      8.9600694399999998
   711   1      24.456877309999999              0.22519263      8.8901147999999992
   712   1               28.287585      28.205378589999999      9.0404086699999997
   713   1              1.92093146      3.4489667100000001      9.0243097500000005
   714   1      6.0708315199999996      3.6159193100000002      8.9618003300000009
   715   1      9.9682116500000006      3.4335669800000002              8.86715068
   716   1      14.289677470000001      3.6052922199999999      8.9534497399999999
   717   1      18.140488359999999      3.6851621099999998      9.0960535500000006
   718   1      22.370916900000001      3.3492267999999998      9.0692104100000002
   719   1             26.56974954              3.42222187      9.1636219400000005
   720   1             30.36011164      3.8222256400000001              9.21579047
   721   1      32.631196559999999      6.9102405200000003      8.9902162600000004
   722   1              3.79634194      6.8092595300000003      8.9286308900000009
   723   1      8.2207709399999995      6.9824162100000002      9.0474073799999992
   724   1             12.16768048      7.3164392300000003      9.0010085800000006
   725   1      16.172528870000001              7.18222074      8.9446372000000007
   726   1      20.362191159999998      7.0886487999999996      8.8264747499999991
   727   1             24.39414919      6.8794585399999999      9.0192109299999998
   728   1      28.386965910000001      6.9262839600000001      9.0431373700000002
   729   1      2.1189452599999998             10.45717965      8.7583110899999994
   730   1      6.1428425899999999             10.54324132      8.9732555099999995
   731   1             10.04827802      10.642999959999999      8.9649120300000007
   732   1             14.21370851             10.42470818      8.9270100200000009
   733   1             18.32761666      10.496600689999999      9.0495989399999992
   734   1             22.42457117      10.387468309999999      8.8230386599999999
   735   1      26.479852050000002             10.67783457      8.9584942999999999
   736   1      30.452044969999999      10.611377879999999      8.9675207300000004
   737   1    0.051671450000000001      14.109548439999999      8.8767615600000003
   738   1      4.0738368300000003      13.975207899999999      8.9278219100000005
   739   1              8.21923447      14.116236580000001      9.1202205099999993
   740   1             12.26864112      14.263026440000001              8.94191614
   741   1             16.04777838      14.071060230000001      9.0793510000000008
   742   1      20.150853399999999      14.082921219999999      8.8182346500000008
   743   1      24.313607090000001             13.87882039      8.8866778800000006
   744   1             28.53637887      14.101925319999999      8.8406238300000002
   745   1      2.1181179700000001      17.736716640000001      9.0941499100000005
   746   1      5.7521751999999999             17.41972419      9.1440200600000008
   747   1      10.086981189999999      17.750788020000002      8.8305222299999997
   748   1             14.10660249             17.50439149      9.0772937099999993
   749   1             18.24985019      17.518299590000002      8.9562907500000009
   750   1             22.36425431             17.58457873      8.9093690999999993
   751   1             26.28676724      17.523241169999999      8.9536117799999992
   752   1             30.46819704             17.62512611      8.9178052700000006
   753   1    0.047098550000000003             21.14704283      9.0068086399999991
   754   1      4.1361832300000003      21.318738230000001      9.1462262299999999
   755   1      8.1381911599999999      21.372198520000001      9.0003996199999996
   756   1      12.155299749999999             21.20503321      9.0251169200000003
   757   1      16.321530419999998             20.97008233      9.0420420000000004
   758   1      20.155256919999999      20.881042520000001      8.9132766300000004
   759   1             24.44224835      21.040947880000001      8.8097480099999999
   760   1             28.67463334             21.21766487      8.7996505500000008
   761   1              2.01770732      24.779931269999999      9.1747252100000001
   762   1      6.0756385799999997      24.595240140000001      9.0232944699999997
   763   1      10.342928540000001             24.55827463      8.8581026600000001
   764   1      14.222881689999999      24.796644090000001      9.0671076999999993
   765   1      18.278399619999998              24.7384907      8.9718191800000007
   766   1             22.35116537      24.428667570000002      8.9008318899999992
   767   1              26.5169912      24.524070420000001      9.0387793300000006
   768   1              30.4589575      24.522019709999999      9.0301995900000005
   769   2      28.431374210000001      3.7566988100000001      9.6366598900000007
   770   2      27.572075380000001      5.1868429000000003      9.4604236799999999
