N2-dn2-coord-10bar/700K/snapshots/frame-144356/run-000/../data.lammps (written by ASE) 

770 	 atoms 
2  atom types
0.0      32.470343392086264  xlo xhi
0.0      28.120142247150884  ylo yhi
0.0      31.213473999158239  zlo zhi


Atoms 

     1   1      2.0293964600000001      1.1716090800000001    0.023552650000000001
     2   1      6.0880008999999999              1.17168918              0.02556874
     3   1      10.146952280000001              1.17170328    0.025416459999999998
     4   1      14.205754900000001      1.1716496700000001              0.02501565
     5   1             18.26456816              1.17166478              0.02504435
     6   1             22.32338141      1.1716496700000001              0.02501565
     7   1      26.382184030000001              1.17170328    0.025416459999999998
     8   1      30.441135410000001              1.17168918              0.02556874
     9   1  9.1780000000000006e-05      4.6866847900000002    0.025581599999999999
    10   1      4.0587011400000002      4.6866847900000002    0.025581599999999999
    11   1      8.1174961000000003      4.6866290399999997    0.025584639999999999
    12   1             12.17638011      4.6866852999999997              0.02491202
    13   1             16.23517979      4.6866942700000003    0.025006210000000001
    14   1      20.293956519999998      4.6866942700000003    0.025006210000000001
    15   1      24.352756209999999      4.6866852999999997              0.02491202
    16   1      28.411640219999999      4.6866290399999997    0.025584639999999999
    17   1      2.0293964600000001      8.2016395800000002    0.026613040000000001
    18   1      6.0881071599999999      8.2016314300000008              0.02543782
    19   1             10.14701835               8.2017045    0.025156850000000001
    20   1      14.205766049999999      8.2017080900000003    0.024990459999999999
    21   1             18.26456816      8.2017077599999997    0.025091249999999999
    22   1      22.323370260000001      8.2017080900000003    0.024990459999999999
    23   1      26.382117969999999               8.2017045    0.025156850000000001
    24   1      30.441029149999999      8.2016314300000008              0.02543782
    25   1  9.2789999999999998e-05             11.71671873    0.025573410000000001
    26   1              4.05870014             11.71671873    0.025573410000000001
    27   1      8.1176017700000003             11.71668698              0.02497914
    28   1             12.17637068             11.71673069    0.025001590000000001
    29   1      16.235177310000001      11.716730249999999    0.025074039999999999
    30   1      20.293959009999998      11.716730249999999    0.025074039999999999
    31   1      24.352765640000001             11.71673069    0.025001590000000001
    32   1      28.411534549999999             11.71668698              0.02497914
    33   1      2.0293964600000001             15.23167155              0.02525285
    34   1      6.0881728300000004      15.231678799999999    0.025062859999999999
    35   1             10.14698486      15.231762639999999               0.0250786
    36   1             14.20578841             15.23176782    0.025201990000000001
    37   1             18.26456816              15.2317707    0.025149979999999999
    38   1      22.323347900000002             15.23176782    0.025201990000000001
    39   1      26.382151459999999      15.231762639999999               0.0250786
    40   1      30.440963480000001      15.231678799999999    0.025062859999999999
    41   1      32.470327990000001      18.746748629999999    0.024951939999999999
    42   1      4.0588083299999997      18.746748629999999    0.024951939999999999
    43   1      8.1175770200000006      18.746803499999999    0.025222040000000001
    44   1             12.17637459      18.746799750000001    0.025428470000000002
    45   1      16.235159400000001      18.746805200000001    0.025487360000000001
    46   1      20.293976919999999      18.746805200000001    0.025487360000000001
    47   1      24.352761730000001      18.746799750000001    0.025428470000000002
    48   1             28.41155929      18.746803499999999    0.025222040000000001
    49   1      2.0293964600000001      22.261939099999999    0.025844880000000001
    50   1      6.0881419299999999      22.261841799999999    0.025489439999999999
    51   1             10.14692954             22.26176895              0.02551757
    52   1             14.20573559      22.261804690000002    0.025639160000000001
    53   1             18.26456816             22.26178625    0.025640119999999999
    54   1      22.323400729999999      22.261804690000002    0.025639160000000001
    55   1      26.382206780000001             22.26176895              0.02551757
    56   1             30.44099439      22.261841799999999    0.025489439999999999
    57   1  5.6450000000000003e-05      25.776936450000001              0.02613327
    58   1      4.0587364700000004      25.776936450000001              0.02613327
    59   1      8.1175325399999991              25.7767713    0.024734180000000001
    60   1      12.176376469999999      25.776831090000002              0.02545323
    61   1      16.235145939999999      25.776775220000001    0.025273360000000002
    62   1             20.29399038      25.776775220000001    0.025273360000000002
    63   1      24.352759840000001      25.776831090000002              0.02545323
    64   1      28.411603769999999              25.7767713    0.024734180000000001
    65   1  0.00024266000000000001              2.34304215     0.80166565000000001
    66   1      4.0585502699999996              2.34304215     0.80166565000000001
    67   1      8.1157394600000003              2.34454954     0.80169402000000001
    68   1             12.17601256      2.3433829099999999     0.80116898000000003
    69   1      16.235258170000002      2.3433209100000001     0.80090046999999998
    70   1      20.293878150000001      2.3433209100000001     0.80090046999999998
    71   1      24.353123750000002      2.3433829099999999     0.80116898000000003
    72   1      28.413396859999999              2.34454954     0.80169402000000001
    73   1      2.0293964600000001      5.8582218700000004     0.80119762000000005
    74   1      6.0870566899999998      5.8583336700000004              0.80194851
    75   1             10.14649655              5.85853131     0.80121584000000001
    76   1             14.20597894      5.8582938599999999     0.80086840999999998
    77   1             18.26456816      5.8583798500000004               0.8010794
    78   1      22.323157380000001      5.8582938599999999     0.80086840999999998
    79   1             26.38263976              5.85853131     0.80121584000000001
    80   1      30.442079629999999      5.8583336700000004              0.80194851
    81   1  0.00019438999999999999      9.3717771800000005     0.80082061000000004
    82   1      4.0585985400000002      9.3717771800000005     0.80082061000000004
    83   1      8.1175070500000004      9.3725002699999997     0.80149060999999999
    84   1      12.176590020000001      9.3733583399999993     0.80088261999999999
    85   1             16.23512199      9.3733789200000004              0.80106506
    86   1             20.29401433      9.3733789200000004              0.80106506
    87   1      24.352546289999999      9.3733583399999993     0.80088261999999999
    88   1      28.411629269999999      9.3725002699999997     0.80149060999999999
    89   1      2.0293964600000001             12.88692854     0.80220621000000003
    90   1      6.0883212999999996             12.88743848     0.80138414999999996
    91   1      10.147128609999999             12.88859852     0.80085256000000005
    92   1             14.20571782      12.888558189999999     0.80113791000000001
    93   1             18.26456816      12.888409899999999     0.80109381000000002
    94   1      22.323418490000002      12.888558189999999     0.80113791000000001
    95   1             26.38200771             12.88859852     0.80085256000000005
    96   1      30.440815019999999             12.88743848     0.80138414999999996
    97   1              0.00012365      16.403222639999999     0.80145666999999998
    98   1      4.0586692700000002      16.403222639999999     0.80145666999999998
    99   1      8.1174337899999998      16.403825260000001     0.80097196999999998
   100   1              12.1761021             16.40390721     0.80133072000000005
   101   1             16.23503496      16.403861750000001     0.80140014999999998
   102   1      20.294101359999999      16.403861750000001     0.80140014999999998
   103   1      24.353034220000001             16.40390721     0.80133072000000005
   104   1      28.411702529999999      16.403825260000001     0.80097196999999998
   105   1      2.0293964600000001      19.919205120000001     0.80066369999999998
   106   1              6.08752564             19.91894023     0.80122479000000002
   107   1      10.146078839999999             19.91919038     0.80159137999999996
   108   1      14.204993419999999              19.9192584     0.80178742000000003
   109   1             18.26456816      19.919377350000001     0.80194975999999996
   110   1      22.324142899999998              19.9192584     0.80178742000000003
   111   1      26.383057470000001             19.91919038     0.80159137999999996
   112   1      30.441610669999999             19.91894023     0.80122479000000002
   113   1              0.00142012      23.434536609999999     0.80178442000000005
   114   1      4.0573728100000004      23.434536609999999     0.80178442000000005
   115   1      8.1165862000000004      23.433936769999999     0.80182306000000003
   116   1             12.17555218      23.433996919999998     0.80156656000000004
   117   1             16.23465491      23.434040110000002     0.80170828999999999
   118   1      20.294481409999999      23.434040110000002     0.80170828999999999
   119   1      24.353584130000002      23.433996919999998     0.80156656000000004
   120   1      28.412550110000002      23.433936769999999     0.80182306000000003
   121   1      2.0293964600000001      26.949875330000001              0.80297246
   122   1      6.0858208300000003      26.950066320000001              0.80215291
   123   1             10.14598146      26.949241430000001     0.80165810000000004
   124   1             14.20520604      26.948673230000001     0.80131923999999999
   125   1             18.26456816             26.94858318     0.80108193999999999
   126   1      22.323930279999999      26.948673230000001     0.80131923999999999
   127   1      26.383154860000001      26.949241430000001     0.80165810000000004
   128   1             30.44331549      26.950066320000001              0.80215291
   129   1              0.11294919              28.1685768              1.57291341
   130   1               3.9843009      28.085983980000002      1.2595873799999999
   131   1      8.1121437499999995              0.02674692      1.4074857000000001
   132   1      12.080184170000001      28.162996769999999      1.6865713200000001
   133   1      16.065715359999999    0.077790010000000007      1.4407731699999999
   134   1             20.23399968              0.11258007              1.62763167
   135   1             24.26448924              0.02922901              1.57585595
   136   1      28.569040619999999      28.069668029999999      1.4934185799999999
   137   1      2.0016584599999998      3.5410855899999998              1.56781342
   138   1      6.0982795599999999      3.4558399899999999              1.60008332
   139   1             10.11672446      3.5323915700000001      1.3242261500000001
   140   1             14.21416473      3.5056718600000001      1.4073060100000001
   141   1      18.187192039999999      3.4154955199999999      1.4754866799999999
   142   1      22.470465650000001              3.59507172              1.21018728
   143   1      26.450836160000001      3.5324454900000002               1.4006763
   144   1      30.551066769999998      3.4876264300000002              1.28308098
   145   1   -0.053093000000000001      6.9332241300000002      1.6328409100000001
   146   1      3.9606629099999999      7.0937954699999999              1.54292176
   147   1      8.2471656600000003      6.9507545799999999      1.3792795200000001
   148   1             12.36979223      7.0141121200000001              1.54629441
   149   1      16.315853400000002      6.9560193100000003               1.3404744
   150   1      20.349107180000001      6.9180662899999996      1.5644993300000001
   151   1      24.436314509999999      7.0665330600000003               1.4816303
   152   1      28.552986740000001      6.8666711500000002      1.4940993199999999
   153   1              2.10157412             10.47035925              1.38777789
   154   1      6.0208098300000001             10.58153169              1.58711771
   155   1      10.222075439999999      10.554494010000001              1.49399481
   156   1      14.405966599999999               10.431682      1.4744138499999999
   157   1      18.256942550000002             10.59899497      1.5896566299999999
   158   1      22.335019899999999             10.49570362              1.79447812
   159   1             26.48633139      10.632883789999999      1.3979479699999999
   160   1      30.543387429999999      10.642431370000001      1.5099568000000001
   161   1    0.037946929999999997             14.12884421      1.5693950000000001
   162   1      4.1377686999999996              14.1382349      1.6774782500000001
   163   1      8.0705617000000007             14.03476938              1.62157957
   164   1             12.20521497      14.144127879999999      1.4544228400000001
   165   1      16.309118940000001      14.180311189999999              1.64911501
   166   1             20.48336845             14.01438143              1.48767048
   167   1      24.450931860000001      14.094291630000001      1.4660985900000001
   168   1             28.52140284             14.04995128               1.2238586
   169   1      2.0575062599999998      17.558480490000001      1.3927825700000001
   170   1      6.0236869300000002      17.544687150000001              1.38017247
   171   1             10.15647017             17.48719389              1.24990578
   172   1      14.225473470000001      17.568891300000001              1.45454722
   173   1              18.3512752      17.536441960000001              1.63598124
   174   1      22.258954580000001      17.507502049999999      1.3746532499999999
   175   1             26.51299779      17.563159049999999      1.5093331699999999
   176   1      30.435758100000001             17.66632289      1.5972897100000001
   177   1    0.038322589999999997      21.095561379999999               1.6596012
   178   1      4.0173085000000004      21.153997180000001      1.4164361299999999
   179   1      7.9965608499999998             20.97720808      1.4268677599999999
   180   1      12.152773099999999             20.99238858      1.6694389599999999
   181   1      16.283042649999999      20.974337779999999              1.45372006
   182   1      20.260596100000001      21.175504969999999      1.5540100800000001
   183   1      24.488908550000001             21.16164903      1.5314124200000001
   184   1              28.3448566      21.160753620000001      1.2429373399999999
   185   1      2.0317208600000001      24.546751759999999      1.4898353200000001
   186   1      6.0501725200000003      24.721183369999999               1.4550265
   187   1             10.12376139      24.732769820000001      1.5379652100000001
   188   1             14.26923124      24.583609299999999      1.4951685400000001
   189   1      18.138138009999999      24.637324410000002              1.39557939
   190   1      22.383296550000001      24.560329070000002              1.41382316
   191   1      26.409872020000002      24.627295010000001              1.32403687
   192   1             30.48732858             24.49345911              1.34134741
   193   1      2.1433934200000002      1.3798525699999999               2.3404387
   194   1      5.8552017999999997      1.1536303299999999              2.29629606
   195   1             10.00734967              1.12321603              2.43144757
   196   1             14.18430919      1.1456863799999999      2.4942512099999998
   197   1             18.10331854      1.1766233699999999              2.52010143
   198   1             22.39167041              1.14117373      2.4517945999999999
   199   1      26.412031339999999              1.12410948      2.5522823300000002
   200   1      30.311506059999999              1.10351032              2.41525539
   201   1    0.037263270000000001              4.68592239      2.5893667100000002
   202   1      3.9007873399999999      4.6822115699999998      2.3837817399999999
   203   1      8.1351870900000005      4.8032273200000004      2.3608960699999999
   204   1      12.227634950000001      4.5563960100000003      2.3219934699999998
   205   1      16.061290320000001      4.7690405199999999      2.4727231600000001
   206   1      20.407302789999999      4.6546316699999997      2.5346891899999999
   207   1      24.240014370000001      4.5367261799999996      2.3036232999999999
   208   1      28.444144080000001              4.41577384      2.3221492700000002
   209   1      2.0527357300000002      8.3305562399999999              2.42093917
   210   1      6.1387603300000002      8.2001412499999997               2.4048224
   211   1      10.261295560000001      8.1037890299999997      2.4729495400000001
   212   1      14.127369160000001      8.1672221199999999      2.5011824499999999
   213   1      18.398675659999999      8.2505103700000006      2.5646035600000001
   214   1      22.324267670000001      8.2748316299999995      2.3691155099999999
   215   1      26.509752779999999              8.28519045      2.3698018099999998
   216   1      30.434372379999999      8.3415127800000004      2.4994896099999999
   217   1     0.21674402000000001             11.63884315              2.43733311
   218   1              4.17040583      11.745853439999999      2.4714835900000001
   219   1      8.2245988299999997      11.907716840000001      2.4542108100000002
   220   1      12.262263170000001      11.655423130000001              2.38843234
   221   1      16.264287549999999      11.725885310000001      2.4168927500000001
   222   1      20.452327059999998             11.71564339      2.4127614199999998
   223   1             24.62801357      11.556731689999999      2.4057430399999999
   224   1      28.471665009999999             11.68859003              2.35139787
   225   1      2.1123537200000002      15.192224639999999      2.3801031799999999
   226   1      6.1494273499999998             15.23927016      2.3283146600000002
   227   1             10.15936535      15.352117529999999      2.4963014399999999
   228   1             14.23203346      15.295671520000001      2.4858835300000002
   229   1      18.327540750000001      15.314095460000001      2.5437135799999999
   230   1              22.3774427             15.12494686      2.2853946500000002
   231   1      26.330709909999999             15.23357944              2.39911107
   232   1      30.595345630000001             15.17213435      2.4267952500000001
   233   1             -0.01225858      18.802151349999999      2.5575312299999999
   234   1      4.0812440199999998             18.80739084              2.35959707
   235   1      8.1316889799999998      18.738012049999998      2.4574882900000001
   236   1             11.98163654             18.73160377      2.5354401599999998
   237   1      16.238214500000002      18.811156499999999      2.3859765099999999
   238   1      20.320402980000001      18.709710269999999      2.4875619100000002
   239   1      24.613253369999999      18.754131539999999      2.4668707900000002
   240   1      28.432285490000002      18.911619930000001      2.3849434299999999
   241   1      2.1674369800000002      22.263589419999999              2.28386903
   242   1      6.0685997800000004      22.350067280000001      2.3079692600000001
   243   1      10.037914239999999      22.173070540000001              2.59125446
   244   1             14.18024945      22.225895390000002      2.5897145500000001
   245   1      18.195328530000001      22.230705889999999      2.4301118800000001
   246   1      22.386992710000001      22.104197880000001              2.40223342
   247   1             26.29876359      22.323492330000001      2.4917617999999999
   248   1             30.42661421             22.27483604      2.4501920400000001
   249   1    0.028270739999999999      25.901558269999999      2.4626853099999999
   250   1      3.9602278499999999      25.816403059999999              2.50272608
   251   1      8.0772093199999997      25.864762500000001      2.4524721999999999
   252   1      12.202451890000001      25.762681229999998      2.5373989799999999
   253   1      16.322307779999999             25.85268246      2.2977379600000001
   254   1             20.27822243             25.86630194      2.3381950599999999
   255   1      24.369326569999998      25.805234389999999      2.3531580000000001
   256   1      28.412355779999999      25.754081289999998      2.3355495099999999
   257   1             -0.04231994      2.3787261599999998              3.34899141
   258   1      4.0017616299999998      2.4096915399999999      3.2818841700000001
   259   1      7.9849960400000004              2.51619802      3.2119214999999999
   260   1             12.10947021      2.3931658100000002              3.23087832
   261   1             16.27689406      2.2688842899999999      3.2174858400000002
   262   1      20.392310349999999      2.3739334900000002      3.2853490700000001
   263   1      24.322531399999999      2.2658615800000002      3.2912897600000002
   264   1      28.501471720000001      2.2371586200000002              3.27876535
   265   1      2.0544994399999998      5.9413075500000003      3.4326325500000001
   266   1      5.9717122399999996      5.7000464199999996      3.1563858100000002
   267   1             10.18606846      5.7906807000000002      3.2111457200000002
   268   1             14.10848743      5.7557296999999998      3.2648750899999999
   269   1      18.266122240000001      5.8103805900000003      3.3777433299999999
   270   1      22.274685989999998              5.83703854      3.4667393999999998
   271   1             26.42674877      5.9288879200000002              3.17055065
   272   1      30.547280300000001      5.8288003799999997      3.3828609100000002
   273   1      32.485504050000003      9.2848776599999994              3.50232754
   274   1              4.12761917      9.2190741500000009               3.3052047
   275   1      8.1098687500000004      9.4194561500000002      3.2066789500000001
   276   1      12.361688239999999      9.4416747999999995      3.3464742099999998
   277   1      16.318936740000002      9.2967242500000005      3.3328682199999999
   278   1      20.288516260000002      9.5338138099999998      3.3111964899999999
   279   1             24.38056224      9.2389401699999993      3.0722779600000001
   280   1             28.34802307      9.4925739999999994              3.29249393
   281   1      1.9489983799999999             12.75676659      3.1539329600000001
   282   1      6.1318100800000002              13.0482742              3.23461014
   283   1      10.285692940000001      12.946158390000001      3.2884882000000002
   284   1      14.163239559999999             12.93222856      3.3262263600000002
   285   1      18.360673340000002                12.79604      3.2151066899999998
   286   1      22.644843900000001      12.739261559999999      3.3494357699999999
   287   1      26.634428060000001              12.9616852      3.2097746300000001
   288   1      30.488708880000001             12.75316128      3.1886016700000002
   289   1    0.012409180000000001             16.38236616      3.2181369499999999
   290   1      4.0040503100000002              16.5538904      3.2963968299999999
   291   1      8.0906438600000001              16.4962637      3.2330060999999999
   292   1      12.139597999999999      16.278537530000001      3.2968706600000002
   293   1      16.056302809999998             16.32626771      3.4036467899999998
   294   1      20.312213839999998      16.399057809999999      3.1525185800000002
   295   1      24.515376499999999             16.61531995      3.3063562100000001
   296   1      28.467402150000002             16.43942547      3.2973283800000002
   297   1      2.1671784399999998      20.024187120000001      3.2071636899999998
   298   1      6.1588348100000001      19.928234440000001      3.0536308399999998
   299   1      10.000506740000001             19.94178956              3.16829743
   300   1             14.15660057      19.913296420000002      3.4008718899999999
   301   1             18.43230904      19.974653660000001              3.30177816
   302   1              22.6451888      19.802734319999999      3.4040870499999998
   303   1      26.414601229999999              19.8828508      3.2843688800000002
   304   1      30.550325919999999      19.916380459999999              3.37864926
   305   1      32.472892109999997      23.264773219999999              3.32152921
   306   1      3.9815196799999999      23.400820110000002              3.36149283
   307   1      8.0418666099999996      23.368751790000001              3.20375158
   308   1      12.171015969999999      23.420209809999999      3.4240419100000001
   309   1             16.37915258      23.489501140000002      3.1443043799999999
   310   1      20.444276689999999      23.514527309999998              3.25046094
   311   1      24.305015560000001             23.53183142      3.1349278799999998
   312   1      28.308938439999999      23.412560460000002              3.17415007
   313   1      2.2400892200000002      27.183452160000002              3.28563765
   314   1      6.0880849499999998             26.98520663      3.2854142500000001
   315   1             10.21843247             26.82050744              3.31410633
   316   1      14.173647239999999             26.89674574              3.34221148
   317   1      18.144687690000001      26.927314320000001      3.3143811900000002
   318   1             22.35236407      27.058939800000001      3.2456776299999999
   319   1      26.339072510000001      26.894537969999998      3.2253535200000001
   320   1      30.335907689999999      26.802303689999999               3.2363822
   321   1 -7.7299999999999995e-05  -0.0025061300000000001      4.3535494000000003
   322   1      4.0436313999999998    0.025286880000000001              3.98284875
   323   1      8.0005034100000003     0.12110957999999999      4.0348197399999997
   324   1      12.205086980000001     0.16349867000000001      4.0696354399999999
   325   1      16.124931400000001               0.1263136              4.09604648
   326   1      20.456050900000001    0.023359350000000001      4.1717635299999998
   327   1      24.256975539999999             28.00817468      4.1348503900000004
   328   1      28.222528459999999   -0.063098979999999999      4.1488023900000002
   329   1              1.93574958      3.5059085799999998      4.0397924999999999
   330   1      6.0497058499999996      3.5977211900000001              4.11611875
   331   1             10.01678916      3.5934019500000001      3.9883809499999998
   332   1             14.16348887              3.47137042      4.1446125699999996
   333   1             18.24652687      3.5184908799999999      4.3051093299999996
   334   1      22.231625940000001      3.3428350999999998      4.0506552600000001
   335   1      26.385400529999998      3.6038433099999998      4.1224317399999997
   336   1      30.434358799999998      3.4590652500000001      3.8802103699999999
   337   1   -0.039918040000000002      7.1581549500000001      4.2644476999999998
   338   1      4.2647119900000003      6.9916257499999999      4.2462027000000004
   339   1      8.1623408899999994      7.0159721900000003              3.93744082
   340   1             12.15249043               7.0289728      4.1284649800000004
   341   1             15.97863926      6.8892602399999996      4.1928747700000004
   342   1      20.332779710000001      7.2150101800000002      4.2525783800000001
   343   1      24.285197199999999      7.0029772599999998      3.8873397500000002
   344   1             28.67996467      7.1412620000000002      4.0852095000000004
   345   1      2.4116478799999999      10.658150689999999      4.0585041200000003
   346   1      6.2823132800000003      10.798189000000001      3.9959798000000002
   347   1      10.160284389999999      10.542728520000001      3.9777336600000002
   348   1      14.267567319999999             10.51302866      4.2533759399999997
   349   1             18.17197122             10.58484924      4.1256438800000002
   350   1      22.504129129999999             10.45008533      4.2551104400000002
   351   1      26.461669069999999      10.622745739999999      3.9115342900000001
   352   1             30.55504526             10.59999129      4.0844866599999996
   353   1     0.12269538000000001              13.8243463      4.1634556199999997
   354   1      4.1069756100000001      14.179169460000001      4.1129181800000003
   355   1      8.2202670399999995      14.007669910000001      4.1882793300000003
   356   1      12.029952740000001      13.891822579999999      4.1241997599999998
   357   1      16.196201840000001      13.984198729999999      4.1538186599999998
   358   1      20.292252399999999             13.97463319      4.2543129999999998
   359   1      24.442850499999999              14.1894095      4.1352267700000001
   360   1      28.269605120000001             14.06104071      3.9769171800000001
   361   1      1.9205153100000001      17.684293230000002      4.0955613099999999
   362   1      6.0716501799999998      17.576438549999999      4.1498027999999998
   363   1             10.23140633             17.54343605      4.1634561799999998
   364   1             14.09793687      17.611995820000001      4.0145286499999999
   365   1      18.084592489999999      17.588914920000001              4.14480044
   366   1      22.379545440000001      17.267159639999999      4.0575924399999996
   367   1             26.47269416      17.599226850000001              4.21934348
   368   1      30.396472540000001      17.685250620000001      3.9144699599999999
   369   1               0.1352479      20.984915359999999      4.1019977399999998
   370   1      4.0663643799999996      21.053199759999998      4.0491581200000004
   371   1      7.9921887299999996      21.046523260000001      4.0896082399999996
   372   1             12.35913693      20.924930140000001      4.2413573299999996
   373   1      16.229731009999998      21.175709789999999      3.7702634499999998
   374   1      20.346429279999999      21.089472019999999              4.03473273
   375   1              24.4855786             21.22524026      4.1094167500000003
   376   1      28.488838489999999      21.103439550000001      3.9326955099999998
   377   1      1.9666676000000001             24.64182417      4.1095694299999996
   378   1      6.1776160000000004      24.491950790000001      4.0859476700000004
   379   1      10.104244400000001      24.619307429999999      4.3920138599999996
   380   1      14.134475139999999             24.69755335      4.0666445700000002
   381   1      18.362712770000002      24.609920859999999      4.1487418900000002
   382   1      22.492597329999999      24.529256060000002      4.1479637199999999
   383   1      26.375397450000001             24.58555265      4.1691036600000002
   384   1             30.47095715      24.437658809999999      4.2152322299999998
   385   1      2.0544881400000001      1.2957158600000001      5.1444277200000004
   386   1      6.0082614400000001              1.32056628      4.8445562000000004
   387   1             10.00833237      1.0899205000000001      5.0057823099999998
   388   1      14.079864479999999     0.99911687000000005      4.9724876900000003
   389   1      18.079233349999999              1.20143351      5.0517124500000001
   390   1             22.42630187      1.0731982900000001      5.1100122399999997
   391   1      26.498764739999999      1.1667220700000001      5.2531994800000001
   392   1      30.569215079999999              1.18723534      4.8766294099999996
   393   1      32.095671070000002              4.80329418      4.9968151799999996
   394   1              4.10119773              4.72284931      5.2547596900000002
   395   1      8.0979490700000003      4.7040021799999998      4.8205866000000004
   396   1      12.353770109999999      4.5762916100000002      4.8531082699999999
   397   1                  15.988      4.5380841800000002              5.05480719
   398   1             20.25570596              4.74050437      5.0502246399999997
   399   1             24.29345073      4.6493500699999997      4.8358404000000004
   400   1             28.47847471      4.7441982500000002      4.7644648900000002
   401   1      2.1287937600000002      8.2145119599999994      4.9811663800000003
   402   1      6.2042615100000003      8.1987707400000005              4.93218859
   403   1      10.263611360000001      8.2498563300000001              5.09586044
   404   1      14.078180769999999      8.1954312500000004      5.0044169299999997
   405   1             18.34977426      8.1725276099999995      5.1608330499999999
   406   1      22.485229870000001      8.2619590800000005      5.0805545299999997
   407   1             26.41658331      8.3617469900000003      4.7803135299999999
   408   1      30.410035359999998      8.2585087700000006      5.0465252600000001
   409   1     0.16279002000000001      11.641993960000001      4.9865012399999999
   410   1      4.3206980799999997      11.720666769999999      5.1151087200000003
   411   1      8.2693214400000006             11.67785301      5.0020809799999997
   412   1             12.27274907      11.653994490000001      4.9813034900000002
   413   1      16.131585309999998      11.629009760000001      4.8686746100000002
   414   1      20.200991179999999             11.58075633              4.94322645
   415   1             24.46941932             11.88553692      4.8532317599999999
   416   1      28.317418109999998             11.78081673      5.0352927999999997
   417   1              2.20465994             15.37455976      4.7023155900000004
   418   1      6.0565342900000001             15.22252565      4.9186357999999997
   419   1             10.07886566             15.30250032      4.9321756800000003
   420   1      13.992962459999999             15.16358587      5.0958940500000001
   421   1      18.151119779999998             15.28314247      4.9399468999999998
   422   1      22.388557200000001      15.093340660000001              5.11681834
   423   1      26.480712619999998      15.263983550000001      4.9881341600000004
   424   1      30.466452270000001             15.02812125      4.8339429000000003
   425   1               0.0014769      18.745037050000001      4.9195436800000003
   426   1      3.9454487299999998             18.71453026      4.8971386900000002
   427   1      8.2040748600000004      18.887210469999999               5.2086641
   428   1      12.245829430000001      18.725231470000001      4.9723910900000003
   429   1              16.2097108              18.9747415      4.8841218900000003
   430   1      20.415784299999999             18.80407508      4.9500042300000002
   431   1      24.298572679999999      18.793232669999998      5.0615119000000002
   432   1             28.36403563      18.762836020000002      4.8866399200000004
   433   1      2.1327356200000001      22.284556129999999      4.8310748300000004
   434   1      6.1707477099999997             22.06092044      4.9221874699999999
   435   1             10.07261594      22.133318150000001      4.9572737299999998
   436   1              14.2548035             22.38450782      4.9743240499999999
   437   1      18.239550210000001      22.248033230000001      4.8344484200000002
   438   1             22.33058475      22.278805250000001      4.9423739700000002
   439   1             26.48390216      22.257462029999999      5.2561310499999996
   440   1             30.44041863      22.295286239999999      4.9434538400000001
   441   1    0.058221170000000003      25.720306300000001      4.9765263800000001
   442   1      4.0750363500000004      25.677865229999998      4.8764524800000002
   443   1      8.0007295299999992              25.8940877      4.8207535799999999
   444   1             11.97559014             25.77726221      4.8598007000000001
   445   1             16.09866341      25.901714330000001              4.83014235
   446   1      20.478308760000001      25.637132059999999      5.0103054900000004
   447   1      24.312625010000001      25.809124000000001      4.9541671799999998
   448   1      28.529964209999999      26.018106830000001      4.9175270500000003
   449   1             32.53218631      2.2375558199999999      5.9464565499999997
   450   1              3.99863093      2.3119774799999999      5.8679543699999996
   451   1      8.2230298499999996      2.5060837199999999      5.6323046400000001
   452   1             12.21578497      2.1647356100000001      5.6688651099999996
   453   1             16.13348508              2.37287728      6.0192623000000003
   454   1      20.244893050000002      2.2163783399999999      5.8344300599999999
   455   1             24.48067356      2.5704109700000002      5.6977186599999996
   456   1      28.415321290000001              2.47000559      5.7325155099999998
   457   1              1.90947584      5.8093086600000001      5.8729024799999996
   458   1      6.1589396699999996      5.9900290800000002      5.6906319500000002
   459   1      10.140899599999999      5.7062675599999997      5.7079169199999997
   460   1             14.08915799      5.8812673799999997      5.7832692300000001
   461   1              18.2220698      5.8118697299999997      5.8663416100000001
   462   1      22.253421800000002      6.0054495499999998      5.9926570300000002
   463   1             26.50368177      6.1184280400000004      5.5954787899999996
   464   1      30.229117890000001      5.9333338600000003                6.044136
   465   1      32.425907940000002      9.4085894499999991              5.81333331
   466   1      4.0905759499999998      9.3049656200000008      5.9592516299999998
   467   1      8.0783438200000006      9.4360674899999992      5.7052369399999998
   468   1             12.24747803      9.3524545999999997      5.8321699499999999
   469   1             16.14317016      9.3544422199999993      5.8802791599999997
   470   1      20.277854489999999      9.4423809999999992              5.79461169
   471   1      24.299903329999999      9.3899566399999994      5.6067835199999996
   472   1      28.347317440000001      9.4867175400000008      5.7684802199999998
   473   1      2.1867517699999999             12.98064866      5.5764042700000003
   474   1      6.3207357599999998      12.819420969999999      5.7022220399999997
   475   1      10.406170080000001              12.8128817      5.7860159700000002
   476   1      14.128310949999999             12.89984039              5.80631992
   477   1      18.103748800000002             12.84075256      5.5581467699999996
   478   1      22.138132379999998             12.87291155      5.7607204699999999
   479   1      26.475984789999998      12.923658530000001              5.81515965
   480   1      30.494439509999999             12.77973297      5.7496375200000003
   481   1      32.412466549999998             16.29791973      5.7410692000000001
   482   1      4.0612980199999997      16.484285710000002      5.8220153699999999
   483   1      8.0778648799999999      16.383546880000001      5.7622812999999997
   484   1      12.141251309999999      16.470147279999999      5.9415463900000001
   485   1      16.122394459999999      16.568334180000001              5.75562957
   486   1             20.36491972              16.5229809      5.7987299600000002
   487   1      24.309765039999998              16.5370448      5.8584289800000002
   488   1      28.443723460000001      16.302330900000001      5.8610398899999998
   489   1               1.9201025      19.968889709999999      5.7815193999999996
   490   1      5.9228637300000004      19.820762040000002      5.7627267499999997
   491   1             10.08841282      19.862989750000001      5.6754167200000003
   492   1      14.217247410000001      19.943446340000001              5.87730788
   493   1      18.198208229999999      19.959457520000001      5.7692251399999996
   494   1      22.441440480000001              20.0697759      5.9338308800000004
   495   1      26.284839399999999      19.849589389999998      5.9064725200000003
   496   1      30.436388640000001      19.787900669999999      5.9677856599999997
   497   1      32.532471289999997      23.455088199999999      5.8887283100000003
   498   1      4.1688665800000004             23.28235106      6.1729664099999999
   499   1      8.0799550700000005             23.40307718      5.6876343900000004
   500   1             11.90820074      23.511725680000001      5.8712820199999998
   501   1      16.367809439999998              23.4640114      5.6950197200000003
   502   1      20.342274580000002             23.38773612      5.8702027299999999
   503   1      24.419307549999999      23.346557820000001              5.77682992
   504   1             28.41438612             23.48291571      5.7732867299999997
   505   1      2.0622812800000001      27.036202410000001      5.8552622000000003
   506   1      6.2329255000000003      27.109865500000002      5.7847083699999997
   507   1      10.087056179999999             26.93478524      5.9981701000000003
   508   1             14.02670831             26.84037786      5.8142297200000002
   509   1             18.12466109      26.765423179999999              5.74837927
   510   1      22.218058689999999      26.925779550000001      5.7787594999999996
   511   1             26.33703173             27.01279066              5.72476319
   512   1      30.479022870000001      26.834074480000002      5.8705714200000001
   513   1               0.1781219             28.09541587      6.7652995200000001
   514   1      4.0460786799999999    0.093988660000000002      6.7147756899999997
   515   1      8.0119708200000002              0.19923152      6.6769459500000004
   516   1             12.04596907      27.958864200000001      6.6153582100000001
   517   1      16.045744299999999      28.046919450000001      6.7738416499999996
   518   1      20.056660910000002      28.142914090000001      6.5329501199999997
   519   1      24.331777769999999              0.20302296      6.5429840600000002
   520   1             28.44500489     0.13456375000000001              6.68179795
   521   1      2.0075458899999998      3.5771581000000001      6.7254795200000004
   522   1      6.0377238799999997      3.4628496700000002      6.5589671200000002
   523   1      10.263132880000001      3.4294431799999998      6.4112604199999996
   524   1             14.20041076      3.5641430500000002      6.7562776800000002
   525   1      18.144531229999998      3.4803410399999999      6.7045672100000004
   526   1      22.278199310000002      3.4546445499999998      6.5809486100000001
   527   1      26.411262399999998      3.8410389999999999      6.4394310499999996
   528   1      30.454283950000001      3.4391930199999998      6.5466838999999997
   529   1  -0.0075146700000000002      7.1028034099999999      6.6947878999999997
   530   1      3.9754127100000001      7.0942155099999997      6.6505997700000004
   531   1      8.2005748999999994      7.0161809899999996      6.4416793500000002
   532   1      12.092849559999999      6.9468669299999997      6.7103135700000003
   533   1      16.068405340000002      7.0093438700000004      6.6628018500000001
   534   1      20.356960440000002      7.0792011600000002      6.7675160600000002
   535   1      24.408354639999999      7.1824724099999999              6.51523436
   536   1      28.222189140000001      7.2478016099999998              6.53399135
   537   1      2.0586551200000001             10.60399372      6.6465182900000004
   538   1      6.2243846700000001             10.59669873      6.5273745999999999
   539   1      10.041693820000001             10.60946955      6.6465578499999998
   540   1      14.231957270000001             10.45062429      6.6257696299999997
   541   1      18.027712180000002             10.62348824      6.7105759899999997
   542   1      22.570603349999999             10.45849602      6.7880576899999996
   543   1             26.07815948      10.623494539999999      6.5997800700000004
   544   1             30.49819377      10.467536150000001      6.6190188499999998
   545   1              0.24669657      13.980323479999999      6.5580469199999998
   546   1      4.0528907299999997             14.10605984      6.5917904800000002
   547   1      8.2025351700000009      14.024973920000001      6.6993264699999999
   548   1      12.297330390000001      14.240527630000001      6.6748296500000004
   549   1             16.07576474             13.99558229      6.9719069100000004
   550   1      20.211285910000001      14.182157979999999      6.5160973499999999
   551   1             24.34012448      14.078403639999999      6.6279058600000003
   552   1      28.558281409999999             14.19830589      6.7993871400000003
   553   1              1.93313522      17.481423020000001      6.6110514199999999
   554   1      5.9770758600000002      17.434041910000001      6.4999403400000002
   555   1              10.2052596             17.68684184      6.6243970399999998
   556   1      14.058974920000001      17.692306259999999      6.7627125399999999
   557   1      18.184491380000001      17.598291979999999      6.4379162900000004
   558   1      22.379517459999999      17.588324620000002      6.6028269000000002
   559   1      26.411805739999998      17.455308169999999      6.6181200699999998
   560   1      30.661597369999999      17.602880249999998      6.7625692099999997
   561   1              0.24926414             20.99233753      6.7697271600000004
   562   1      4.1020353299999996      20.839084570000001              6.71614252
   563   1      8.1410114900000004      20.979568440000001      6.5114284199999997
   564   1      12.153993010000001      21.148266700000001      6.8479367199999999
   565   1      16.091152220000001             21.21147964      6.5928532799999999
   566   1      20.363221450000001      21.141120000000001              6.74219072
   567   1      24.491608339999999      21.150708470000001      6.7344571799999997
   568   1             28.32259732      21.151145240000002      6.7426083800000001
   569   1      2.0397612299999999      24.804607919999999      6.4778930299999997
   570   1      6.1745892700000002             24.46389538      6.6660010300000003
   571   1      9.9611459799999995             24.52048362      6.9514344299999999
   572   1      14.101225639999999      24.629496060000001      6.6310889099999999
   573   1             18.30544751              24.5503851      6.7184794600000002
   574   1      22.397889670000001      24.564109259999999      6.7268804700000002
   575   1      26.647825829999999      24.765795310000001      6.6579206199999996
   576   1      30.646715530000002      24.422282079999999      6.9484849899999999
   577   1      1.8614825100000001      1.3026044400000001              7.65106354
   578   1      6.1558801599999997              1.38509295      7.5827941000000001
   579   1             10.13176312              1.03332044      7.7207783000000001
   580   1             14.08909315     0.92515128999999996      7.6741712199999998
   581   1      18.091106020000002      1.1362178999999999      7.5379741600000001
   582   1             22.19937826              1.37033194      7.6328387199999996
   583   1             26.63351493              1.63096222      7.6571127700000003
   584   1      30.646927030000001              1.25549712      7.5358922100000001
   585   1    0.083169850000000003      4.8055548200000002      7.5041333100000003
   586   1      4.1078642299999997      4.7682469000000003      7.7465200899999997
   587   1      8.2447166200000002      4.6001277600000003      7.1910712300000004
   588   1      17.965439150000002              1.39894191      9.9934509699999996
   589   1      16.182892460000001      4.7296049399999998      7.4849094899999997
   590   1      20.307358189999999      4.7891568500000004      7.7520362199999999
   591   1      24.411023660000001      4.7746259000000002      7.3606501499999997
   592   1      28.477175070000001      4.7616666499999996      7.3878906500000001
   593   1      2.1195814099999999      8.2103891499999992      7.6250774200000002
   594   1      6.0811249700000003      8.3946640200000004      7.3559795699999997
   595   1             10.23395543      8.3768595300000008      7.6520357499999996
   596   1             14.16855971      8.0576182000000003      7.7680926499999998
   597   1      18.280321239999999      8.0247243899999994      7.5197583000000003
   598   1      22.393028569999998      8.1904108799999999      7.6294214800000004
   599   1             26.35011647      8.4090487500000002      7.4647928800000001
   600   1             30.43172053      8.1007026199999999      7.8027373000000004
   601   1     0.12376951999999999             11.75914358      7.5003928499999999
   602   1              4.24000164      11.765481830000001      7.4700538600000002
   603   1      8.2531363500000001      11.878605459999999      7.4123378999999998
   604   1             12.48124207             11.82730141      7.5952428200000002
   605   1             22.16279488      8.3544658599999995      10.044494500000001
   606   1              20.4287767      11.792950429999999      7.5237736100000001
   607   1      24.465511329999998             11.88018774      7.7434836499999999
   608   1      24.271132999999999      9.2609163500000005      8.4568429199999997
   609   1      2.2254813699999998             15.27816172      7.4371918700000004
   610   1      6.0922347400000003             15.11976046      7.3356323999999997
   611   1      12.088648429999999      16.513796880000001      8.1874568599999993
   612   1             14.12136329             15.31940155      7.5650626000000001
   613   1      18.239389750000001             15.19973557      7.5239475499999999
   614   1      22.507996200000001      15.164194549999999               7.6268791
   615   1             26.16492865             15.21771543      7.5849043700000003
   616   1      30.681882890000001      15.212110989999999      7.2862095800000004
   617   1     0.14622871000000001      18.650314439999999      7.9097931800000003
   618   1      4.0152764599999999      18.646498560000001      7.4912227700000003
   619   1      8.1065106599999996      18.750206290000001      7.6495862399999996
   620   1             12.23024579             18.75034265      7.8150409600000001
   621   1              16.5639234      19.015791100000001      7.5026075499999996
   622   1      20.286265700000001      18.632082579999999      7.1582493300000003
   623   1      24.150348520000001      18.939591579999998      7.7758611599999998
   624   1      28.444399870000002             18.69940274      7.7993104500000001
   625   1      2.3027945500000002      22.435416450000002      7.7538998899999996
   626   1              6.25101861      22.148130590000001      7.5532375900000002
   627   1              12.1205265      20.951230580000001      9.0332604300000003
   628   1      14.278807499999999      22.421040319999999      7.8929063099999999
   629   1              18.1840872      22.151561650000001      7.1679942600000004
   630   1             22.41221517             22.36441039      7.6073439499999997
   631   1      26.574891210000001             22.34293503      7.7023120199999999
   632   1      30.716361150000001      22.245990169999999              7.70037985
   633   1     0.29328053999999998      25.778646080000001      7.9441104600000001
   634   1      4.0907606699999999      25.700412740000001      7.3581589999999997
   635   1      8.0601163899999992             25.96339923      7.5087578300000004
   636   1             12.10201663      25.662548950000001               7.5905046
   637   1      16.160873909999999      25.590928819999998      7.2657742900000004
   638   1             20.35737662      25.752027040000002      7.3549292399999997
   639   1      24.430784979999999             25.92605738      7.3478341900000004
   640   1             28.48028781      25.890578999999999      7.3800530000000002
   641   1      4.1368543100000004      6.9101254299999999      9.1546462300000009
   642   1      2.2729695599999999      3.5931599599999999      9.0257202000000003
   643   1      6.1226465699999997      8.5138796899999996      9.7545805899999998
   644   1      14.190382870000001      26.393652670000002      8.3416546199999999
   645   1             10.20501681      22.112364070000002      7.5147406200000004
   646   1      28.455015230000001      25.772932870000002             10.09225359
   647   1             22.59326141      5.9576466899999998      8.3861578600000009
   648   1             10.22107023              3.45186518      8.8912744099999994
   649   1      4.1365833700000003      16.271969519999999      8.4998138300000008
   650   1              6.43857356             24.64728088      9.0880634800000006
   651   1      19.951441679999999             23.29916669      8.3304986700000008
   652   1      18.147275019999999      5.9293347000000001      8.3742540200000004
   653   1             22.32175938             12.98359215      8.4561226400000002
   654   1      4.2362524800000001      23.734649139999998      8.8396434500000005
   655   1      24.050391040000001      25.904089129999999      9.5672625500000006
   656   1      8.2359718500000003      23.310359600000002      8.2081040000000005
   657   1             10.18931566      10.713338159999999      9.2268810000000006
   658   1             15.98362369      16.546202730000001      8.2980163499999993
   659   1      28.326558609999999      9.2908360999999999      8.1862333300000003
   660   1             15.98685085      6.9108414099999997      9.0741507099999996
   661   1      24.683530149999999              0.21429408      9.1176510099999994
   662   1      28.860420789999999      2.3739443900000001      8.5071569500000006
   663   1             20.11983116      28.132059160000001      8.9497363300000004
   664   1              2.34973806      12.864220270000001      8.0447330600000004
   665   1             10.22234267             12.96489865      8.1325344400000006
   666   1      14.238363639999999      19.693478389999999      8.4203499799999992
   667   1      6.0602853899999998      17.702369099999999      8.9339326200000002
   668   1      16.125530749999999             11.67214693      7.5287085300000003
   669   1      4.3376482599999999              13.9044945              9.11475349
   670   1      28.475398649999999      6.7564064100000003      8.9106363799999997
   671   1              2.38664765      11.037740879999999      9.1834898700000007
   672   1      2.0554840400000001      20.061295090000002      8.1835588000000001
   673   1      2.2650266700000001      24.708336710000001      9.2390519199999996
   674   1      2.2434979300000002      17.688235370000001      9.0039819300000001
   675   1      22.181855689999999             20.14779528      8.2499495199999995
   676   1              12.2196964      27.982419969999999      9.0281985799999998
   677   1             20.26750036      7.1037463000000001      9.5212929400000004
   678   1      22.407774570000001             17.68994129      9.2561482799999997
   679   1      26.821205030000002              3.78437622      8.8385048899999994
   680   1      28.501406889999998      11.690002829999999      7.5523086800000003
   681   1      2.0425674100000002      6.1179734100000003              8.33388448
   682   1             10.01781083      15.394101429999999      7.5872327999999998
   683   1      5.8705755399999999      27.119173579999998      8.0712944600000007
   684   1      12.277655879999999      9.5516898999999995      8.3091154899999999
   685   1      24.377535659999999      16.335969519999999      8.6908275199999991
   686   1      18.243940080000002      12.925681109999999      8.0686999700000008
   687   1      14.593274640000001      10.318043319999999      9.2337618500000005
   688   1      22.263584030000001      15.262124350000001             10.00071602
   689   1             24.22699798      21.189096469999999      9.0823523900000005
   690   1     0.12590333000000001      16.025287410000001      8.3839843900000002
   691   1             30.47743474      5.3048774099999996      8.4575513400000002
   692   1             16.10641523      2.4362743999999998      8.3837223099999996
   693   1             14.51015269      13.097950969999999      8.4806621900000003
   694   1      20.168542850000001      9.4213001999999992      8.1854308299999996
   695   1      22.207222949999998      26.933681669999999      8.2798793400000008
   696   1              2.27694515             15.19342623      9.8962620500000007
   697   1      7.9056544999999998      4.8525470200000003      9.5215480100000001
   698   1      18.002680000000002      26.737325219999999      8.4506618800000002
   699   1             19.96320871      2.2468934699999998      8.3527734599999999
   700   1      16.207039569999999      27.952066420000001      9.0422422099999995
   701   1      14.125175690000001              5.59400808      8.3028193699999999
   702   1      24.340631479999999      23.431255230000001      8.1890050300000006
   703   1      22.211844280000001      3.7138021999999999      8.8233329699999992
   704   1      26.136364059999998      19.957829149999998      8.3396666600000007
   705   1      4.0864485999999998      2.2731257600000001      8.4961836000000002
   706   1      6.0236464300000003      3.5141104400000001      9.1096191399999995
   707   1      12.036177289999999      23.422689269999999      8.4145736499999995
   708   1             20.40116167      16.419438769999999      8.3479961199999995
   709   1      22.651610170000001     0.69407315999999997      9.8629739000000001
   710   1             19.03121046             20.22949255              8.53421202
   711   1      32.350565580000001      7.0192712300000002      8.8267419199999999
   712   1     0.26051733999999999             23.28477002      8.2761679000000008
   713   1      28.534874500000001             27.89859362      9.0307923799999994
   714   1      4.1839139899999997      21.234001939999999      8.8650398900000003
   715   1     0.11383305000000001     0.34499299999999999      9.0619606699999995
   716   1             10.01810751      19.817575380000001      8.3063869500000003
   717   1      26.297562580000001              24.8464837      9.3531122100000008
   718   1     0.12677658999999999      9.5108477699999998      8.2149835800000002
   719   1      30.768390069999999              10.7264309      9.0664428800000003
   720   1      32.345191739999997      2.7638807399999998      8.4273415000000007
   721   1      4.1541660499999997      9.3738988299999999      8.3467784500000004
   722   1      7.7878217899999997     0.30710242999999998      9.1507535600000001
   723   1      8.2041420400000007              9.47496546      8.1899337600000006
   724   1      6.1865003700000001             10.76931742      9.0621238599999998
   725   1      8.1410243799999993      7.2524374800000002      8.8561016200000005
   726   1      16.260928759999999      9.1949707499999995              8.24842546
   727   1      16.512236380000001              21.0582961      8.8246126199999999
   728   1      26.850958779999999             12.95108898      8.4381117299999993
   729   1      8.2218267100000002             14.21347286      8.9875817999999992
   730   1      12.083708120000001      4.6758344799999998      7.4346883899999998
   731   1             12.26892885      7.1627224500000004      9.1246591200000005
   732   1      17.882851970000001      10.639449259999999              9.05102224
   733   1      18.331360409999998      17.724695220000001      8.8250231800000005
   734   1      30.736547949999999             24.69337204      9.2281724999999994
   735   1             24.38072906      2.5648111999999998      8.1121785800000001
   736   1      8.0904088600000001      16.495209330000002      8.3103556800000007
   737   1    0.071200079999999999             21.12599179      9.5665062800000005
   738   1      26.412951240000002      10.541324680000001      9.1069984900000005
   739   1      12.093958130000001             13.96318761      9.0099138500000002
   740   1             26.31408227      6.0724830299999999      8.0401934300000004
   741   1             24.42890714      13.995621359999999      9.0788676200000005
   742   1      24.608968409999999      6.8894233299999996      9.1910460700000005
   743   1             18.23330816      8.4527093400000002      9.7224675099999995
   744   1     0.20790948000000001             13.45062126      9.1554142699999996
   745   1      28.568183879999999      16.058347080000001      8.3291924099999992
   746   1      6.2297948300000003      13.013891360000001      8.2456528099999993
   747   1      9.9644403100000005      17.414268280000002      8.9665397200000001
   748   1      8.1476550299999992             21.31412649      9.2094945799999994
   749   1      20.353013749999999             13.86452356      9.1031323299999993
   750   1      26.340161389999999      17.651535559999999      9.1099939499999998
   751   1      28.449416769999999             20.87177496      9.1005300600000005
   752   1      6.3697063900000002             15.37835975      9.7536069899999998
   753   1      6.1601493500000002      19.983130190000001      8.2630244699999995
   754   1      8.2818785399999992      2.5228306699999998      8.3507581500000008
   755   1      6.3194600100000002      6.0679664600000001      8.1631295999999995
   756   1             10.19921536      26.822885200000002      8.4649482099999993
   757   1      2.3541067600000001      27.119839599999999      8.5072546300000003
   758   1      26.345064959999998             27.19213409      8.1643135299999994
   759   1      30.510519160000001             13.02446778      8.3675191499999997
   760   1      28.406380219999999      23.743698200000001      8.4435545600000008
   761   1              16.3042245      23.658803689999999      8.3007141799999999
   762   1      22.248859899999999      10.825843130000001      9.3749251600000001
   763   1             10.16234337      5.8802225999999997      8.1814874300000007
   764   1             12.28897832      2.2218927100000001              8.25948438
   765   1      18.120962120000002      3.6626204499999999      9.2244531100000007
   766   1      22.309011340000001      24.147324390000001      9.2778332999999993
   767   1             30.58158032             19.83629539      8.3120080699999992
   768   1             30.81286532             26.98880278      8.2872942700000003
   769   2      16.582246730000001      17.862918579999999      9.2300348799999998
   770   2             15.61277241      19.265601090000001      9.3353345599999997
