N2-dn2-coord-10bar/300K/snapshots/frame-50611/run-000/../data.lammps (written by ASE) 

770 	 atoms 
2  atom types
0.0      32.470343392086264  xlo xhi
0.0      28.120142247150884  ylo yhi
0.0      31.213473999158239  zlo zhi


Atoms 

     1   1      2.0293964600000001      1.1716090800000001    0.023552650000000001
     2   1      6.0880008999999999              1.17168918              0.02556874
     3   1      10.146952280000001              1.17170328    0.025416459999999998
     4   1      14.205754900000001      1.1716496700000001              0.02501565
     5   1             18.26456816              1.17166478              0.02504435
     6   1             22.32338141      1.1716496700000001              0.02501565
     7   1      26.382184030000001              1.17170328    0.025416459999999998
     8   1      30.441135410000001              1.17168918              0.02556874
     9   1  9.1780000000000006e-05      4.6866847900000002    0.025581599999999999
    10   1      4.0587011400000002      4.6866847900000002    0.025581599999999999
    11   1      8.1174961000000003      4.6866290399999997    0.025584639999999999
    12   1             12.17638011      4.6866852999999997              0.02491202
    13   1             16.23517979      4.6866942700000003    0.025006210000000001
    14   1      20.293956519999998      4.6866942700000003    0.025006210000000001
    15   1      24.352756209999999      4.6866852999999997              0.02491202
    16   1      28.411640219999999      4.6866290399999997    0.025584639999999999
    17   1      2.0293964600000001      8.2016395800000002    0.026613040000000001
    18   1      6.0881071599999999      8.2016314300000008              0.02543782
    19   1             10.14701835               8.2017045    0.025156850000000001
    20   1      14.205766049999999      8.2017080900000003    0.024990459999999999
    21   1             18.26456816      8.2017077599999997    0.025091249999999999
    22   1      22.323370260000001      8.2017080900000003    0.024990459999999999
    23   1      26.382117969999999               8.2017045    0.025156850000000001
    24   1      30.441029149999999      8.2016314300000008              0.02543782
    25   1  9.2789999999999998e-05             11.71671873    0.025573410000000001
    26   1              4.05870014             11.71671873    0.025573410000000001
    27   1      8.1176017700000003             11.71668698              0.02497914
    28   1             12.17637068             11.71673069    0.025001590000000001
    29   1      16.235177310000001      11.716730249999999    0.025074039999999999
    30   1      20.293959009999998      11.716730249999999    0.025074039999999999
    31   1      24.352765640000001             11.71673069    0.025001590000000001
    32   1      28.411534549999999             11.71668698              0.02497914
    33   1      2.0293964600000001             15.23167155              0.02525285
    34   1      6.0881728300000004      15.231678799999999    0.025062859999999999
    35   1             10.14698486      15.231762639999999               0.0250786
    36   1             14.20578841             15.23176782    0.025201990000000001
    37   1             18.26456816              15.2317707    0.025149979999999999
    38   1      22.323347900000002             15.23176782    0.025201990000000001
    39   1      26.382151459999999      15.231762639999999               0.0250786
    40   1      30.440963480000001      15.231678799999999    0.025062859999999999
    41   1      32.470327990000001      18.746748629999999    0.024951939999999999
    42   1      4.0588083299999997      18.746748629999999    0.024951939999999999
    43   1      8.1175770200000006      18.746803499999999    0.025222040000000001
    44   1             12.17637459      18.746799750000001    0.025428470000000002
    45   1      16.235159400000001      18.746805200000001    0.025487360000000001
    46   1      20.293976919999999      18.746805200000001    0.025487360000000001
    47   1      24.352761730000001      18.746799750000001    0.025428470000000002
    48   1             28.41155929      18.746803499999999    0.025222040000000001
    49   1      2.0293964600000001      22.261939099999999    0.025844880000000001
    50   1      6.0881419299999999      22.261841799999999    0.025489439999999999
    51   1             10.14692954             22.26176895              0.02551757
    52   1             14.20573559      22.261804690000002    0.025639160000000001
    53   1             18.26456816             22.26178625    0.025640119999999999
    54   1      22.323400729999999      22.261804690000002    0.025639160000000001
    55   1      26.382206780000001             22.26176895              0.02551757
    56   1             30.44099439      22.261841799999999    0.025489439999999999
    57   1  5.6450000000000003e-05      25.776936450000001              0.02613327
    58   1      4.0587364700000004      25.776936450000001              0.02613327
    59   1      8.1175325399999991              25.7767713    0.024734180000000001
    60   1      12.176376469999999      25.776831090000002              0.02545323
    61   1      16.235145939999999      25.776775220000001    0.025273360000000002
    62   1             20.29399038      25.776775220000001    0.025273360000000002
    63   1      24.352759840000001      25.776831090000002              0.02545323
    64   1      28.411603769999999              25.7767713    0.024734180000000001
    65   1  0.00024266000000000001              2.34304215     0.80166565000000001
    66   1      4.0585502699999996              2.34304215     0.80166565000000001
    67   1      8.1157394600000003              2.34454954     0.80169402000000001
    68   1             12.17601256      2.3433829099999999     0.80116898000000003
    69   1      16.235258170000002      2.3433209100000001     0.80090046999999998
    70   1      20.293878150000001      2.3433209100000001     0.80090046999999998
    71   1      24.353123750000002      2.3433829099999999     0.80116898000000003
    72   1      28.413396859999999              2.34454954     0.80169402000000001
    73   1      2.0293964600000001      5.8582218700000004     0.80119762000000005
    74   1      6.0870566899999998      5.8583336700000004              0.80194851
    75   1             10.14649655              5.85853131     0.80121584000000001
    76   1             14.20597894      5.8582938599999999     0.80086840999999998
    77   1             18.26456816      5.8583798500000004               0.8010794
    78   1      22.323157380000001      5.8582938599999999     0.80086840999999998
    79   1             26.38263976              5.85853131     0.80121584000000001
    80   1      30.442079629999999      5.8583336700000004              0.80194851
    81   1  0.00019438999999999999      9.3717771800000005     0.80082061000000004
    82   1      4.0585985400000002      9.3717771800000005     0.80082061000000004
    83   1      8.1175070500000004      9.3725002699999997     0.80149060999999999
    84   1      12.176590020000001      9.3733583399999993     0.80088261999999999
    85   1             16.23512199      9.3733789200000004              0.80106506
    86   1             20.29401433      9.3733789200000004              0.80106506
    87   1      24.352546289999999      9.3733583399999993     0.80088261999999999
    88   1      28.411629269999999      9.3725002699999997     0.80149060999999999
    89   1      2.0293964600000001             12.88692854     0.80220621000000003
    90   1      6.0883212999999996             12.88743848     0.80138414999999996
    91   1      10.147128609999999             12.88859852     0.80085256000000005
    92   1             14.20571782      12.888558189999999     0.80113791000000001
    93   1             18.26456816      12.888409899999999     0.80109381000000002
    94   1      22.323418490000002      12.888558189999999     0.80113791000000001
    95   1             26.38200771             12.88859852     0.80085256000000005
    96   1      30.440815019999999             12.88743848     0.80138414999999996
    97   1              0.00012365      16.403222639999999     0.80145666999999998
    98   1      4.0586692700000002      16.403222639999999     0.80145666999999998
    99   1      8.1174337899999998      16.403825260000001     0.80097196999999998
   100   1              12.1761021             16.40390721     0.80133072000000005
   101   1             16.23503496      16.403861750000001     0.80140014999999998
   102   1      20.294101359999999      16.403861750000001     0.80140014999999998
   103   1      24.353034220000001             16.40390721     0.80133072000000005
   104   1      28.411702529999999      16.403825260000001     0.80097196999999998
   105   1      2.0293964600000001      19.919205120000001     0.80066369999999998
   106   1              6.08752564             19.91894023     0.80122479000000002
   107   1      10.146078839999999             19.91919038     0.80159137999999996
   108   1      14.204993419999999              19.9192584     0.80178742000000003
   109   1             18.26456816      19.919377350000001     0.80194975999999996
   110   1      22.324142899999998              19.9192584     0.80178742000000003
   111   1      26.383057470000001             19.91919038     0.80159137999999996
   112   1      30.441610669999999             19.91894023     0.80122479000000002
   113   1              0.00142012      23.434536609999999     0.80178442000000005
   114   1      4.0573728100000004      23.434536609999999     0.80178442000000005
   115   1      8.1165862000000004      23.433936769999999     0.80182306000000003
   116   1             12.17555218      23.433996919999998     0.80156656000000004
   117   1             16.23465491      23.434040110000002     0.80170828999999999
   118   1      20.294481409999999      23.434040110000002     0.80170828999999999
   119   1      24.353584130000002      23.433996919999998     0.80156656000000004
   120   1      28.412550110000002      23.433936769999999     0.80182306000000003
   121   1      2.0293964600000001      26.949875330000001              0.80297246
   122   1      6.0858208300000003      26.950066320000001              0.80215291
   123   1             10.14598146      26.949241430000001     0.80165810000000004
   124   1             14.20520604      26.948673230000001     0.80131923999999999
   125   1             18.26456816             26.94858318     0.80108193999999999
   126   1      22.323930279999999      26.948673230000001     0.80131923999999999
   127   1      26.383154860000001      26.949241430000001     0.80165810000000004
   128   1             30.44331549      26.950066320000001              0.80215291
   129   1  -0.0011848399999999999      28.148957490000001              1.53171689
   130   1      4.0219202599999999      28.100259000000001      1.4080412099999999
   131   1      8.2078555400000006   -0.086629250000000005              1.41736595
   132   1      12.083947090000001   -0.044660730000000003              1.50074197
   133   1      16.212244760000001   -0.010088679999999999              1.49341602
   134   1      20.335710989999999      28.079128870000002              1.43712241
   135   1      24.384264640000001      28.099456450000002      1.5148473899999999
   136   1      28.341519219999999   -0.051899149999999998              1.56518457
   137   1      2.0037016799999998      3.5432842500000001      1.5843601700000001
   138   1      6.0937348699999996      3.4595328799999998              1.43552638
   139   1             10.16430061      3.5366860400000002      1.3885114000000001
   140   1      14.231517269999999      3.5412540699999999              1.35456245
   141   1              18.2181833      3.5682933700000001      1.5053397900000001
   142   1      22.227918729999999      3.4538452799999999              1.46896673
   143   1      26.279925649999999      3.4494189500000001      1.4075807899999999
   144   1      30.487605859999999      3.5464356000000001              1.42821325
   145   1      32.422200760000003      6.9623972900000002      1.4980542699999999
   146   1      4.0273697200000003      7.0710880200000004               1.4810786
   147   1      8.1537823500000002      7.0135279700000002      1.3200296600000001
   148   1             12.20976286      6.9736307799999997      1.3880417899999999
   149   1      16.291671869999998      7.0011661199999997      1.4856060900000001
   150   1             20.35002145      6.9289783900000002              1.41118783
   151   1      24.310629550000002      6.9845761499999997              1.41873838
   152   1             28.36022552      6.9618154800000003              1.45505551
   153   1              1.94109256              10.5315765      1.4071301199999999
   154   1      5.9436335600000003      10.559378389999999      1.5411885999999999
   155   1             10.18113134      10.569287299999999      1.4715626399999999
   156   1      14.183108519999999             10.57248721              1.56046105
   157   1      18.369156759999999             10.49725701      1.3723866300000001
   158   1             22.33885678      10.569429960000001      1.4240584000000001
   159   1      26.327415080000002      10.497911200000001               1.4109444
   160   1             30.36439163             10.53034521      1.5038515100000001
   161   1      32.414481889999998             14.11189147      1.5386655600000001
   162   1      4.0231103299999997      14.073008509999999      1.4654027199999999
   163   1      8.1801688499999994      14.161353800000001              1.43572747
   164   1             12.17746326      13.986192859999999      1.4752221299999999
   165   1      16.210866849999999      14.157509409999999      1.3589509200000001
   166   1      20.220292440000001      14.131246259999999      1.3560912899999999
   167   1      24.360817740000002             14.01936547              1.42257364
   168   1      28.357829370000001      14.028461979999999      1.4904696200000001
   169   1      2.0966819000000001             17.63955155              1.44781136
   170   1              6.01139227      17.488225740000001      1.5274278800000001
   171   1             10.11109753             17.55743227              1.56311321
   172   1             14.26396173             17.54280885              1.39875368
   173   1             18.20096388             17.57090157              1.46958806
   174   1      22.375607070000001      17.585631830000001              1.41644674
   175   1      26.520634220000002      17.577277840000001      1.5005644499999999
   176   1      30.366026940000001             17.52843339              1.41541337
   177   1      32.511835429999998      21.068581760000001      1.4785953999999999
   178   1      4.1082493099999997      21.045715349999998      1.4910719400000001
   179   1      8.0985037799999997      21.128117929999998      1.4868709899999999
   180   1      12.154603809999999      21.068717370000002      1.3693479500000001
   181   1      16.210850959999998             21.09545649      1.4824911300000001
   182   1             20.25059216      21.007170590000001      1.4506524000000001
   183   1      24.352022850000001      21.040775530000001      1.7021490500000001
   184   1      28.342318949999999      21.104116390000002              1.61517197
   185   1              1.91691732      24.615027139999999              1.45285259
   186   1      6.0110760499999998      24.686082500000001      1.3834738200000001
   187   1             10.05394856              24.6156319      1.5366834599999999
   188   1             14.25701415               24.710846      1.3655260199999999
   189   1             18.28778668      24.548941339999999              1.41891492
   190   1             22.41091411      24.553144580000001      1.3790482900000001
   191   1      26.438164860000001      24.632467200000001              1.52299512
   192   1      30.431533300000002      24.702207300000001      1.5120361899999999
   193   1      2.0346158399999998      1.2731827099999999      2.4466367099999999
   194   1              6.13497278      1.0057895800000001              2.33095089
   195   1             10.13482969      1.2047479999999999      2.3967294699999999
   196   1             14.21550102              1.26128193      2.4548888899999999
   197   1             18.22435252      1.1925695999999999      2.5137276700000002
   198   1              22.3962295      1.1421896600000001      2.3217591400000002
   199   1      26.383394750000001              1.13059398      2.4530216999999999
   200   1      30.392194419999999      1.1588981599999999      2.4576346299999998
   201   1             -0.02269587      4.7140246399999999              2.51871263
   202   1      4.0335604500000004      4.6584802999999999      2.4208214899999998
   203   1      8.1669328199999995      4.6231577100000001      2.3483292699999998
   204   1              12.2085676      4.6668266100000002      2.3570788899999999
   205   1      16.352144119999998      4.7750057999999997      2.4420952699999998
   206   1      20.304901739999998      4.6539288000000001      2.4497128199999998
   207   1             24.15716815      4.7428719700000004      2.4215149899999999
   208   1      28.371989039999999              4.62707245              2.37697497
   209   1      1.9653773800000001      8.0867122400000007      2.3968454000000001
   210   1      6.1094807400000004      8.2096810599999994      2.3494494100000001
   211   1      10.154976019999999      8.1201378399999999      2.3259953900000001
   212   1             14.25201028              8.26052155              2.37841535
   213   1      18.267442970000001      8.1413540399999995      2.3329942899999998
   214   1      22.352827600000001      8.3764420699999995      2.3869781699999999
   215   1             26.30547284      8.2103940800000004              2.35110697
   216   1      30.493052949999999      8.1675473299999997              2.46033642
   217   1      32.483723060000003      11.631754580000001      2.3104976000000002
   218   1      4.1359260600000001             11.67104438      2.3536357699999999
   219   1      8.0602901300000003               11.759639      2.4120655100000001
   220   1             12.05827064             11.76624009      2.3982043499999999
   221   1      16.386937029999999             11.68677976      2.3631138800000002
   222   1      20.338152529999999      11.634343729999999      2.3772484299999999
   223   1      24.279847759999999             11.68041101      2.5071495800000001
   224   1             28.43157377      11.716961149999999      2.4467881399999998
   225   1      1.9945248600000001             15.14470839              2.45129493
   226   1      5.9890508999999996      15.116083160000001      2.4011434399999998
   227   1             10.22672137             15.21517062      2.4241168700000002
   228   1             14.17161336      15.195875600000001      2.4561225200000001
   229   1             18.13709807      15.231226879999999      2.3892879900000001
   230   1             22.33435493      15.256369619999999      2.3991938500000001
   231   1      26.399253430000002             15.21041898      2.3215942300000001
   232   1      30.305837270000001      15.213634669999999      2.4472456199999999
   233   1      32.414638670000002      18.786401040000001      2.4456435500000002
   234   1              4.03814984      18.722623469999998      2.3298857399999999
   235   1      8.0100433300000002      18.694702979999999      2.4809909600000002
   236   1             12.13406258      18.631443900000001      2.4488355899999998
   237   1             16.10607495      18.787486300000001      2.4448353200000001
   238   1      20.368475010000001      18.797903389999998      2.4381820900000002
   239   1      24.336757930000001      18.726253410000002      2.4021558700000001
   240   1             28.34806382      18.755213659999999      2.4620180999999999
   241   1      2.0619986300000002      22.219805260000001      2.5208876400000002
   242   1      6.0886077199999997      22.343954190000002              2.42484199
   243   1      10.161355520000001      22.270568040000001              2.42468912
   244   1      14.222664350000001             22.29859849      2.4453286099999998
   245   1      18.156125549999999             22.22271726      2.5016766800000001
   246   1      22.363403890000001      22.424586819999998      2.4945516200000002
   247   1             26.38025296      22.263783660000001              2.32223808
   248   1      30.398674840000002             22.21598311      2.3692049599999998
   249   1  -0.0078659100000000003      25.925175660000001      2.4978595600000002
   250   1      4.0154463500000004      25.810212629999999      2.3707280000000002
   251   1      8.0519944900000002      25.732010460000001      2.5721337200000001
   252   1      12.185769670000001      25.780720630000001      2.4605910199999999
   253   1      16.162065460000001      25.728128649999999              2.32124497
   254   1      20.214757150000001      25.757492240000001      2.3463429699999998
   255   1      24.255824919999998      25.781105100000001      2.3472494400000001
   256   1      28.490407149999999      25.725577779999998      2.3957960100000002
   257   1             32.36700673               2.4214441      3.1931189999999998
   258   1      4.1378612300000004      2.3502863500000002      3.2191426999999999
   259   1      8.0224631399999993      2.3499594300000002      3.2984777900000002
   260   1              12.1351002      2.3096481199999999      3.2251945700000002
   261   1      16.252504009999999      2.4128522000000001      3.3140812999999998
   262   1      20.248039039999998      2.2587187499999999      3.2024692899999998
   263   1             24.34471589      2.3815767800000001      3.1600488100000002
   264   1      28.240710499999999      2.4027946299999998              3.37893723
   265   1      2.0331164799999999      5.8802748300000003      3.2727748299999999
   266   1      5.9726118599999998      5.8129554299999997              3.15926646
   267   1      10.080409510000001              5.86872098      3.1012494899999998
   268   1             14.27093232              5.90733642              3.18778534
   269   1      18.319247520000001      5.8493893000000003      3.2029581899999999
   270   1      22.314931690000002      5.8995324699999996      3.1936537700000001
   271   1             26.32166849      5.8844626800000004      3.1612552200000001
   272   1             30.37545437      5.8828242299999998      3.2174369600000001
   273   1      32.438258840000003      9.4089277500000001      3.2494991299999998
   274   1              3.93666976      9.3981232499999994      3.2084483000000001
   275   1      8.1262383899999993              9.39489208      3.2171727699999999
   276   1             12.18482393      9.2393297600000004      3.1870636299999999
   277   1      16.251419989999999      9.2940476099999998              3.22587951
   278   1      20.292325229999999      9.4098363799999998      3.2743742999999998
   279   1      24.413835769999999      9.3821377300000002      3.2131778600000001
   280   1             28.41702888      9.3935647200000005      3.2451210399999999
   281   1      2.0160543099999999      12.778760979999999      3.1993749399999998
   282   1      6.0895131100000004      12.839792190000001      3.2052324099999998
   283   1      10.102965080000001             12.88328815              3.27217665
   284   1      14.225832540000001      12.912289449999999      3.2725370100000002
   285   1             18.33460445             12.77519536              3.26165342
   286   1      22.185633410000001             12.90422225      3.1560551800000001
   287   1             26.31960754      12.953395950000001      3.2288366499999999
   288   1      30.392712020000001             12.89401539      3.2800850800000001
   289   1      32.456225689999997             16.43849058              3.28889627
   290   1      4.0294240800000001             16.33787405      3.2817192199999998
   291   1      8.2074353700000007             16.30596409              3.18182673
   292   1             12.20423484      16.392342939999999      3.2626819600000001
   293   1      16.174713329999999      16.428997089999999      3.2282364700000001
   294   1      20.284908909999999             16.35676982      3.2524041700000001
   295   1      24.346359410000002      16.366715200000002      3.3191878699999999
   296   1      28.385413280000002             16.47772792      3.2959695400000002
   297   1                1.963616      19.895061030000001      3.2220459400000001
   298   1      6.0502184799999998             19.89360057      3.3092886799999999
   299   1             10.16158954      19.854362070000001              3.30363747
   300   1      14.179505499999999      19.868201710000001              3.30110408
   301   1      18.354377499999998      19.942201260000001      3.3265538700000001
   302   1             22.38542863      20.021869420000002              3.25325043
   303   1             26.32296492      19.977888249999999      3.2031477100000001
   304   1             30.36168911      19.833121649999999      3.2847016299999998
   305   1      32.394369220000002      23.366882969999999      3.1968642799999998
   306   1              4.07578526      23.416605390000001              3.24850416
   307   1      8.0909519000000003             23.28689576      3.2334405300000002
   308   1             12.18672778      23.370188479999999      3.3477189799999998
   309   1      16.128014220000001      23.484469870000002      3.2004899199999999
   310   1      20.346961910000001             23.41870831      3.2764243999999998
   311   1      24.445290109999998      23.497440040000001      3.2452792499999998
   312   1      28.487199069999999      23.566337489999999              3.24577319
   313   1      2.0269770399999998      27.054759669999999      3.2278120000000001
   314   1      6.0791449200000001             26.87937664      3.2797723400000001
   315   1             10.14315598      26.928403039999999      3.1985393800000002
   316   1             14.19578332             27.10134927      3.2860048800000001
   317   1      18.206618710000001             26.97636529      3.1705155399999998
   318   1             22.27108157      27.004468840000001      3.2779321600000002
   319   1             26.33262281      26.800155790000002      3.2639865000000001
   320   1      30.392616100000001      27.003170449999999      3.2226256499999999
   321   1   -0.063979389999999997      28.221380060000001      4.1076923699999996
   322   1      4.1738291299999997      28.127839359999999      3.8907067099999999
   323   1      8.0344963499999995   -0.036822319999999999      4.0162713600000002
   324   1      12.133880469999999      28.199960229999999      4.0654340600000003
   325   1             16.33914772     0.12611926000000001      4.1125297700000001
   326   1      20.218597119999998    0.038767309999999999      4.0296638299999996
   327   1      24.344824089999999  0.00035657000000000001              4.09371464
   328   1      28.407365200000001   -0.064407060000000002      4.0664549000000001
   329   1      2.0357303299999998      3.4687915899999999      4.0822681200000002
   330   1      6.1610482600000003      3.5458894999999999      4.0772234599999999
   331   1             10.08687778      3.4253294599999999      4.1102697800000003
   332   1      14.196089669999999      3.5390392199999998              3.97435626
   333   1              18.3187134      3.5494715299999999      4.1497952099999997
   334   1      22.315084089999999              3.53187147      4.0014702199999999
   335   1      26.268092110000001      3.5948394499999998      4.0934740700000001
   336   1             30.32881428      3.5465782099999998      4.1307269199999999
   337   1   -0.067699239999999994      7.0632189399999996      4.0337245399999997
   338   1      4.1207892599999996      7.0175705500000003      4.0286207899999997
   339   1      8.1110825099999992              6.94170803               4.1333411
   340   1      12.137981079999999              6.89982864      4.0770096100000002
   341   1      16.322839479999999      7.0269447600000001      4.0582846999999997
   342   1      20.456724380000001      6.9974867999999999      3.9895481699999999
   343   1      24.343800900000002      7.0542730200000001      3.9968929800000002
   344   1      28.341273829999999      7.0847292700000004      3.9771654600000002
   345   1      2.0087556599999998             10.45819663      4.0214641100000001
   346   1      6.0829851000000001             10.48391531      3.9644702700000001
   347   1             10.19041225             10.53223292      4.1387300600000003
   348   1             14.23256065             10.42946549      4.0450530499999999
   349   1             18.23419745             10.45208388      3.9275137999999998
   350   1             22.28886151      10.603341500000001      4.0377009099999999
   351   1      26.443208680000001             10.55754617              4.04112911
   352   1             30.39623121      10.529805039999999      4.0818821099999996
   353   1  -0.0052541300000000001      14.129859310000001      4.0313341500000002
   354   1      4.1016945199999997             14.02780237      3.9567716499999999
   355   1              8.10351964             14.10606054      4.0643173299999997
   356   1      12.191904879999999             14.05420237      4.0840310100000004
   357   1             16.27780052             13.99616657              4.07443562
   358   1      20.293654740000001      14.030525259999999      4.0746083500000001
   359   1      24.285432449999998             14.03912392      4.0180532299999996
   360   1              28.2635817              14.1117393      4.0057142299999997
   361   1      2.0959139599999999             17.58695432      4.0966556499999998
   362   1      6.0892879600000001             17.53121999      3.9299494799999999
   363   1      10.097651730000001             17.51990107              4.07197882
   364   1             14.11211533      17.486353300000001      4.0604305399999996
   365   1      18.317764059999998      17.601480479999999      4.0061841999999999
   366   1      22.410833459999999             17.66522367      4.0816919900000004
   367   1      26.274092209999999             17.61516026              3.93332214
   368   1      30.463018470000002      17.646309370000001      3.9858871300000001
   369   1      32.567702490000002      21.136704659999999      4.1304752799999997
   370   1      3.9687708399999999      20.968870519999999              4.03802342
   371   1      8.1418977300000002      20.952850689999998      4.1765568599999998
   372   1             12.20254138      21.172384579999999      4.0800360099999997
   373   1             16.28710517      21.144207460000001      4.0875971800000004
   374   1             20.41389023             21.06052051      4.1545316200000002
   375   1      24.428573549999999             21.18767089      4.2098762399999998
   376   1      28.411660489999999             21.14531457      3.9915689400000001
   377   1      1.9694059100000001      24.605457739999999      4.1488375599999996
   378   1               6.0564133             24.56153291              4.12777539
   379   1             10.12646052      24.522359170000001              4.05365792
   380   1      14.217804149999999             24.73688727      4.1330094700000002
   381   1      18.217850970000001      24.680248809999998      4.0306959899999999
   382   1      22.209512480000001             24.66489198      4.0246784800000004
   383   1             26.45726629      24.594147979999999              4.04557112
   384   1      30.515886609999999      24.643818100000001      4.1673413300000002
   385   1      1.9131924499999999      1.1911497600000001      4.7779102599999996
   386   1      6.0383188900000002              1.14839439      4.8683700999999999
   387   1             10.07650434              1.21708057      4.9140880899999999
   388   1             14.10632041              1.25461672      5.0068691100000002
   389   1             18.24505169              1.21402195      5.0459051600000002
   390   1      22.248324480000001      1.1975684200000001      4.8026519600000004
   391   1      26.354271820000001      1.2374333099999999      4.9152353800000004
   392   1             30.44726258      1.1110374000000001      4.9390798800000004
   393   1  -0.0038017599999999999      4.7291817800000002      4.9011169299999997
   394   1      4.1141143900000001      4.6137998600000003      4.8946415999999999
   395   1      8.1144386199999996      4.6485709100000001      4.8491033000000003
   396   1      12.214948250000001              4.58643395      4.8323784600000002
   397   1             16.20085718      4.6766635299999999      4.9087264900000003
   398   1      20.264486640000001      4.6403634900000004      4.9797071099999997
   399   1      24.190458599999999      4.7106241000000004      4.8627083999999998
   400   1      28.480527850000001      4.7537916500000001      4.9490349699999996
   401   1              1.97661675      8.2112477599999991      4.8284946299999998
   402   1      6.1612221099999998      8.1347302900000003      4.9152944099999996
   403   1             10.08346394      8.2042538199999999      4.8999835599999999
   404   1             14.19355189      8.0499282999999995      4.8981064600000002
   405   1      18.389611169999998      8.2152449399999998      4.7746613399999998
   406   1             22.33134119      8.2570184100000006      4.8141337399999999
   407   1             26.30585735      8.2113901800000004      4.8250658800000004
   408   1      30.324854389999999      8.1964914499999999      4.9177709500000004
   409   1   0.0094986600000000008             11.64792304      4.7687452700000001
   410   1      3.9710787600000002      11.552065819999999      4.8992575499999997
   411   1      8.1155849500000006             11.75890487      4.7778186700000003
   412   1      12.181068310000001             11.70932241      4.8622025400000002
   413   1      16.173184110000001      11.548003420000001      4.8827190199999997
   414   1      20.215955730000001             11.70684339      4.8558551999999997
   415   1      24.271896009999999      11.727736650000001      4.9214415499999999
   416   1      28.392416050000001             11.71096019      4.8193377999999996
   417   1              2.03227746             15.34848491      4.8586965800000002
   418   1      6.1520161800000004              15.1414045      4.9467706800000002
   419   1      10.213506000000001             15.19813312      4.8761346100000003
   420   1             14.24927404      15.094394749999999      4.9277789299999997
   421   1      18.230554340000001             15.28418664      4.7877001200000002
   422   1      22.348964240000001             15.29925016      4.9998234400000001
   423   1      26.282605029999999      15.217636860000001      4.9297384600000003
   424   1             30.31026584             15.26306398      4.8932420299999997
   425   1             32.51648033      18.827034149999999      4.9230899600000004
   426   1      4.1107858300000002             18.76713771      4.8817632800000004
   427   1              8.10820513      18.757769230000001              4.94217437
   428   1             12.17035997      18.820739889999999      4.9123576099999999
   429   1      16.109385060000001      18.805486380000001      4.8589659699999999
   430   1      20.357555189999999             18.73077284      4.8968907100000001
   431   1      24.355165589999999      18.840852810000001      4.9100534600000003
   432   1      28.285280579999998      18.824152529999999      4.9070588199999996
   433   1      2.0293838499999999      22.311867620000001      4.9720087099999999
   434   1      6.0579968600000003      22.261887300000001      5.0690976000000001
   435   1      10.097432489999999      22.216127289999999      4.9604665900000002
   436   1      14.157582870000001      22.278339899999999      5.0026246399999996
   437   1      18.303675720000001             22.31693667              4.97752237
   438   1      22.362115280000001      22.231379830000002      4.9202125099999998
   439   1      26.537067279999999      22.385815439999998      5.0132104699999998
   440   1      30.517987949999998      22.127061600000001      4.8984325899999996
   441   1    0.045619130000000001             25.81061047      4.9219603100000002
   442   1      4.0448075499999998      25.862958559999999      5.0077257299999998
   443   1      8.0643776099999993             25.66053295      5.0873879500000001
   444   1              12.2094731             25.85995861              4.96096717
   445   1             16.26348724      25.850941779999999      4.8866797200000001
   446   1             20.20637528             25.78329914      4.8411907999999997
   447   1      24.379869410000001             25.72014313      4.9360488599999996
   448   1      28.507172870000002      25.800992189999999      4.9507642299999999
   449   1      32.308341650000003      2.4257941600000001      5.7915007799999998
   450   1      4.0568813400000003      2.2998219500000001      5.6576180000000003
   451   1      8.0499531900000001      2.3794696000000002      5.8024282400000002
   452   1      12.060748540000001      2.4400881499999998      5.7376225200000004
   453   1      16.233516959999999      2.3964849699999999      5.7711633899999999
   454   1      20.360811160000001              2.29410976      5.7680254700000004
   455   1      24.311764849999999      2.3401929899999998      5.7923529299999998
   456   1      28.370323559999999      2.4068538199999998      5.8018476100000003
   457   1      1.9996246200000001      5.8062147399999997      5.6088362500000004
   458   1      6.0511223899999997      5.7556495300000003      5.7832053200000004
   459   1             10.12403469      5.8439291300000002      5.6072266500000003
   460   1             14.19595704      5.7627284899999998      5.6884554400000003
   461   1      18.287787510000001      5.8594853699999998      5.7974338799999998
   462   1      22.259312479999998      5.8478377500000001      5.7125746099999999
   463   1      26.337776640000001      5.8440358000000003      5.7179745799999999
   464   1             30.36336288      5.8878227699999997      5.7615363300000002
   465   1             -0.15348396      9.3714378699999994      5.6421765700000002
   466   1      3.9823567500000001      9.2256380100000008      5.6478563199999998
   467   1      8.0477588099999995      9.3862918900000007      5.7336384699999998
   468   1             12.21183948      9.3726816500000005      5.6691394300000004
   469   1             16.19062272      9.2983011900000001      5.6597597500000001
   470   1      20.307503029999999      9.3884346300000008      5.6733325800000003
   471   1      24.310681259999999      9.3312120200000006      5.7820392500000004
   472   1              28.3472051      9.3213941299999998      5.7467984300000001
   473   1      2.0409620300000002              12.8829086      5.5372041100000002
   474   1      6.0618114199999997      12.850648039999999      5.6974159200000001
   475   1      10.142133360000001      12.951543320000001              5.84519506
   476   1             14.20134052      12.850697970000001      5.7340859100000001
   477   1      18.290840549999999             12.86992654              5.60939634
   478   1      22.312678389999999             12.81711696      5.6023349500000004
   479   1      26.375004149999999             12.93886273      5.7204564299999996
   480   1      30.471652479999999             12.94649637      5.6348172400000003
   481   1      32.456201309999997      16.476258640000001      5.8120088599999997
   482   1      4.1457453299999996      16.319267929999999      5.7853112700000002
   483   1      8.1837870099999996             16.39684192      5.6265997099999998
   484   1              12.2429477      16.286616739999999      5.8020969300000003
   485   1             16.10870457      16.375127339999999      5.7777269999999996
   486   1             20.26799282      16.452632659999999      5.7807089899999999
   487   1             24.42782394      16.503599699999999      5.6325848499999998
   488   1      28.307016449999999      16.460882850000001      5.6987247400000003
   489   1      2.1075372200000002      19.877566170000001      5.7929603199999997
   490   1      6.0136691999999998      19.881651949999998      5.8686041900000001
   491   1             10.22919744      19.954172639999999      5.7703298600000004
   492   1             14.25229524      19.939175509999998      5.7912211400000002
   493   1      18.263898180000002      19.896947740000002      5.7181670899999997
   494   1      22.267529509999999      20.011814449999999      5.7688307400000003
   495   1      26.356291540000001      19.956333820000001      5.6629200099999997
   496   1      30.440919109999999      19.769665190000001      5.7175431899999998
   497   1               0.0141155             23.53965105      5.7343397300000003
   498   1      3.9869951299999999             23.49638757      5.7991681599999998
   499   1      8.0714834799999995      23.288285510000001      5.9132668199999996
   500   1             12.08125429             23.48421754      5.7198073100000002
   501   1             16.15159731             23.41043827      5.7995645199999997
   502   1      20.291000400000001      23.457130320000001      5.7010084000000001
   503   1      24.379893490000001      23.342214559999999      5.7389934199999999
   504   1      28.497516869999998      23.447958799999999      5.7199857700000001
   505   1      1.9464077500000001      27.039152739999999              5.73794176
   506   1      6.0025113399999999      26.968655080000001      5.7948653400000003
   507   1             10.08106078             27.04870841      5.7351978700000004
   508   1      14.152647630000001      27.038829329999999      5.6412803800000004
   509   1             18.27281516      27.004409259999999      5.7544971199999999
   510   1      22.297252539999999             26.99376474      5.7336840599999999
   511   1      26.333857299999998             26.92502666      5.7442935300000002
   512   1      30.554791590000001      26.891973029999999      5.7805607600000002
   513   1   -0.055636959999999999      28.123560439999999      6.6460416200000001
   514   1      4.0244803999999998      28.184770910000001      6.5134434099999998
   515   1      8.0266485700000008      28.116576640000002      6.6597756800000001
   516   1             12.00896464             28.22342707      6.4195505600000002
   517   1      16.169846849999999    0.058986240000000002      6.5242839500000001
   518   1      20.255469439999999    0.046078139999999997              6.62718644
   519   1      24.366106309999999   -0.036853259999999999      6.5368228000000004
   520   1      28.328098839999999      28.059596760000002      6.6557350199999998
   521   1              2.06949834      3.5479952199999998              6.44919537
   522   1      6.0549997700000002              3.40427905      6.6122351999999998
   523   1             10.04606321      3.5532946700000001      6.5239655000000001
   524   1      14.172370369999999      3.5095349499999999      6.5362277600000001
   525   1      18.246786709999999      3.5518288099999999      6.5994297399999997
   526   1      22.288953930000002      3.4607532999999999              6.53651844
   527   1             26.37748341              3.51166242      6.5882816100000001
   528   1      30.364539529999998      3.5798058500000001      6.5671452199999996
   529   1             -0.01121631      7.0921803700000003      6.5842004300000001
   530   1              4.12295284      6.8587294400000003      6.5205639399999997
   531   1      8.1275286100000006      7.0414447400000002      6.5392348299999998
   532   1             12.20198203      7.0726483800000004      6.5494809199999997
   533   1      16.342528250000001              7.00605967      6.5237905200000004
   534   1      20.309635709999998              7.00035557      6.5654845899999996
   535   1      24.340082649999999      6.9024198099999996      6.5407399499999999
   536   1      28.374835740000002      6.9596414400000004      6.5780183799999996
   537   1              1.96778152             10.43234977      6.4053827999999999
   538   1      6.0219974399999998      10.439238980000001      6.5486611999999997
   539   1             10.12276095      10.571186839999999      6.6686675800000002
   540   1      14.246140280000001             10.51644231      6.6964912999999999
   541   1             18.19552152             10.58753115      6.4991204900000001
   542   1             22.26750505      10.550393189999999              6.58427775
   543   1      26.301152519999999      10.530379529999999      6.5484948100000002
   544   1             30.43910752      10.644975929999999      6.6628670999999997
   545   1             32.51501768             14.10672855      6.5688344299999999
   546   1      4.0100943100000004             13.98073392      6.5521929700000001
   547   1      8.1337685999999998             13.98372262      6.6163386199999996
   548   1      12.280554329999999      13.967338639999999      6.6272556399999996
   549   1             16.23421712             13.95673373      6.5267320399999997
   550   1      20.187632560000001             14.06940846      6.3938689200000001
   551   1      24.341316710000001      14.115391000000001      6.5531386100000004
   552   1      28.380313189999999             13.98433365      6.5187370299999996
   553   1      2.1092092899999999      17.507862240000001      6.6066341700000004
   554   1      6.1026507800000003             17.53784121              6.58483295
   555   1      10.185527069999999      17.621821229999998      6.5039505499999999
   556   1             14.23099157      17.569795379999999      6.4598767500000003
   557   1      18.302683869999999      17.591206809999999      6.5879453100000003
   558   1      22.272241449999999      17.619858780000001      6.5061028399999996
   559   1      26.336216579999999             17.62252368      6.5309858299999997
   560   1      30.393703219999999      17.531405769999999              6.52299907
   561   1    0.087609119999999999      21.164834500000001      6.5509465699999998
   562   1      3.9812628399999999      21.117383400000001      6.5626440400000003
   563   1               7.9940612      20.935794130000001      6.6972312000000001
   564   1             12.21216401      21.074522640000001      6.6287605000000003
   565   1      16.127769399999998      21.150349649999999      6.5364528100000001
   566   1             20.25531041             21.26023752      6.6376990899999999
   567   1             24.40041394      21.153946250000001              6.67208018
   568   1             28.32455521      21.202155009999998      6.4986702000000003
   569   1      1.9914765800000001      24.655906810000001      6.7314838000000004
   570   1              6.00501504      24.569850089999999      6.7141143799999998
   571   1      9.9215110699999993      24.536130270000001      6.5605409899999998
   572   1             14.16908499      24.782639469999999      6.7074034200000003
   573   1      18.276810619999999      24.665130300000001      6.5470827399999996
   574   1      22.431834169999998             24.66786999      6.4058366500000004
   575   1      26.321900079999999             24.54715277      6.6224413499999999
   576   1      30.502590730000001      24.471231629999998      6.6435394099999998
   577   1      1.9701033999999999      1.1979690700000001      7.4197764299999998
   578   1      6.0176863300000001      1.1377463400000001              7.47240254
   579   1      10.015580720000001      1.1711603399999999               7.5077441
   580   1             14.04545682              1.26502534      7.4389246800000004
   581   1             18.12141368      1.2405144100000001      7.5298190900000002
   582   1      22.426045290000001              1.18435695      7.5576399600000004
   583   1      26.331424550000001              1.17612191               7.5389301
   584   1      30.439681140000001      1.3314881000000001      7.4556004900000001
   585   1   0.0066083299999999999      4.6883212299999997      7.4964522699999998
   586   1      4.0370060499999996      4.5901063999999998      7.5094000599999999
   587   1      8.0807663200000004      4.7091913700000001      7.5356927799999998
   588   1      12.156747380000001              4.70160789      7.3328403800000004
   589   1             16.10773069      4.6258633700000003      7.6568526099999996
   590   1      20.168429620000001      4.6425058400000001      7.6297352800000002
   591   1      24.303343739999999               4.6172955      7.6391323800000004
   592   1      28.399399930000001      4.6194512300000001      7.5788728599999997
   593   1              1.99375488      8.1619853899999999      7.4178312000000002
   594   1              6.03477248      8.1252984500000007              7.44928627
   595   1             10.18309288      8.2310900100000008      7.5168560600000003
   596   1      14.144478080000001      8.1326564599999998      7.4416152000000002
   597   1      18.324529989999998              8.34998358      7.3951764999999998
   598   1             22.41348004      8.2533820200000001      7.4398222399999998
   599   1             26.24731019      8.1758459899999991      7.4250722099999997
   600   1      30.503200589999999      8.2904969899999994      7.6181571899999998
   601   1    0.013848849999999999             11.71897528      7.3111059699999998
   602   1      4.0005628499999997      11.597775650000001      7.4273880300000004
   603   1      8.1094736600000008              11.5915154      7.4653384300000001
   604   1      12.156127339999999             11.70863492      7.6552349199999998
   605   1      16.200970210000001              11.7447345      7.5536592499999999
   606   1      20.206965189999998             11.76183973      7.4688904100000002
   607   1      24.194685159999999      11.791613870000001      7.5089219099999998
   608   1              28.3821355              11.7022747      7.4425629400000002
   609   1      2.0362183699999998              15.2351735      7.6974920200000003
   610   1      5.9751632099999998      15.239520730000001      7.5368260400000002
   611   1             10.24230051      15.186640860000001      7.4829155700000003
   612   1             14.29037346      15.260863479999999      7.4712592899999999
   613   1      18.237001759999998             15.28206554      7.4127466699999998
   614   1      22.342328999999999      15.337759030000001              7.46332065
   615   1             26.35924915             15.23002537      7.5140155799999997
   616   1             30.40470938             15.27804304      7.4759633699999997
   617   1      32.488232250000003      18.733726780000001              7.50062578
   618   1      4.1890146499999998      18.765383159999999      7.4921684400000004
   619   1      8.2208759100000002      18.570649240000002      7.6022599099999999
   620   1             12.15483981             18.58616563      7.4311882000000002
   621   1      16.232905479999999             18.80089821      7.4521398100000003
   622   1             20.32051182      18.902045780000002      7.5091125099999996
   623   1      24.243634199999999      18.725005679999999      7.5592990599999998
   624   1      28.350669620000001             18.81503008              7.44998833
   625   1              2.07273642             22.31586089      7.6540537200000003
   626   1      6.2330458699999998      22.232509189999998      7.6905502600000002
   627   1               10.132299      22.101484129999999              7.56943886
   628   1      14.039727239999999             22.46182237      7.6338059500000002
   629   1      18.186908389999999      22.272170110000001      7.5386825200000001
   630   1             22.34894203             22.33697862      7.5292081800000004
   631   1      26.305947920000001             22.35079498      7.6051116199999997
   632   1             30.54177018      22.202432430000002              7.43090546
   633   1   -0.058200080000000001             25.78724038      7.6160419499999996
   634   1      4.0574175600000002             25.79074069      7.6372170099999996
   635   1      8.0937724899999992      25.645916570000001      7.6465547200000001
   636   1             12.00386943      25.863389730000002      7.5268490699999999
   637   1      16.267241729999999      25.806033379999999      7.4692654000000003
   638   1             20.14993295             25.95403713      7.4962844999999998
   639   1      24.280742750000002             25.81799105      7.4881860400000004
   640   1      28.412695159999998      25.697165649999999              7.33703138
   641   1              0.04190236      2.3711942000000001      8.2680859200000008
   642   1      4.0206375899999998      2.3604026999999999      8.1439413399999996
   643   1      8.0072938199999992              2.45086519      8.2551269499999993
   644   1      12.124890219999999      2.4460274399999999      8.1891539899999994
   645   1      16.149758569999999              2.29448045      8.2667398500000004
   646   1      20.260195599999999      2.2932204700000001      8.2116570499999995
   647   1              24.4077731      2.4342685999999998      8.3532597800000001
   648   1      28.436258110000001      2.2660111999999999      8.1523575000000008
   649   1      1.9729266999999999      5.9117946200000002      8.1466974699999994
   650   1              6.15514224      5.7796979400000001      8.1935726599999992
   651   1      10.207116689999999      5.8133164600000002      8.0768427999999997
   652   1      14.171916080000001      5.7773820599999999      8.0929237999999994
   653   1             18.23802397      5.9202847500000004      8.2065035999999996
   654   1      22.323207929999999              5.85425576      8.1508311100000004
   655   1      26.356245170000001      5.9360791700000002      8.0918093399999993
   656   1             30.43816232      5.9918286500000004      8.1519768799999994
   657   1    0.080737519999999993      9.3674008200000003      8.1342359000000002
   658   1      3.9182915299999999      9.1744001399999995      8.2112687999999991
   659   1      8.0360987599999998      9.1949415600000002      8.1590535000000006
   660   1      12.048829209999999      9.4197906600000003      8.1757532899999994
   661   1      16.236005479999999      9.3627946000000009      8.1296688600000007
   662   1      20.347898350000001      9.4497585599999994      8.2091543599999994
   663   1      24.411531620000002      9.4861142199999993      8.2886723599999996
   664   1      28.365271249999999      9.3536310399999998      8.1883057200000007
   665   1              1.98696764             12.79230016      8.2071984800000006
   666   1      5.9627885300000001             12.74079925      7.9819421000000004
   667   1             10.14273955             12.82239156      8.3118176399999992
   668   1             14.23919562             12.98225281      8.3642046000000008
   669   1             18.16034033      12.960109579999999      8.1709048299999996
   670   1             22.24346263             12.99965227      8.0634756700000008
   671   1             26.35502017      12.877255720000001      8.0783143400000004
   672   1      30.347111380000001             12.86577071      7.9481517300000002
   673   1      32.397450370000001      16.404418840000002      8.2659184099999994
   674   1      4.0619565900000003             16.45183119      8.2106587900000001
   675   1      8.1976910499999995      16.181693299999999      8.0267078099999996
   676   1      12.289010340000001      16.389437839999999      8.2353282599999993
   677   1             16.17663323      16.497920440000001      8.1032566300000006
   678   1      20.204687239999998      16.430831489999999      8.1255100000000002
   679   1      24.325609050000001      16.324828870000001      8.2087209100000003
   680   1      28.297511360000001      16.244604219999999      8.1845676899999997
   681   1      2.0472128399999998      19.916410620000001      8.2178130899999999
   682   1      6.1338616100000003      19.889908609999999      8.3514790899999998
   683   1             10.30055756             19.72891572      8.2922230300000006
   684   1      14.101419379999999             20.08729829      8.2156571399999994
   685   1      18.275107980000001      19.945230330000001      8.2047916000000001
   686   1             22.31527277      20.056911700000001      8.1879956499999995
   687   1      26.265366700000001             19.94315263      8.2038540399999995
   688   1      30.424766040000002      19.834314379999999      8.1016980600000004
   689   1      32.418767680000002      23.466934989999999      8.3300479599999999
   690   1      4.0555492199999996      23.307504510000001      8.2432357199999995
   691   1      8.2461629700000003      23.357474320000001      8.3547550299999997
   692   1              12.0017283             23.59695675      8.1233952800000004
   693   1             16.16412665      23.504941259999999      8.2586747099999993
   694   1      20.328174600000001      23.563123390000001      8.0349604899999996
   695   1      24.364483409999998             23.44983487      8.2248536600000008
   696   1             28.51077832      23.473135979999999      8.1314041100000001
   697   1      1.9847731399999999             26.98481456      8.1503841000000001
   698   1      6.1611262900000003             26.95693979      8.3310311699999993
   699   1             10.05062066      27.030985090000001              8.25507013
   700   1      14.174179179999999      26.962560589999999      8.1190406199999998
   701   1      18.157952040000001      26.917524310000001              8.20613569
   702   1      22.227469840000001      27.029085760000001      8.0486685599999994
   703   1      26.275271849999999              26.9780272      8.1981242999999999
   704   1      30.425754090000002      27.004454330000002      8.2354793599999994
   705   1    0.018483340000000001             -0.13777149      9.0718188899999994
   706   1      3.9902918500000002             28.03891612      8.8225221400000002
   707   1      8.0922158300000007             28.20898197      8.9474029099999992
   708   1             12.21876469   -0.030858400000000001      8.9028575799999992
   709   1      16.178626019999999             28.07714799      9.0569575199999992
   710   1             20.35734515    -0.11718861999999999      9.0418288100000002
   711   1              24.3207731   -0.044113050000000001      9.0413381800000003
   712   1      28.358108219999998      27.963049779999999      8.9939820299999997
   713   1              2.08849521      3.5796316300000002      8.9016411400000006
   714   1      5.9636316200000001               3.4131307      9.0457973099999993
   715   1      9.9965145399999997      3.5866899299999999      8.8551777900000008
   716   1             14.17768281      3.4106079299999998      9.1537521999999996
   717   1      18.235612660000001      3.5026594700000002      8.9907576299999992
   718   1             22.20291675      3.5472859300000001      9.0395762099999999
   719   1      26.489782829999999              3.48079888      8.8164581999999996
   720   1             30.25848358      3.6068622399999999      8.9762051300000003
   721   1      32.513328629999997      6.9275683800000003      8.8792364199999998
   722   1      4.0257357100000002      6.6871195999999999      8.9808000499999991
   723   1      8.2653206400000006              6.82416307      9.0611168899999992
   724   1             12.32516972      7.1300453099999999      8.9104327899999998
   725   1      16.063378620000002      7.2176990400000003      8.8504884399999995
   726   1      20.439903829999999      7.2293709100000001      8.9458520299999993
   727   1      24.263805319999999              7.06486942              8.91275613
   728   1             28.35409228      6.9694403200000004      8.9005543300000003
   729   1              1.98153869             10.52942286      8.7499649399999999
   730   1      5.9609096299999997      10.455921010000001      8.9579890500000001
   731   1      9.8650158700000006      10.338665389999999      9.1373453399999995
   732   1      14.139924629999999             10.46207253      9.0901285299999994
   733   1      18.242083730000001              10.5238786      8.8402545499999992
   734   1      22.442250850000001             10.77979652      9.0173922799999993
   735   1      26.467044470000001             10.60123705      8.8813864999999996
   736   1      30.533870239999999      10.600485839999999      8.9592831999999998
   737   1    -0.16767689999999999      13.947396250000001      8.9205514299999997
   738   1              4.00869578             14.05386489      8.9168997399999999
   739   1      7.9097411400000004             13.80624136      8.9304613499999999
   740   1             12.13803991             13.99934929      8.9741117799999994
   741   1      16.093707909999999      14.145636919999999      9.0455216800000002
   742   1             20.26222624      13.999413970000001      8.9001754599999998
   743   1      24.375755600000002             13.91677698      9.0759919599999996
   744   1      28.501296589999999             13.92698513      8.9855925800000005
   745   1              2.07237852             17.53510099      8.9627460299999999
   746   1      6.3439817500000002      17.388435430000001      8.9108950100000008
   747   1      10.118746829999999             17.15683494      8.9878878499999999
   748   1      14.216303610000001      17.829205559999998      8.9224623300000001
   749   1      18.409389440000002      17.673780820000001      8.9884394600000004
   750   1      22.293040980000001             17.56558953      8.8274343900000005
   751   1      26.403987189999999             17.60670653      8.8697255800000008
   752   1             30.13899588      17.663456100000001      8.9824776100000001
   753   1      32.463446089999998      20.948128059999998      8.8843668900000008
   754   1      4.1547254000000002      21.190817840000001      9.0531874299999995
   755   1      8.2806673199999992             21.01156469      9.1430957300000006
   756   1             12.06283659             21.30713763      8.9416559899999992
   757   1      16.158225739999999             21.13216426      9.0127557500000002
   758   1              20.1331393             21.24366985      8.9916899499999996
   759   1      24.279712610000001      21.175513479999999      9.0256658499999993
   760   1      28.356256309999999      21.088871619999999      8.8062959099999993
   761   1      1.8745475199999999      24.770403779999999      9.1550788300000008
   762   1      5.9944035900000001      24.498745249999999      8.9960808599999993
   763   1             10.07163495      24.817517930000001      9.0568666800000006
   764   1      14.028971820000001             24.74264281      9.0456551699999999
   765   1             18.33605751              24.4543073      8.9981991800000003
   766   1      22.339032929999998             24.76269585      8.9710315600000001
   767   1      26.351093559999999             24.69689451      9.0007014600000002
   768   1             30.27270811      24.673337270000001      9.0379555299999996
   769   2             29.25235434      26.208342259999998              9.26345332
   770   2      27.482555739999999             26.12999593      9.2275967899999998
