N2-dn2-coord-10bar/700K/snapshots/frame-158329/run-000/../data.lammps (written by ASE) 

770 	 atoms 
2  atom types
0.0      32.470343392086264  xlo xhi
0.0      28.120142247150884  ylo yhi
0.0      31.213473999158239  zlo zhi


Atoms 

     1   1      2.0293964600000001      1.1716090800000001    0.023552650000000001
     2   1      6.0880008999999999              1.17168918              0.02556874
     3   1      10.146952280000001              1.17170328    0.025416459999999998
     4   1      14.205754900000001      1.1716496700000001              0.02501565
     5   1             18.26456816              1.17166478              0.02504435
     6   1             22.32338141      1.1716496700000001              0.02501565
     7   1      26.382184030000001              1.17170328    0.025416459999999998
     8   1      30.441135410000001              1.17168918              0.02556874
     9   1  9.1780000000000006e-05      4.6866847900000002    0.025581599999999999
    10   1      4.0587011400000002      4.6866847900000002    0.025581599999999999
    11   1      8.1174961000000003      4.6866290399999997    0.025584639999999999
    12   1             12.17638011      4.6866852999999997              0.02491202
    13   1             16.23517979      4.6866942700000003    0.025006210000000001
    14   1      20.293956519999998      4.6866942700000003    0.025006210000000001
    15   1      24.352756209999999      4.6866852999999997              0.02491202
    16   1      28.411640219999999      4.6866290399999997    0.025584639999999999
    17   1      2.0293964600000001      8.2016395800000002    0.026613040000000001
    18   1      6.0881071599999999      8.2016314300000008              0.02543782
    19   1             10.14701835               8.2017045    0.025156850000000001
    20   1      14.205766049999999      8.2017080900000003    0.024990459999999999
    21   1             18.26456816      8.2017077599999997    0.025091249999999999
    22   1      22.323370260000001      8.2017080900000003    0.024990459999999999
    23   1      26.382117969999999               8.2017045    0.025156850000000001
    24   1      30.441029149999999      8.2016314300000008              0.02543782
    25   1  9.2789999999999998e-05             11.71671873    0.025573410000000001
    26   1              4.05870014             11.71671873    0.025573410000000001
    27   1      8.1176017700000003             11.71668698              0.02497914
    28   1             12.17637068             11.71673069    0.025001590000000001
    29   1      16.235177310000001      11.716730249999999    0.025074039999999999
    30   1      20.293959009999998      11.716730249999999    0.025074039999999999
    31   1      24.352765640000001             11.71673069    0.025001590000000001
    32   1      28.411534549999999             11.71668698              0.02497914
    33   1      2.0293964600000001             15.23167155              0.02525285
    34   1      6.0881728300000004      15.231678799999999    0.025062859999999999
    35   1             10.14698486      15.231762639999999               0.0250786
    36   1             14.20578841             15.23176782    0.025201990000000001
    37   1             18.26456816              15.2317707    0.025149979999999999
    38   1      22.323347900000002             15.23176782    0.025201990000000001
    39   1      26.382151459999999      15.231762639999999               0.0250786
    40   1      30.440963480000001      15.231678799999999    0.025062859999999999
    41   1      32.470327990000001      18.746748629999999    0.024951939999999999
    42   1      4.0588083299999997      18.746748629999999    0.024951939999999999
    43   1      8.1175770200000006      18.746803499999999    0.025222040000000001
    44   1             12.17637459      18.746799750000001    0.025428470000000002
    45   1      16.235159400000001      18.746805200000001    0.025487360000000001
    46   1      20.293976919999999      18.746805200000001    0.025487360000000001
    47   1      24.352761730000001      18.746799750000001    0.025428470000000002
    48   1             28.41155929      18.746803499999999    0.025222040000000001
    49   1      2.0293964600000001      22.261939099999999    0.025844880000000001
    50   1      6.0881419299999999      22.261841799999999    0.025489439999999999
    51   1             10.14692954             22.26176895              0.02551757
    52   1             14.20573559      22.261804690000002    0.025639160000000001
    53   1             18.26456816             22.26178625    0.025640119999999999
    54   1      22.323400729999999      22.261804690000002    0.025639160000000001
    55   1      26.382206780000001             22.26176895              0.02551757
    56   1             30.44099439      22.261841799999999    0.025489439999999999
    57   1  5.6450000000000003e-05      25.776936450000001              0.02613327
    58   1      4.0587364700000004      25.776936450000001              0.02613327
    59   1      8.1175325399999991              25.7767713    0.024734180000000001
    60   1      12.176376469999999      25.776831090000002              0.02545323
    61   1      16.235145939999999      25.776775220000001    0.025273360000000002
    62   1             20.29399038      25.776775220000001    0.025273360000000002
    63   1      24.352759840000001      25.776831090000002              0.02545323
    64   1      28.411603769999999              25.7767713    0.024734180000000001
    65   1  0.00024266000000000001              2.34304215     0.80166565000000001
    66   1      4.0585502699999996              2.34304215     0.80166565000000001
    67   1      8.1157394600000003              2.34454954     0.80169402000000001
    68   1             12.17601256      2.3433829099999999     0.80116898000000003
    69   1      16.235258170000002      2.3433209100000001     0.80090046999999998
    70   1      20.293878150000001      2.3433209100000001     0.80090046999999998
    71   1      24.353123750000002      2.3433829099999999     0.80116898000000003
    72   1      28.413396859999999              2.34454954     0.80169402000000001
    73   1      2.0293964600000001      5.8582218700000004     0.80119762000000005
    74   1      6.0870566899999998      5.8583336700000004              0.80194851
    75   1             10.14649655              5.85853131     0.80121584000000001
    76   1             14.20597894      5.8582938599999999     0.80086840999999998
    77   1             18.26456816      5.8583798500000004               0.8010794
    78   1      22.323157380000001      5.8582938599999999     0.80086840999999998
    79   1             26.38263976              5.85853131     0.80121584000000001
    80   1      30.442079629999999      5.8583336700000004              0.80194851
    81   1  0.00019438999999999999      9.3717771800000005     0.80082061000000004
    82   1      4.0585985400000002      9.3717771800000005     0.80082061000000004
    83   1      8.1175070500000004      9.3725002699999997     0.80149060999999999
    84   1      12.176590020000001      9.3733583399999993     0.80088261999999999
    85   1             16.23512199      9.3733789200000004              0.80106506
    86   1             20.29401433      9.3733789200000004              0.80106506
    87   1      24.352546289999999      9.3733583399999993     0.80088261999999999
    88   1      28.411629269999999      9.3725002699999997     0.80149060999999999
    89   1      2.0293964600000001             12.88692854     0.80220621000000003
    90   1      6.0883212999999996             12.88743848     0.80138414999999996
    91   1      10.147128609999999             12.88859852     0.80085256000000005
    92   1             14.20571782      12.888558189999999     0.80113791000000001
    93   1             18.26456816      12.888409899999999     0.80109381000000002
    94   1      22.323418490000002      12.888558189999999     0.80113791000000001
    95   1             26.38200771             12.88859852     0.80085256000000005
    96   1      30.440815019999999             12.88743848     0.80138414999999996
    97   1              0.00012365      16.403222639999999     0.80145666999999998
    98   1      4.0586692700000002      16.403222639999999     0.80145666999999998
    99   1      8.1174337899999998      16.403825260000001     0.80097196999999998
   100   1              12.1761021             16.40390721     0.80133072000000005
   101   1             16.23503496      16.403861750000001     0.80140014999999998
   102   1      20.294101359999999      16.403861750000001     0.80140014999999998
   103   1      24.353034220000001             16.40390721     0.80133072000000005
   104   1      28.411702529999999      16.403825260000001     0.80097196999999998
   105   1      2.0293964600000001      19.919205120000001     0.80066369999999998
   106   1              6.08752564             19.91894023     0.80122479000000002
   107   1      10.146078839999999             19.91919038     0.80159137999999996
   108   1      14.204993419999999              19.9192584     0.80178742000000003
   109   1             18.26456816      19.919377350000001     0.80194975999999996
   110   1      22.324142899999998              19.9192584     0.80178742000000003
   111   1      26.383057470000001             19.91919038     0.80159137999999996
   112   1      30.441610669999999             19.91894023     0.80122479000000002
   113   1              0.00142012      23.434536609999999     0.80178442000000005
   114   1      4.0573728100000004      23.434536609999999     0.80178442000000005
   115   1      8.1165862000000004      23.433936769999999     0.80182306000000003
   116   1             12.17555218      23.433996919999998     0.80156656000000004
   117   1             16.23465491      23.434040110000002     0.80170828999999999
   118   1      20.294481409999999      23.434040110000002     0.80170828999999999
   119   1      24.353584130000002      23.433996919999998     0.80156656000000004
   120   1      28.412550110000002      23.433936769999999     0.80182306000000003
   121   1      2.0293964600000001      26.949875330000001              0.80297246
   122   1      6.0858208300000003      26.950066320000001              0.80215291
   123   1             10.14598146      26.949241430000001     0.80165810000000004
   124   1             14.20520604      26.948673230000001     0.80131923999999999
   125   1             18.26456816             26.94858318     0.80108193999999999
   126   1      22.323930279999999      26.948673230000001     0.80131923999999999
   127   1      26.383154860000001      26.949241430000001     0.80165810000000004
   128   1             30.44331549      26.950066320000001              0.80215291
   129   1              0.10115041   -0.062463089999999999              1.57562223
   130   1               4.1182124    0.033463939999999998      1.4853928700000001
   131   1      8.0549794499999994   -0.023405809999999999      1.4287234799999999
   132   1      12.067679139999999    0.055902439999999998      1.5977334000000001
   133   1             16.44720057             28.11719772      1.4065270400000001
   134   1      20.374059290000002    0.024266619999999999              1.37511794
   135   1      24.303222479999999             -0.01604616      1.4396600500000001
   136   1      28.575236019999998              0.07619948              1.37678751
   137   1      2.2038373199999999              3.57134127              1.58049382
   138   1      6.0945202700000003              3.60156403              1.55232415
   139   1             10.00920313      3.6070852200000001      1.3755460500000001
   140   1      14.153054600000001      3.4706741399999999               1.4661073
   141   1      18.118541480000001      3.3604064199999999              1.62514073
   142   1      22.406506369999999      3.5880118200000002              1.57208528
   143   1      26.348765610000001      3.6263403200000002               1.5043887
   144   1      30.195525060000001      3.4561221799999999              1.65728352
   145   1      32.321029719999999              7.09192483      1.2858726899999999
   146   1      4.0362471900000001      7.0990752600000002      1.5892436299999999
   147   1      8.1805202599999998              7.19678664              1.65313591
   148   1      12.102699449999999      6.9561735799999997              1.55844027
   149   1             16.28012691      7.2024146399999998              1.56837721
   150   1      20.284742999999999      7.0986907099999996      1.4115990599999999
   151   1             24.41619287      7.0208197999999999              1.57060222
   152   1             28.40383585      6.8227845299999998      1.3858923400000001
   153   1      1.9848296700000001      10.630325470000001      1.5446380799999999
   154   1      6.1154773999999996             10.59124138      1.6712521199999999
   155   1      10.026409019999999      10.668680269999999                1.652352
   156   1             14.27633827      10.564098039999999      1.4027113899999999
   157   1             18.27890322             10.54656391      1.4559800000000001
   158   1      22.408963100000001             10.68319222      1.4333358300000001
   159   1      26.447662189999999      10.412694439999999              1.54478234
   160   1      30.420323539999998             10.51425951      1.5606867799999999
   161   1      32.515496499999998             14.01913176              1.38373693
   162   1              3.90179572             13.94954798      1.4752617800000001
   163   1      8.2404937799999995              14.0863923              1.46192539
   164   1             12.13909421      14.145564200000001      1.3702303499999999
   165   1             16.29339942             13.92748589      1.4711043800000001
   166   1      20.297774690000001              14.1127792      1.5409855800000001
   167   1             24.37494959             13.91669568      1.2983825899999999
   168   1      28.407721250000002             14.06751444              1.50315431
   169   1      2.1727864000000001      17.451132520000002              1.47211475
   170   1              6.01457701      17.538360390000001              1.35228653
   171   1      10.277177549999999             17.57375107              1.50293286
   172   1      14.235332769999999      17.581596659999999              1.36487355
   173   1      18.269933890000001             17.56816894      1.4872676199999999
   174   1      22.321366980000001      17.212142100000001      1.4205711599999999
   175   1      26.500961950000001      17.707149040000001              1.63543887
   176   1      30.440062149999999      17.443773709999999              1.16389813
   177   1             32.52687006      21.157990389999998              1.51306622
   178   1      3.9832088400000001      21.060220099999999              1.63936617
   179   1              8.07046186      21.088864619999999      1.4975505099999999
   180   1              12.2375287      21.191679870000002      1.4831244100000001
   181   1             16.11356177             21.16321404              1.35474015
   182   1             20.29206881      21.050559539999998              1.22064146
   183   1             24.23357991      21.025166500000001      1.4843320600000001
   184   1      28.350905439999998      20.981913930000001              1.63255325
   185   1              2.12315999      24.687810630000001              1.48182646
   186   1      6.0357464800000002      24.755240860000001      1.1597267600000001
   187   1      10.157563400000001      24.613552970000001              1.61433947
   188   1      14.180693809999999      24.621666439999998              1.51347487
   189   1      18.180553150000001      24.518584570000002              1.53860961
   190   1             22.33146726      24.481984239999999      1.4766146099999999
   191   1      26.258421380000001      24.716409779999999               1.5317124
   192   1      30.389735200000001              24.7112467      1.3864015300000001
   193   1      2.2564127599999999              1.28634984      2.5112405299999998
   194   1      6.1723025399999996              1.18477144      2.3357529499999998
   195   1             10.10123647              1.18460231      2.3690979099999998
   196   1      14.269731930000001              1.14744018      2.5097514900000002
   197   1      18.244602759999999     0.99967616000000004      2.5881482999999998
   198   1      22.375085850000001      1.1995973600000001      2.5110333100000002
   199   1             26.27345931              1.32561818              2.51663573
   200   1      30.428349659999999      1.1126015199999999              2.48630241
   201   1      32.303899250000001              4.72900996      2.3923695500000002
   202   1               4.0376325      4.9129960800000001      2.4900639500000001
   203   1      8.0905751000000006      4.7946726599999998              2.42589393
   204   1             11.89136294      4.5146518699999998      2.5882148200000001
   205   1      16.215739559999999      4.8298296399999998              2.32624005
   206   1             20.11974755      4.5075636000000001      2.3483181399999999
   207   1             24.35010583      4.6665598700000004               2.3309636
   208   1      28.404324190000001      4.5775203400000004      2.5022887100000002
   209   1      1.8956274500000001      8.0854881600000006      2.3600817799999998
   210   1      6.0254224699999996      8.3788391099999995      2.4594302199999998
   211   1      10.112570699999999              8.21169102      2.3887589999999999
   212   1      14.179183030000001      8.0955042499999994               2.3375203
   213   1      18.328158550000001      8.2168678600000007      2.4435255200000001
   214   1      22.327728230000002      8.2403910600000003      2.3749214300000001
   215   1      26.365234520000001      8.0642063799999999      2.4816774800000001
   216   1      30.390930310000002              8.24449963      2.2733893599999999
   217   1      32.438981259999998             11.64213075      2.3105035699999998
   218   1      4.0011315999999999             11.79874463      2.5441557600000002
   219   1      8.1459526100000001      11.681938649999999      2.5364879500000002
   220   1             12.09713539             11.72133043      2.4241891600000001
   221   1      16.347826900000001      11.735700680000001      2.3626649400000002
   222   1      20.350590180000001             11.54107904      2.4156069699999998
   223   1      24.593933490000001             11.79648012      2.3689584699999999
   224   1             28.35539653             11.67672552      2.4178822200000001
   225   1      2.0116815300000002             15.29436379              2.51226203
   226   1      6.0029905499999998      15.148207210000001              2.42952148
   227   1      10.157535660000001      15.257514309999999      2.5118804799999999
   228   1             14.33995045      15.202011710000001      2.3896081900000001
   229   1      18.360877769999998             15.06919128      2.4814752800000002
   230   1      22.325891720000001      15.047708979999999      2.4250006100000001
   231   1      26.356696360000001      15.207625419999999              2.35753346
   232   1             30.41923916      15.274739869999999      2.3009665699999999
   233   1             32.49005476             18.72341909      2.3546244299999999
   234   1              3.95363167      18.768875550000001              2.53587578
   235   1      7.9084522399999999      18.713106360000001      2.3205972899999998
   236   1      12.117342689999999      18.828968360000001      2.4811864400000001
   237   1      16.314737149999999             18.89274816      2.3395684700000001
   238   1      20.346070390000001      18.775894109999999      2.3919499000000002
   239   1      24.193859849999999      18.621898170000001              2.58227568
   240   1             28.55647123      18.673480439999999      2.5138446800000001
   241   1              1.86051758      22.285625119999999      2.6385315399999998
   242   1              5.98938682      22.517568919999999      2.3803957599999999
   243   1             10.28688623             22.21416279      2.3868042799999998
   244   1             14.16091705      22.205007129999998              2.51761517
   245   1             18.23967859      22.124186269999999      2.4955812399999999
   246   1      22.230208309999998      22.335511480000001      2.5821184100000001
   247   1      26.297388529999999             22.05513187      2.6231942799999999
   248   1             30.57185896      22.400263559999999      2.3796021000000001
   249   1      32.521870669999998             25.79682219      2.5461957000000002
   250   1      3.9645520799999998      25.898696019999999      2.5648619699999999
   251   1      8.1377889499999991             25.74689274      2.3189242000000001
   252   1             12.17603688      25.821737089999999              2.36520821
   253   1             16.03713557      25.682660890000001      2.3811889399999999
   254   1             20.26425746             25.74283235      2.4268749000000001
   255   1             24.13991643      25.911765859999999      2.3112127999999998
   256   1      28.260811839999999             25.82349645              2.41404548
   257   1             -0.01831675      2.3817614800000002      3.3338851900000002
   258   1      4.3113011800000001      2.3698951500000001      3.2970761999999998
   259   1      8.0654262600000006              2.36981814      3.3245070800000001
   260   1             12.18840108              2.25031618              3.29417465
   261   1             16.25817327              2.30291194      3.2372732100000001
   262   1      20.228136970000001      2.2422340300000001      3.0577078599999998
   263   1      24.360775010000001      2.4231831599999998      3.3961682799999999
   264   1             28.48183306      2.2719787199999999      3.4644281600000002
   265   1      2.1095838800000002      5.9004383100000002      3.3160484299999999
   266   1      6.1152028700000001      6.0975470300000003      3.2023774899999999
   267   1             10.12108068      5.7413855600000003      3.3636105999999999
   268   1             14.18342863      5.7987911499999996              3.18074506
   269   1             18.17950913      5.7896761699999999      3.3816312000000002
   270   1      22.296367409999998      5.8031838499999999      3.2577131000000001
   271   1      26.438093070000001      5.7704570300000002      3.3327039599999999
   272   1      30.303352780000001      5.8442568899999996      3.2445395700000002
   273   1      32.433724089999998      9.3549607800000008      3.1817736399999998
   274   1      4.0319854900000003      9.5767551100000006      3.3164857900000002
   275   1      8.1806404700000002      9.4945111299999994              3.49680934
   276   1      12.236081560000001      9.3046764999999994      3.3092561900000002
   277   1      16.196143530000001      9.3497548800000008              3.35216197
   278   1      20.303847180000002      9.2613812899999992      3.2125060699999999
   279   1      24.316801009999999      9.4242171799999994      3.1929455099999999
   280   1      28.470727719999999      9.4717296799999993      3.2824192299999999
   281   1      1.9163059200000001             12.83256639      3.3491900499999998
   282   1      6.0994707999999997             12.70452635              3.33227932
   283   1      10.221428339999999      12.952878399999999      3.1927317199999998
   284   1             14.12888665             12.75793367      3.0878826699999999
   285   1             18.28623262             12.82516043              3.26830474
   286   1             22.39427821             12.86197029      3.3316083600000002
   287   1      26.441573649999999             12.80436063      3.4015339199999999
   288   1      30.347420459999999             12.92149182      3.3160061399999998
   289   1      32.500121530000001      16.367619850000001      3.3988671400000001
   290   1               3.9988622      16.413743780000001      3.4816972100000001
   291   1      7.9754714599999996      16.289729250000001              3.09174901
   292   1      12.204491519999999      16.317349419999999      3.2230195699999999
   293   1      16.371280339999998      16.546371369999999      3.4251434000000001
   294   1      20.296008530000002      16.327023109999999              3.17738093
   295   1             24.36020383      16.285702629999999      3.2557029599999998
   296   1             28.52007115      16.342771840000001              3.27506699
   297   1              1.93623331      19.838306429999999      3.4029588300000002
   298   1              6.07864849      20.138136159999998      3.0862654200000001
   299   1             10.16666639      19.829151589999999      3.1415818099999999
   300   1             14.15675004      19.770123099999999      3.1485822400000001
   301   1      18.561184969999999             19.82591291              3.23259126
   302   1             22.19392517      19.879712990000002      3.2440443499999998
   303   1             26.39288444      19.729260549999999      3.3722930899999999
   304   1      30.447353459999999             19.93361037      3.2814170499999999
   305   1   -0.046484520000000001      23.319996150000001      3.5176177900000001
   306   1      4.0297407300000003      23.626655790000001      3.1882537800000001
   307   1      8.1775628499999993      23.526804219999999      3.4557884300000001
   308   1      12.169613249999999      23.615099730000001               3.4433075
   309   1             16.13206521      23.320754699999998      3.0941120500000001
   310   1             20.12417787      23.369914990000002      3.3060741299999998
   311   1      24.240645239999999      23.416256300000001              3.19179754
   312   1      28.374779019999998      23.407754570000002              3.12915397
   313   1              1.95119741      26.918660089999999      3.3768512999999998
   314   1      6.0959292200000004      26.961274240000002      3.0926309500000002
   315   1             10.11409826      26.988016930000001      3.3289669800000001
   316   1      14.262137360000001      27.057109959999998      3.2920908899999999
   317   1              18.0228866      26.908786079999999      3.2543628099999999
   318   1      22.287424739999999      27.067619610000001      3.3172388499999999
   319   1      26.169170170000001      27.025385419999999              3.35589548
   320   1      30.582066900000001      27.059009799999998      3.2377393699999999
   321   1     0.14946119999999999      28.096069369999999              4.19425399
   322   1      4.0274900000000002             28.06360566      3.9867361400000001
   323   1      7.9735776400000002    0.059867879999999998      4.0631565800000002
   324   1      12.322766769999999    0.074920860000000006      4.2348630600000003
   325   1      16.324044780000001      28.082249780000001      4.3308675599999997
   326   1      20.090935609999999      28.147455770000001      4.2386587999999996
   327   1             24.34780589   -0.027257940000000001      4.1691835499999996
   328   1             28.47707707   -0.079521709999999995      4.0292637600000001
   329   1      2.0531697200000001      3.5430985800000001      4.1237091299999999
   330   1      6.0336371399999997      3.7856238699999998              4.27091055
   331   1      9.9845045500000005      3.5013630199999999      4.2488013999999996
   332   1             14.02517293      3.5051001899999998      4.0549309300000003
   333   1      18.112459810000001      3.4368723399999999      4.1284473699999999
   334   1             22.31505336      3.4077457299999998      4.1964140700000003
   335   1             26.46080156      3.5340812100000001      4.3552469599999997
   336   1      30.426300430000001      3.5657234299999998      4.1896901499999997
   337   1     0.13504239000000001      7.0179076299999998      4.2479409700000001
   338   1      4.1090286000000003      7.1525193700000003              4.05805959
   339   1              8.12061645      7.1038947099999996      4.1122649899999999
   340   1      12.158036689999999      7.0980711400000001      3.9813821699999998
   341   1      16.199880530000001      6.9969202299999997      4.0356528699999998
   342   1      20.168037940000001      7.0185016200000003      4.0793865599999997
   343   1      24.460150809999998              7.04598075      4.1389549700000003
   344   1      28.297076830000002      7.0790054800000002      4.1617429799999996
   345   1              1.89818552      10.413185629999999      4.1750401500000001
   346   1      6.1492935299999996             10.60373264      4.1104403600000001
   347   1      10.277887979999999             10.63719414              3.99444417
   348   1             14.24528594      10.514757339999999              4.19165016
   349   1      18.347924200000001      10.427921570000001      4.0022129700000004
   350   1      22.427136730000001             10.60516943              4.06805605
   351   1      26.405880320000001             10.50490697      4.0936967900000001
   352   1      30.431683499999998             10.60168373      4.1800676000000001
   353   1     0.11624080000000001      14.160814139999999      4.1497581099999996
   354   1      4.1544919900000004             14.00271459              4.17631028
   355   1      8.2227494100000005             14.22159194      4.1114451399999998
   356   1      12.204455640000001             13.96206027      4.0916213800000003
   357   1      16.311963779999999             14.09855638      4.0732862399999998
   358   1      20.264132929999999      13.878511789999999              4.20038599
   359   1      24.506805369999999      14.129775909999999      4.1917582800000002
   360   1             28.39048463             13.96661426      4.1445543000000002
   361   1              1.98002638      17.454540999999999              4.09608668
   362   1              6.11140492      17.532971809999999              4.15314154
   363   1      9.9389795099999994      17.549252750000001              3.82792508
   364   1      14.139109120000001             17.58082207      4.1695498300000002
   365   1      18.427024580000001             17.53184345      4.0180211100000003
   366   1             22.34244314      17.488465219999998      4.0335351399999997
   367   1      26.352677539999998      17.579289230000001      4.2059894199999999
   368   1             30.60451857             17.67633721      4.2186487699999997
   369   1      32.547292820000003      20.968039600000001      4.1770104699999999
   370   1      3.9678124100000001      21.095709589999998      4.0130994700000002
   371   1      8.1092899700000007      21.082793479999999              3.98406175
   372   1             12.06101321      21.325433050000001      4.2673870999999997
   373   1             16.40303334             21.02230814      4.1132337999999997
   374   1      20.324032450000001      21.160765470000001      4.0692987499999997
   375   1      24.195508440000001      20.918756399999999      3.9456286500000002
   376   1      28.378389259999999      21.244812369999998      4.1049176999999997
   377   1              2.10400455      24.461445449999999      4.2963821299999996
   378   1      6.0618678099999999             24.74199106      4.0896541800000001
   379   1      10.177793729999999      24.740894789999999      4.2121904900000002
   380   1      14.202089239999999             24.53173091      4.1752877699999997
   381   1      18.261063799999999      24.617115120000001      4.2125626199999999
   382   1      22.246008289999999             24.70530329              3.90329652
   383   1             26.21545596      24.469851349999999                3.973595
   384   1      30.331479340000001             24.76113458      3.9483807199999998
   385   1      2.0463017799999998              1.11661755      5.0562198299999999
   386   1              5.93010137              1.27125274              4.92360241
   387   1      10.324355349999999              1.30896375      4.8818594400000004
   388   1             14.15452773              1.26137393      5.0724449800000002
   389   1      18.367582240000001      1.0803872400000001      5.2746764400000004
   390   1      22.328351850000001              1.01920202      5.0565970099999999
   391   1             26.29191148      1.2090280099999999      4.8692075399999997
   392   1      30.396365209999999              1.15818032      5.0153070499999997
   393   1      32.495031179999998      4.7377505900000001      4.7364975600000001
   394   1              3.97528528      4.9584147200000004      5.0917007600000002
   395   1      7.9639543799999997      5.0060786100000003      4.8791682300000003
   396   1             12.01423258      4.8598477400000002      5.0867012300000001
   397   1      16.181418390000001      4.4555331899999997      5.1174849800000004
   398   1              20.3558053      4.5653071799999996              4.86130789
   399   1      24.342094280000001      4.5955755500000004              4.98254793
   400   1      28.390320549999998      4.7000639499999997      5.0361079100000001
   401   1              2.00458911      8.2448100899999996      4.9084571099999996
   402   1      6.0974409600000001      8.2903624800000006      5.1408305600000004
   403   1             10.20738392      8.1876206499999995      4.9176214700000003
   404   1              14.3390083      8.1720248200000007      4.9728735400000001
   405   1      18.233952169999998      8.2155666699999994      5.0183231900000003
   406   1      22.329456310000001      8.0452515499999997      4.8494041000000001
   407   1             26.30924465      8.0393592300000005      5.0831003499999996
   408   1      30.386037900000002              8.06625543      4.7945045500000001
   409   1      32.471246700000002      11.712957449999999              4.95639085
   410   1      4.1265985299999999             11.80932168      5.0632496400000004
   411   1      8.1883407100000003      11.906819260000001              5.14561841
   412   1             12.36916027             11.68940244              4.92451331
   413   1      16.337600989999999      11.635210470000001      4.7907280300000004
   414   1      20.310483059999999      11.602330370000001      4.9916105399999999
   415   1             24.34157866             11.93319848      5.0703152100000004
   416   1      28.285747969999999      11.645548339999999      4.9844365499999999
   417   1      2.2621203099999998             14.94650743      5.0757611599999999
   418   1              5.96508109             15.14918099      4.9342524000000001
   419   1             10.23838973      15.348035919999999      4.9609149199999996
   420   1      14.360996330000001             15.47831482      4.8053024000000004
   421   1      18.410432969999999      15.252374590000001      5.0634169099999999
   422   1      22.294872269999999             15.11560909      4.6894112300000002
   423   1      26.285243850000001             15.21122617      5.1104587500000003
   424   1             30.41570102      15.253743780000001              4.94690356
   425   1      32.432453680000002      18.744225480000001      5.0771866299999999
   426   1      4.1238871899999996             18.87585404      5.0862279900000003
   427   1      8.1972210400000005             18.78914353      4.9481617299999998
   428   1      12.209234240000001      18.711540450000001      4.8108720900000002
   429   1      16.313937259999999      18.769010990000002              4.75987223
   430   1      20.399187000000001      18.919157299999998      5.1122500000000004
   431   1      24.420929539999999             18.81524353      5.0013496000000002
   432   1             28.24705148      18.856577519999998      4.9546981399999996
   433   1      2.0925885499999999             22.15856471      5.1600224900000002
   434   1              5.95462091      22.270901760000001      4.9287546600000001
   435   1             10.08459783      22.400008499999998      4.8864367499999997
   436   1             14.28371954      22.229072299999999      4.9485291399999998
   437   1      18.256516829999999      22.210376149999998      5.0565878199999998
   438   1      22.320306250000002              22.1327757      4.9301338899999996
   439   1      26.360753649999999             22.38794996      5.0884977200000003
   440   1      30.599938179999999      22.439926020000001      4.7758555600000001
   441   1             32.48917007      25.697778710000001      5.1186530899999996
   442   1      4.0605693399999998      25.877655860000001      4.9589221700000001
   443   1      8.2927494300000006             25.91792796      4.8229260700000003
   444   1      12.341220399999999      25.780768009999999      4.9432530300000002
   445   1      16.272002229999998      25.657936370000002      4.9775593599999999
   446   1             20.37799051      25.879088450000001      5.0658513100000002
   447   1      24.313912890000001             25.94548013      4.8274479100000001
   448   1      28.259667870000001      25.827265100000002      4.9029954800000004
   449   1      32.377795999999996              2.32360809      5.6303048499999999
   450   1      3.9668419699999999              2.38474019      5.7635309899999996
   451   1      7.9074195899999999              2.58025474      5.8456629700000002
   452   1      12.069470000000001              2.60632149      5.8595691199999997
   453   1      16.208759100000002      2.1990017599999998      6.0241738900000001
   454   1      20.461173680000002              1.99497116      5.7706552599999998
   455   1      24.331803010000002      2.1960800800000002      5.8732053000000004
   456   1      28.344956939999999              2.30820567      5.8389091899999999
   457   1               1.7862316      5.8773941299999999      5.7571116800000004
   458   1      6.0467931200000002      5.9771909799999996      6.0832272300000003
   459   1              10.0794456      6.0556103999999999      5.7712092200000003
   460   1      14.229169669999999      5.8763339200000004      5.6329592000000002
   461   1             18.27786029      5.7039741900000003      5.7432717100000001
   462   1      22.321956490000002      5.7479437000000004              5.85479167
   463   1             26.47600473      5.8449217500000001              6.08035602
   464   1      30.391300480000002      5.8109558000000003      5.7204159099999998
   465   1      32.470642959999999      9.2871326300000003      5.7015602999999997
   466   1      4.0208036600000003               9.3264464      5.7451836099999998
   467   1      8.1333445999999991      9.4860087100000001      5.8902489999999998
   468   1              12.3024842      9.3502470199999994      5.8008314800000003
   469   1      16.259295560000002      9.4172984300000007      5.9223359599999998
   470   1      20.304276940000001      9.2695269400000004      5.7913748299999996
   471   1      24.264944870000001      9.3403939600000001      5.8225650900000003
   472   1      28.296102390000001      9.2546882000000004      5.8705536299999999
   473   1      2.0511231300000001             12.75683413      5.7344749400000001
   474   1      6.1616441899999996      12.752304840000001      5.8393061900000003
   475   1      10.143857029999999             13.17372233      5.7994339400000001
   476   1      14.566942559999999             12.85568774      5.5645047600000002
   477   1             18.28822495      13.015927659999999      5.6838678700000003
   478   1      22.138114519999998              12.8728154              5.91284542
   479   1      26.240888529999999             12.79021766      5.9935761999999997
   480   1      30.340020110000001      12.788595089999999      5.8624373600000004
   481   1  -0.0011807899999999999      16.257410159999999      5.7735662999999997
   482   1      4.1171420200000002             16.50065846      5.8673957899999998
   483   1      7.9228323600000001      16.417271530000001      5.7795291999999998
   484   1      12.399722840000001      16.361651819999999      5.7042740500000004
   485   1      16.446035290000001      16.573537590000001      5.9299147200000002
   486   1      20.232164010000002      16.341654120000001      5.6542679199999997
   487   1      24.240895940000001      16.433463490000001      5.6482161800000004
   488   1      28.400589419999999      16.398713430000001      5.8019305699999997
   489   1              2.15565585      19.746436469999999      5.9266791000000003
   490   1      6.1865102299999997      20.142270839999998      5.6291347299999996
   491   1             10.39567506             19.99478577      5.6469898900000004
   492   1      14.140628339999999      19.887655370000001              5.70238741
   493   1      18.428314830000001             19.89511276      5.9174786299999997
   494   1             22.26373886      19.906156809999999      5.7746523300000003
   495   1      26.252904139999998      19.933577880000001      5.6944662399999997
   496   1      30.606767919999999      20.102060470000001      5.8215643200000002
   497   1      32.745317659999998             23.51089563      5.9166080799999996
   498   1      4.2352512300000003      23.515288590000001      6.0270915299999999
   499   1      8.2895154600000005      23.551453389999999      5.6736507500000002
   500   1             12.18011802      23.283674569999999              5.86469722
   501   1      16.403384190000001      23.393069449999999      5.8771658200000001
   502   1      20.383961249999999             23.35611235      5.6643284100000004
   503   1      24.191620319999998      23.648502839999999      5.6991745600000003
   504   1             28.23707799      23.582901509999999      5.7611456700000003
   505   1              1.99487532      26.828156069999999      5.9651010099999997
   506   1      6.2587034299999997             27.16699157      5.5939933599999998
   507   1      10.169284680000001      27.061472089999999      5.7967192599999997
   508   1             14.37111395             26.93700033      5.8507040300000002
   509   1      18.163646780000001      26.980762800000001      5.8399565200000003
   510   1      22.602142520000001      26.897793700000001              5.78182917
   511   1      26.389141479999999      27.132384120000001      5.7737332800000001
   512   1             30.41919905      27.080616240000001      5.6766605099999996
   513   1      32.430121900000003              -0.2066103      6.5182404299999996
   514   1      4.2640237799999996    0.012517189999999999      6.6364475000000001
   515   1      7.9503702699999996     0.29827901000000001      6.5011847899999999
   516   1             12.10932912     0.23553927999999999      6.6235471500000003
   517   1      16.101476040000001      28.133636769999999      6.9277726900000003
   518   1      20.410074030000001             27.96093892      6.8046238199999998
   519   1      24.511815769999998    0.031908690000000003      6.7447081999999998
   520   1             28.57063977      28.043078990000001      6.6387150899999998
   521   1              1.80514617              3.41828486      6.5647037900000003
   522   1      5.9135115999999996              3.54687566      6.7482016600000003
   523   1      9.9746695699999997      3.7372260700000002      6.6147194699999998
   524   1      14.237354570000001      3.5767141200000001      6.8365121999999996
   525   1             18.57382458      3.2619498899999999      6.6677291600000004
   526   1             22.43061664      3.4937216200000001      6.7724935100000003
   527   1      26.394167589999999      3.3770337499999998      6.7857516799999997
   528   1      30.479047999999999      3.6247042399999998      6.5479735400000001
   529   1      32.316618570000003              6.93992641      6.8243341400000004
   530   1              3.92440787      7.3449267899999997      6.8452716699999998
   531   1      8.0470617000000004      7.2294330999999996      6.6079775200000004
   532   1             12.24667324      7.0951523300000003      6.5104563200000003
   533   1      16.278728659999999              7.00423931      6.6938528100000001
   534   1      20.260184710000001      6.9944772500000001      6.6264099300000003
   535   1      24.247310039999999      6.9185579300000004      6.6384204699999998
   536   1             28.42172459      7.0048092999999998      6.5948283400000003
   537   1      1.8484624199999999              10.4258305      6.5852817799999999
   538   1      6.0399017800000001      10.572161599999999      6.8191784899999996
   539   1             10.35893474      10.804351949999999      6.3850542399999997
   540   1      14.400149150000001      10.600492129999999              6.53714116
   541   1      18.345710449999999      10.517594069999999      6.5851507500000004
   542   1      22.394580640000001      10.507729060000001      6.5541041900000003
   543   1      26.258552829999999      10.700041369999999      6.9016350600000003
   544   1             30.33048419             10.52712532      6.6970490199999997
   545   1      32.429651229999997             14.11860474      6.6745455900000001
   546   1      4.0946253099999996      14.156916539999999      6.9831496700000004
   547   1      8.1562082199999999             14.23051179      6.5738883599999998
   548   1             12.48202524             14.17263732      6.5960644899999998
   549   1      16.328239960000001      14.116162149999999      6.5803042600000001
   550   1      20.309874629999999      14.141116050000001      6.8506852499999997
   551   1             24.05132948              14.1931019      6.5615539399999996
   552   1      28.264939569999999              14.0984809      6.6512053099999999
   553   1      1.8332748299999999              17.6054809      7.1568729800000002
   554   1      6.2588332099999997      17.687412569999999      6.6056331699999999
   555   1             10.31440417             17.54118776      6.4736651900000002
   556   1             14.19982212      17.569542550000001      6.7527939899999998
   557   1             18.27363291             17.60218493      6.9401563700000004
   558   1             22.47083327      17.504508309999999      6.5433147700000003
   559   1      26.282644189999999             17.51907714      6.6271939800000004
   560   1      30.637814250000002             17.49938062      6.5498640699999999
   561   1     0.14851938000000001      21.170193789999999              6.62227576
   562   1      4.2246720499999997             20.99864659               6.5029271
   563   1      8.2680995500000005      21.323765439999999      6.6420793299999996
   564   1             12.27923848      20.993899939999999      6.8660608300000003
   565   1      16.271683830000001      21.182464370000002      6.7371156499999998
   566   1      20.321224879999999      21.123237320000001      6.6412998999999999
   567   1             24.36513686      21.205900209999999      6.3900107899999998
   568   1             28.45782444      21.135136030000002      6.5239665000000002
   569   1      2.3457974300000002             24.54358109      6.8570434100000002
   570   1      6.2533906200000002              24.7743243              6.38864331
   571   1      10.328012960000001      24.761704470000002      6.8839823899999999
   572   1      14.346760789999999             24.82846065      6.8180600900000004
   573   1      18.481076269999999      24.604064019999999      6.5908211100000003
   574   1      22.503186500000002      24.518659039999999              6.83457296
   575   1      26.352974209999999      24.669573939999999      6.6263802500000004
   576   1      30.382720200000001      24.591854000000001      6.5393383299999996
   577   1      2.0101002399999999     0.68934090000000003              7.49564963
   578   1      6.0698426899999998              1.23120081      7.5629020599999999
   579   1      10.018397269999999              1.30660847               7.4351699
   580   1             14.12228356              1.22252366      7.5392970799999999
   581   1      18.383783560000001              0.94347828      7.6291518399999996
   582   1             22.51485671     0.91161966999999999      7.6281272299999996
   583   1      26.568632099999999      1.0777746800000001      7.6977317899999997
   584   1      30.353297699999999              1.31480861      7.4485378600000001
   585   1      32.562891209999997      4.7868649799999998      7.5170583300000002
   586   1              3.79535679      4.6765180400000004      7.5939612900000002
   587   1      7.8034566700000001      4.8675319799999999      7.5932139799999998
   588   1      22.595034720000001     0.90635341999999997      9.9723843399999996
   589   1      16.270061900000002      4.5678268600000003      7.6460751499999997
   590   1             20.46310325              4.65090234      7.4378634300000002
   591   1      24.200232400000001      4.6619487099999999      7.6490093100000003
   592   1      28.459068030000001      4.7774382600000003      7.4604499300000002
   593   1              1.84588986      8.2795759899999997      7.7764191599999997
   594   1      6.0352248599999996      8.2546935599999998      7.6788650799999996
   595   1             10.22510217      8.4773178799999993      7.2376667499999998
   596   1      14.260753830000001              8.16734194      7.3057011799999998
   597   1      18.289375010000001      8.0535000199999995      7.6551180299999997
   598   1             22.32782838      8.1869165400000004                7.280538
   599   1      26.434713769999998      8.1923483800000003      7.4915433900000004
   600   1      30.320498570000002      8.3124106999999992              7.57558357
   601   1      32.399053209999998      11.775565970000001      7.5222802099999999
   602   1      3.8439161799999999              11.4735373      7.5944762099999998
   603   1      8.1270306199999993             11.88145272      7.4470676100000004
   604   1      12.348104299999999             11.91798009      7.4714662000000001
   605   1             24.34810908      6.9506860000000001      9.0772911900000004
   606   1             20.48011348             11.60963624      7.7425915300000003
   607   1      24.154532039999999      11.864190239999999      7.5940251099999996
   608   1      26.486938819999999      8.1745365299999992      9.8688782699999997
   609   1              1.95146884      15.334458290000001      7.5218638799999997
   610   1      6.3647927700000002      15.280638250000001      7.6154474499999996
   611   1             10.52897885             17.44336053      9.1824483400000005
   612   1      14.360156610000001      15.215460500000001      7.5341114100000004
   613   1             18.17904635             15.22098559      7.5280717499999996
   614   1      22.307580940000001             15.49253981              7.47127009
   615   1             26.15270679             15.25913042      7.4544692100000001
   616   1             30.48255262             15.20666035              7.74484014
   617   1             32.26919213      18.868368329999999      7.6063520999999996
   618   1      4.3447319799999997      18.859511470000001      7.6422787699999999
   619   1      8.4896948000000005             18.91822346      7.2678886399999998
   620   1      12.023731079999999      18.719260760000001      7.3816081799999997
   621   1             16.10382345      18.805014960000001      7.4307424900000001
   622   1      20.614561269999999             18.79989526                7.530481
   623   1      24.292030960000002      18.703858839999999      7.5158757700000001
   624   1              28.4298298      19.033499519999999      7.2700682499999996
   625   1              2.23258088      21.960933699999998      7.5615231200000004
   626   1      6.3340172199999998             22.45799178      7.5694249200000003
   627   1             12.30236994      14.094865090000001      8.9072991300000002
   628   1              14.2911527      22.280616070000001      7.6009824000000004
   629   1              18.3804433      22.410915039999999      7.8721837800000003
   630   1      22.405280210000001      22.371498450000001      7.5494594099999999
   631   1      26.266675020000001      22.337584799999998      7.6091554700000001
   632   1      30.736976720000001             22.28375183      7.3566508300000004
   633   1      32.449015840000001      25.614258580000001      7.7792455399999998
   634   1      4.2918650600000001      25.897203940000001      7.4616456500000004
   635   1      8.1143714100000004      25.920169690000002              7.34810053
   636   1              12.3953031      26.061185349999999      7.2784349099999996
   637   1      16.276639719999999      25.710206960000001      7.3846709199999996
   638   1      20.476618640000002      25.785083910000001      7.3778475600000002
   639   1             24.41199293      25.860257229999998      7.4557998400000001
   640   1      28.554432739999999      25.898120290000001      7.4111886699999996
   641   1      3.7762814499999999      6.9213252900000004      9.1333394999999999
   642   1      30.392156360000001              1.02345964      9.8173916000000006
   643   1      8.0676252500000007              7.07981046      9.0092395599999993
   644   1             12.34549928      23.659604479999999      8.3076697399999997
   645   1      10.276842569999999             22.25345858      7.4820213300000002
   646   1      28.134819029999999  -0.0014823499999999999      9.3515360300000001
   647   1      22.510563600000001              3.38373502      9.3515508000000001
   648   1             10.08923061      3.5704893100000001      9.1187516399999993
   649   1      6.3154628099999996      17.734166470000002      8.9764324900000005
   650   1      4.3629718000000004             23.44226252      8.4382988099999992
   651   1              18.2550265      24.440457940000002      9.0103372700000008
   652   1      20.382101720000001      9.1482723299999993      8.0901482300000005
   653   1      22.170418829999999      13.318982699999999      8.4979753700000007
   654   1      6.4368684700000003             20.05852672      8.1827810000000003
   655   1      28.666833740000001             25.92922806      9.7976133099999991
   656   1      8.4031142499999998      23.663838800000001      8.1032705499999995
   657   1      10.252418520000001      13.027539559999999      8.3564351200000004
   658   1      16.199577420000001             16.41474462      8.3140872600000009
   659   1      28.371073419999998      9.2880527100000005      8.5027918800000002
   660   1             16.34743126      2.0389970800000001      8.4602505299999997
   661   1             25.03833908     0.60863487000000005      9.3291050999999996
   662   1      28.428973389999999      2.3696920100000001      8.5503104400000005
   663   1      18.439245960000001      26.629785259999998      8.1791983800000008
   664   1     0.13472054999999999             14.12462171      8.9840239000000004
   665   1             12.38511737      9.4323043900000005      8.1810099300000001
   666   1      12.333626629999999      16.394370240000001      8.3125661199999996
   667   1      8.3720603199999992      18.772815420000001      9.7441945200000006
   668   1             16.46929381             11.77940637      7.3295554599999999
   669   1      5.9543645200000004      10.556252860000001      9.4221104400000009
   670   1      28.356752050000001      6.8056560599999996      9.0124452799999997
   671   1      1.9007037099999999      10.791152479999999      9.0207538100000004
   672   1              32.3481296      21.249526769999999      9.0045545600000008
   673   1     0.64718878000000002      23.662192050000002      8.7300048700000001
   674   1      4.4912867700000003             20.83459538      8.9851430000000008
   675   1      22.319627329999999      17.870018030000001      9.0446226799999998
   676   1      14.094918399999999              3.46712642      9.2209828500000004
   677   1      20.084170069999999              4.56757364      9.7198741900000005
   678   1      20.188660519999999      16.452029119999999      8.1398535800000005
   679   1      28.223024630000001      4.4732947699999999      9.7623033299999999
   680   1      28.444925770000001             11.57541155              7.80251903
   681   1      32.554952270000001      2.1994899000000001      8.2359667600000002
   682   1             10.38994389              15.3346315      7.5129051599999999
   683   1      4.1464264499999999      28.037014190000001      9.2211000500000004
   684   1      8.1765164299999995      12.040051650000001      9.7078536900000003
   685   1      18.276134840000001      20.072091929999999      8.2884404400000005
   686   1      14.409351640000001      12.887750309999999      8.1709961300000007
   687   1      16.430393179999999      7.0082696799999997      9.2207260200000007
   688   1      18.583936779999998             12.72379821      8.2749307099999996
   689   1             24.63554062      21.097162359999999              8.84694483
   690   1      32.442832459999998      16.628003410000002      8.2984286800000007
   691   1      30.601562510000001      5.9051488399999998      8.5046882200000002
   692   1      18.190015020000001              3.41664111      9.2500826099999998
   693   1      16.292771399999999      9.3833462599999997      8.3546936899999995
   694   1              22.4156385      8.3156006399999995      9.5426901799999992
   695   1      22.528160920000001             26.94276936      8.4472006999999998
   696   1              4.29532574      16.382295849999998              8.27872393
   697   1      7.9112122300000003      4.6501469999999996             10.00268956
   698   1             14.58380886             27.01105089      8.3727854900000001
   699   1      20.579565639999998      2.3155371499999999      8.5317388399999992
   700   1      10.188607620000001             26.96383968      8.2726815600000005
   701   1             20.47951454              28.1351713      9.1129288499999994
   702   1      24.379363739999999      23.455099780000001      8.3872937000000007
   703   1      20.372055870000001      25.540466309999999      9.6789465000000003
   704   1             26.50499709      19.307856220000001      8.2595753100000007
   705   1      1.8245388199999999      3.7542980500000001      9.0922188300000002
   706   1      4.0980011300000001      4.7336398300000004             10.00851183
   707   1             14.05981167             19.72516104      8.3459277600000004
   708   1      20.225756189999998             21.33127034      9.1957209300000002
   709   1             22.47665581      24.715574400000001      9.2686896799999996
   710   1      20.409024760000001      23.446898520000001      8.3193014499999993
   711   1              1.82518523      5.8239885400000002      8.3163522000000007
   712   1   -0.063785919999999996      27.922144329999998      9.2466387500000007
   713   1      26.276918729999998      3.1002660299999998              9.38006794
   714   1      2.0881995199999999      19.791711150000001      8.3749044000000001
   715   1      2.3953646399999999      26.501136639999999      8.3817719000000004
   716   1      12.107924069999999              2.31685965      8.5020385100000002
   717   1      26.352261940000002             24.76230223      8.9679144100000006
   718   1      32.377299649999998      9.5591608099999998      8.5688954800000001
   719   1      30.177147130000002              10.3645485      9.5135437199999995
   720   1             30.61092459              3.56063543      9.0376709099999992
   721   1              3.84349469      9.1832543500000003      8.5467064199999996
   722   1      6.0987807299999997              3.43111145      9.1423355999999991
   723   1      7.9614120000000002      9.5052517299999995      8.6205392700000001
   724   1      5.9725801599999997      8.2725757699999996             10.09075281
   725   1      10.251825780000001      8.2987737300000006      9.6047797999999993
   726   1             20.14254438      6.9283205199999998      9.1257523299999992
   727   1             16.17177637             21.19061666              9.11130043
   728   1      24.426975710000001      14.215029230000001      8.9860641300000008
   729   1      8.0151398399999998      14.046669319999999      9.0993049300000006
   730   1             12.12312504      4.6315825899999998      7.6614657099999999
   731   1             12.31196725      7.1344490499999997      8.9619542699999997
   732   1              18.2152645             10.33793058      9.1555117999999993
   733   1      22.275170930000002      19.963581720000001      8.2268300399999994
   734   1      30.639049440000001              24.3301254      8.9878353900000008
   735   1      24.404199890000001      2.5737388800000001      8.3215231900000006
   736   1      8.3680626500000006      16.612725619999999      8.3043556299999999
   737   1              30.2940228             20.08633567      8.4546330899999997
   738   1      24.298842789999998      9.3573311199999996      8.4328871999999997
   739   1             10.34979177      10.503843679999999      8.8232645000000005
   740   1             26.24236844      5.5265689800000004      8.5001874199999996
   741   1      24.297423219999999      16.691768589999999      8.3100061800000002
   742   1             24.35458594              4.75089819      10.404091169999999
   743   1              22.2435385      5.6632536199999999      8.6761162200000008
   744   1      30.498231229999998      13.005432920000001      8.3250556200000005
   745   1             26.37491434      12.854177719999999      8.4217413299999997
   746   1      5.9743233299999998      12.930295279999999      8.3137301400000005
   747   1             10.55025584              20.0441985      8.5120923200000007
   748   1      6.3285363800000001      24.791259830000001      8.9518847699999995
   749   1             22.50426878             10.76276049      8.9521155399999994
   750   1      28.117404069999999      16.727086150000002      8.1659292000000008
   751   1      28.085164840000001      21.285953450000001      8.7585767699999995
   752   1      2.1317647200000001             13.18804986      8.3792824899999996
   753   1      8.3822986799999999      20.980969229999999               8.9619111
   754   1      8.0683247399999996      2.3004037300000002      8.1994661000000004
   755   1      5.8231175899999998      5.8735364299999997      8.6883759200000004
   756   1      6.3371212799999999      27.281945230000002      8.0819951200000002
   757   1      3.7389317499999999      2.2389608499999998      8.2595911100000006
   758   1      26.520056459999999             26.84005608      8.2494724000000001
   759   1             28.49737373             14.07288982      9.0993676200000007
   760   1             28.42035392      23.507234059999998      8.0474332099999994
   761   1      16.185661840000002      23.481799219999999      8.5465369300000003
   762   1      26.041403150000001             10.60462879      9.3643847099999995
   763   1      10.108294949999999      5.9560324099999997      8.4158849199999999
   764   1             14.22207351      5.7870025500000004      8.2476804999999995
   765   1      18.261387509999999      5.6025395400000004      8.1898071199999993
   766   1      22.448772680000001      22.337859869999999      9.8730481599999997
   767   1             30.44778732      17.465603720000001      8.8636334300000001
   768   1      30.581074059999999             26.90565642      8.3082732999999998
   769   2             17.69809416              1.74811754      9.5919951799999996
   770   2             18.61278506     0.38955282000000002      9.4105990399999992
