N2-dn2-coord-10bar/700K/snapshots/frame-50695/run-000/../data.lammps (written by ASE) 

770 	 atoms 
2  atom types
0.0      32.470343392086264  xlo xhi
0.0      28.120142247150884  ylo yhi
0.0      31.213473999158239  zlo zhi


Atoms 

     1   1      2.0293964600000001      1.1716090800000001    0.023552650000000001
     2   1      6.0880008999999999              1.17168918              0.02556874
     3   1      10.146952280000001              1.17170328    0.025416459999999998
     4   1      14.205754900000001      1.1716496700000001              0.02501565
     5   1             18.26456816              1.17166478              0.02504435
     6   1             22.32338141      1.1716496700000001              0.02501565
     7   1      26.382184030000001              1.17170328    0.025416459999999998
     8   1      30.441135410000001              1.17168918              0.02556874
     9   1  9.1780000000000006e-05      4.6866847900000002    0.025581599999999999
    10   1      4.0587011400000002      4.6866847900000002    0.025581599999999999
    11   1      8.1174961000000003      4.6866290399999997    0.025584639999999999
    12   1             12.17638011      4.6866852999999997              0.02491202
    13   1             16.23517979      4.6866942700000003    0.025006210000000001
    14   1      20.293956519999998      4.6866942700000003    0.025006210000000001
    15   1      24.352756209999999      4.6866852999999997              0.02491202
    16   1      28.411640219999999      4.6866290399999997    0.025584639999999999
    17   1      2.0293964600000001      8.2016395800000002    0.026613040000000001
    18   1      6.0881071599999999      8.2016314300000008              0.02543782
    19   1             10.14701835               8.2017045    0.025156850000000001
    20   1      14.205766049999999      8.2017080900000003    0.024990459999999999
    21   1             18.26456816      8.2017077599999997    0.025091249999999999
    22   1      22.323370260000001      8.2017080900000003    0.024990459999999999
    23   1      26.382117969999999               8.2017045    0.025156850000000001
    24   1      30.441029149999999      8.2016314300000008              0.02543782
    25   1  9.2789999999999998e-05             11.71671873    0.025573410000000001
    26   1              4.05870014             11.71671873    0.025573410000000001
    27   1      8.1176017700000003             11.71668698              0.02497914
    28   1             12.17637068             11.71673069    0.025001590000000001
    29   1      16.235177310000001      11.716730249999999    0.025074039999999999
    30   1      20.293959009999998      11.716730249999999    0.025074039999999999
    31   1      24.352765640000001             11.71673069    0.025001590000000001
    32   1      28.411534549999999             11.71668698              0.02497914
    33   1      2.0293964600000001             15.23167155              0.02525285
    34   1      6.0881728300000004      15.231678799999999    0.025062859999999999
    35   1             10.14698486      15.231762639999999               0.0250786
    36   1             14.20578841             15.23176782    0.025201990000000001
    37   1             18.26456816              15.2317707    0.025149979999999999
    38   1      22.323347900000002             15.23176782    0.025201990000000001
    39   1      26.382151459999999      15.231762639999999               0.0250786
    40   1      30.440963480000001      15.231678799999999    0.025062859999999999
    41   1      32.470327990000001      18.746748629999999    0.024951939999999999
    42   1      4.0588083299999997      18.746748629999999    0.024951939999999999
    43   1      8.1175770200000006      18.746803499999999    0.025222040000000001
    44   1             12.17637459      18.746799750000001    0.025428470000000002
    45   1      16.235159400000001      18.746805200000001    0.025487360000000001
    46   1      20.293976919999999      18.746805200000001    0.025487360000000001
    47   1      24.352761730000001      18.746799750000001    0.025428470000000002
    48   1             28.41155929      18.746803499999999    0.025222040000000001
    49   1      2.0293964600000001      22.261939099999999    0.025844880000000001
    50   1      6.0881419299999999      22.261841799999999    0.025489439999999999
    51   1             10.14692954             22.26176895              0.02551757
    52   1             14.20573559      22.261804690000002    0.025639160000000001
    53   1             18.26456816             22.26178625    0.025640119999999999
    54   1      22.323400729999999      22.261804690000002    0.025639160000000001
    55   1      26.382206780000001             22.26176895              0.02551757
    56   1             30.44099439      22.261841799999999    0.025489439999999999
    57   1  5.6450000000000003e-05      25.776936450000001              0.02613327
    58   1      4.0587364700000004      25.776936450000001              0.02613327
    59   1      8.1175325399999991              25.7767713    0.024734180000000001
    60   1      12.176376469999999      25.776831090000002              0.02545323
    61   1      16.235145939999999      25.776775220000001    0.025273360000000002
    62   1             20.29399038      25.776775220000001    0.025273360000000002
    63   1      24.352759840000001      25.776831090000002              0.02545323
    64   1      28.411603769999999              25.7767713    0.024734180000000001
    65   1  0.00024266000000000001              2.34304215     0.80166565000000001
    66   1      4.0585502699999996              2.34304215     0.80166565000000001
    67   1      8.1157394600000003              2.34454954     0.80169402000000001
    68   1             12.17601256      2.3433829099999999     0.80116898000000003
    69   1      16.235258170000002      2.3433209100000001     0.80090046999999998
    70   1      20.293878150000001      2.3433209100000001     0.80090046999999998
    71   1      24.353123750000002      2.3433829099999999     0.80116898000000003
    72   1      28.413396859999999              2.34454954     0.80169402000000001
    73   1      2.0293964600000001      5.8582218700000004     0.80119762000000005
    74   1      6.0870566899999998      5.8583336700000004              0.80194851
    75   1             10.14649655              5.85853131     0.80121584000000001
    76   1             14.20597894      5.8582938599999999     0.80086840999999998
    77   1             18.26456816      5.8583798500000004               0.8010794
    78   1      22.323157380000001      5.8582938599999999     0.80086840999999998
    79   1             26.38263976              5.85853131     0.80121584000000001
    80   1      30.442079629999999      5.8583336700000004              0.80194851
    81   1  0.00019438999999999999      9.3717771800000005     0.80082061000000004
    82   1      4.0585985400000002      9.3717771800000005     0.80082061000000004
    83   1      8.1175070500000004      9.3725002699999997     0.80149060999999999
    84   1      12.176590020000001      9.3733583399999993     0.80088261999999999
    85   1             16.23512199      9.3733789200000004              0.80106506
    86   1             20.29401433      9.3733789200000004              0.80106506
    87   1      24.352546289999999      9.3733583399999993     0.80088261999999999
    88   1      28.411629269999999      9.3725002699999997     0.80149060999999999
    89   1      2.0293964600000001             12.88692854     0.80220621000000003
    90   1      6.0883212999999996             12.88743848     0.80138414999999996
    91   1      10.147128609999999             12.88859852     0.80085256000000005
    92   1             14.20571782      12.888558189999999     0.80113791000000001
    93   1             18.26456816      12.888409899999999     0.80109381000000002
    94   1      22.323418490000002      12.888558189999999     0.80113791000000001
    95   1             26.38200771             12.88859852     0.80085256000000005
    96   1      30.440815019999999             12.88743848     0.80138414999999996
    97   1              0.00012365      16.403222639999999     0.80145666999999998
    98   1      4.0586692700000002      16.403222639999999     0.80145666999999998
    99   1      8.1174337899999998      16.403825260000001     0.80097196999999998
   100   1              12.1761021             16.40390721     0.80133072000000005
   101   1             16.23503496      16.403861750000001     0.80140014999999998
   102   1      20.294101359999999      16.403861750000001     0.80140014999999998
   103   1      24.353034220000001             16.40390721     0.80133072000000005
   104   1      28.411702529999999      16.403825260000001     0.80097196999999998
   105   1      2.0293964600000001      19.919205120000001     0.80066369999999998
   106   1              6.08752564             19.91894023     0.80122479000000002
   107   1      10.146078839999999             19.91919038     0.80159137999999996
   108   1      14.204993419999999              19.9192584     0.80178742000000003
   109   1             18.26456816      19.919377350000001     0.80194975999999996
   110   1      22.324142899999998              19.9192584     0.80178742000000003
   111   1      26.383057470000001             19.91919038     0.80159137999999996
   112   1      30.441610669999999             19.91894023     0.80122479000000002
   113   1              0.00142012      23.434536609999999     0.80178442000000005
   114   1      4.0573728100000004      23.434536609999999     0.80178442000000005
   115   1      8.1165862000000004      23.433936769999999     0.80182306000000003
   116   1             12.17555218      23.433996919999998     0.80156656000000004
   117   1             16.23465491      23.434040110000002     0.80170828999999999
   118   1      20.294481409999999      23.434040110000002     0.80170828999999999
   119   1      24.353584130000002      23.433996919999998     0.80156656000000004
   120   1      28.412550110000002      23.433936769999999     0.80182306000000003
   121   1      2.0293964600000001      26.949875330000001              0.80297246
   122   1      6.0858208300000003      26.950066320000001              0.80215291
   123   1             10.14598146      26.949241430000001     0.80165810000000004
   124   1             14.20520604      26.948673230000001     0.80131923999999999
   125   1             18.26456816             26.94858318     0.80108193999999999
   126   1      22.323930279999999      26.948673230000001     0.80131923999999999
   127   1      26.383154860000001      26.949241430000001     0.80165810000000004
   128   1             30.44331549      26.950066320000001              0.80215291
   129   1      32.464624319999999      28.220626920000001      1.5067270699999999
   130   1      4.2718290400000001      28.227456740000001      1.4557606700000001
   131   1      8.1073699500000007      28.174428519999999      1.4637438899999999
   132   1             12.15100601    0.016375569999999999              1.51323498
   133   1      16.292861169999998    -0.10279696000000001              1.58262584
   134   1               20.360135             28.28236575      1.4262334400000001
   135   1      24.299920830000001      28.172858210000001              1.39803324
   136   1      28.270133940000001             28.08291693               1.5947259
   137   1      2.1486848799999998      3.5414823700000002      1.4624304800000001
   138   1      6.0423377399999998              3.58506919      1.2976139099999999
   139   1      10.228272130000001      3.4903074100000002      1.3333106299999999
   140   1             14.11010714      3.5531300099999998      1.3321377700000001
   141   1      18.239700089999999              3.42535021      1.7177796299999999
   142   1      22.313362130000002      3.6460110600000002               1.6672202
   143   1      26.448153980000001      3.4615334600000001              1.31126944
   144   1              30.4569741      3.5511798300000001              1.38972286
   145   1    0.018099110000000002      6.8947492700000002      1.5935946700000001
   146   1      4.0527842300000003              7.02290802              1.49098628
   147   1      8.1449403900000004      7.0114431699999997              1.52054811
   148   1             12.30422738      6.9446459000000003      1.3322358299999999
   149   1      16.260069550000001      6.9864282299999996              1.37762567
   150   1      20.202835990000001      6.8792019499999997              1.56302053
   151   1             24.35036564      6.8949756100000004      1.5261092000000001
   152   1      28.356207779999998      6.9486862299999999              1.24912025
   153   1      1.9918778800000001             10.56514394      1.3640006099999999
   154   1      5.9690817999999997      10.529526130000001      1.5981925800000001
   155   1      10.070395169999999      10.613133339999999      1.4305211900000001
   156   1      14.271781710000001             10.51416609      1.5478132200000001
   157   1      18.211274499999998      10.429573080000001      1.5832594900000001
   158   1      22.524869120000002      10.397252310000001      1.7775861900000001
   159   1      26.377570510000002      10.547686580000001              1.20661558
   160   1      30.346143040000001             10.59468049              1.34913123
   161   1      32.490107260000002      14.040843860000001              1.43495211
   162   1              3.95215988      14.024736799999999              1.59604214
   163   1      8.0754305599999991             14.09844446      1.6165296600000001
   164   1      12.191883069999999             14.02122619              1.35321651
   165   1      16.315738150000001             14.07868875              1.38547602
   166   1      20.146752620000001             14.14904411              1.33433096
   167   1      24.322615039999999              13.9918288      1.4669422700000001
   168   1      28.262671109999999              14.0284701              1.45303943
   169   1      2.0642625799999998      17.462355129999999      1.4584776800000001
   170   1      5.8868223999999998      17.669674929999999               1.3640421
   171   1      10.155038530000001      17.695810510000001              1.46736384
   172   1      14.220438590000001             17.55287036              1.58742491
   173   1             18.25684923             17.51267717              1.45536624
   174   1             22.39385635      17.631976219999999              1.28041702
   175   1      26.468806140000002             17.65117489              1.55969044
   176   1      30.310572860000001      17.628736329999999      1.5465583899999999
   177   1      32.451953699999997      20.985493099999999      1.4293605300000001
   178   1      3.9096200200000002             20.98740742              1.42358418
   179   1      8.0503650499999999      21.121149490000001               1.3200006
   180   1      12.104425669999999      20.872242459999999      1.4131205899999999
   181   1      16.211787990000001      20.906383510000001      1.3986220199999999
   182   1      20.232008499999999             20.98615783      1.3903827799999999
   183   1      24.413147089999999             21.20054172              1.29388627
   184   1      28.380387450000001      21.089704780000002      1.4227361300000001
   185   1      1.9705437100000001              24.5549213      1.4192002100000001
   186   1      6.0691322799999998             24.56784889      1.4482846300000001
   187   1      10.191454540000001      24.514522580000001              1.40541465
   188   1      14.141869740000001             24.71955552              1.42191285
   189   1      18.299216900000001      24.682990520000001      1.5676017499999999
   190   1      22.332305760000001      24.502899509999999      1.5170953899999999
   191   1             26.41609712      24.757751849999998              1.35926955
   192   1      30.421252540000001      24.693954550000001      1.4965617600000001
   193   1      2.0605844499999999              1.17848749      2.2314195899999998
   194   1      6.1800116000000003      1.2235375500000001      2.4908298900000001
   195   1             10.13422066              1.21227642      2.4016387099999998
   196   1      14.221564620000001              1.12863216      2.5277109499999999
   197   1      18.254987329999999      1.3083176999999999      2.3677402500000002
   198   1      22.370697570000001               1.1451844      2.2793226500000001
   199   1      26.360534040000001      1.1118965700000001      2.5070081700000002
   200   1      30.466754659999999      1.0803043000000001              2.47380413
   201   1             32.47435643      4.5943583200000004              2.47420594
   202   1      4.1357107099999997      4.6528173400000004      2.4906699699999999
   203   1      8.2489615799999996      4.7552133100000002      2.6174294300000001
   204   1      12.243112910000001      4.7718764299999998              2.54246236
   205   1      16.376637460000001      4.7017459300000004      2.3784092499999998
   206   1      20.371216570000001      4.6213272500000002      2.5258309699999999
   207   1      24.330606660000001      4.7433556699999997      2.3501086799999999
   208   1               28.207746      4.6128356100000003      2.4195265500000001
   209   1      2.0669396500000001      8.0814912400000001      2.3599381899999998
   210   1      6.1098791600000002      8.1452192500000002      2.4411733600000001
   211   1             10.32986777      8.2159027299999998              2.27356742
   212   1             14.29582314      8.0249004399999997      2.1873530300000001
   213   1      18.219162170000001      8.1352883600000006      2.3547539300000002
   214   1      22.406842709999999      8.0209615900000006      2.4991342799999998
   215   1      26.373615390000001      8.1931268599999996      2.4687691900000002
   216   1      30.474622719999999      8.2680685199999999      2.3889545999999999
   217   1              0.05383172             11.67062486      2.3088523400000001
   218   1      4.0297525900000002      11.751323190000001      2.4177542000000001
   219   1      8.1266187500000004      11.728668069999999      2.5440696200000001
   220   1             12.15838868             11.69626418      2.2760116199999998
   221   1             16.32617157             11.80290651              2.51745843
   222   1      20.296930150000001             11.69041968              2.37236483
   223   1      24.414950619999999      11.702959249999999              2.48406701
   224   1      28.263399369999998             11.72987968      2.3060717300000002
   225   1              1.95027299             15.25700269      2.4658296499999999
   226   1      5.9128473100000001              15.2143222              2.45593562
   227   1             10.19037516      15.212173030000001      2.4564351100000001
   228   1      14.120898260000001      15.121592160000001      2.5095691499999999
   229   1      18.257067259999999      15.168232550000001      2.4851203900000001
   230   1      22.309180049999998             15.16347081      2.2804478499999998
   231   1      26.446214609999998             15.28198613      2.4934063900000001
   232   1      30.444192659999999      15.314942090000001      2.4072005299999999
   233   1              -0.1105429             18.71966209      2.4041119599999998
   234   1              4.01098614      18.748617830000001      2.4654599799999999
   235   1      8.0024531400000001      18.767470289999999      2.3726625100000001
   236   1      12.107246160000001      18.703324290000001      2.4459775600000002
   237   1      16.178463019999999      18.681788560000001              2.52863989
   238   1      20.270382810000001      18.907934260000001      2.3301962999999999
   239   1      24.310926259999999      18.806371649999999              2.31988825
   240   1      28.462543780000001      18.747520869999999      2.4686887799999999
   241   1      2.0325589499999999             22.30066012      2.3669110099999999
   242   1              6.06903199      22.174456070000002      2.4501365599999998
   243   1      10.156835320000001      22.255422370000002      2.4066627600000001
   244   1              14.0233978             22.15583466              2.30953732
   245   1      18.059511789999998             22.13544465      2.3996718000000001
   246   1      22.200337170000001      22.348911739999998      2.2331106300000001
   247   1      26.195277879999999      22.112661039999999      2.4782495899999999
   248   1      30.377159379999998      22.255013099999999      2.6795632500000002
   249   1   -0.025893380000000001             25.76403427      2.3870224499999999
   250   1              3.90993185      25.845618399999999      2.3819148999999999
   251   1      8.0434261899999999      25.882205219999999      2.3234613799999999
   252   1      12.109483150000001      25.766249460000001      2.4809172799999999
   253   1      16.225189889999999      25.514538200000001      2.4987071900000002
   254   1      20.263563919999999             25.91436032      2.4336892799999998
   255   1      24.343251110000001      25.848851100000001              2.41675182
   256   1             28.45401304      25.681750739999998      2.5578769800000001
   257   1      32.460881909999998      2.3870744199999998      3.3166509099999999
   258   1      3.9186797200000001              2.25332299      3.3054768000000001
   259   1      8.1920169200000004      2.2882119799999998      3.2686552899999999
   260   1      12.311261249999999      2.5305063400000001      3.3050770900000002
   261   1             16.20070153      2.5043986299999998              3.52448564
   262   1      20.254755070000002              2.36651553              3.29129929
   263   1             24.22828385      2.4382564900000001      3.4872924200000002
   264   1      28.302405050000001      2.1739347100000002              3.36341256
   265   1      2.0338053999999999      5.7019564599999999      3.4341907100000002
   266   1      5.9734038399999996              5.96493144      3.3422144199999999
   267   1              10.1832124              5.84837586              3.28935932
   268   1             14.22440887      5.9639255999999996      3.3292664300000001
   269   1      18.361333380000001      5.9416410900000001              3.21620916
   270   1      22.337793319999999      5.7578009899999998              3.35978961
   271   1      26.417869289999999      5.6236956999999999      3.3414974399999999
   272   1      30.194216489999999      5.7583100500000004              3.08763386
   273   1      32.758362750000003      9.2827171400000008      3.3356061000000001
   274   1      4.0535475500000002      9.3265571299999994      3.0790653400000001
   275   1      8.1586069800000001      9.2990582199999992              3.45073527
   276   1             12.28965897      9.3790977899999994      3.1569379999999998
   277   1      16.254023570000001      9.4272148399999995      3.2295982699999999
   278   1             20.44631188      9.3579289899999996      3.3026442600000001
   279   1             24.50054553      9.3423074400000008      3.2429175699999999
   280   1      28.463975009999999      9.4779087999999998      3.2053190200000001
   281   1              1.99183267      13.010895789999999      3.3052320800000001
   282   1      5.9715495900000004      12.764681850000001      3.2867061999999998
   283   1             10.00083328      12.925077229999999      3.4005155199999999
   284   1             14.28648252      12.856878630000001               3.3161204
   285   1      18.289571200000001      12.777626590000001      3.3488968400000001
   286   1      22.402755559999999             12.82052668      3.1069241299999999
   287   1      26.566759350000002      13.011466950000001      3.3715822599999998
   288   1      30.509796059999999             12.89431886              3.16120702
   289   1    0.051618369999999997             16.20855985      3.2700743499999998
   290   1      4.1712058900000004      16.333085799999999      3.1862731000000002
   291   1      8.2107444600000008      16.501232869999999      3.2981965899999999
   292   1             12.22367092      16.466320960000001      3.2820191200000002
   293   1      16.286942060000001      16.477217530000001      3.3069885600000002
   294   1      20.328333440000002      16.483824120000001      3.3086992799999999
   295   1      24.205592129999999      16.262246480000002      3.2778774400000001
   296   1      28.399365660000001      16.283517010000001      3.3966403199999999
   297   1      2.0854437400000001      19.894477479999999      3.2043340499999999
   298   1              5.99233247             19.84139515      3.3558600300000001
   299   1             10.17215985      19.964255690000002      3.2310712399999999
   300   1             14.07356927      19.889623230000002              3.18523713
   301   1             18.21974664      19.758298379999999      3.3795129300000002
   302   1      22.203514810000001      19.830801309999998      3.3131395499999998
   303   1      26.334003259999999              19.7932992      3.2532390900000001
   304   1      30.427098489999999      19.804430360000001      3.3782520300000001
   305   1      32.330011859999999      23.484710159999999      3.2673473199999998
   306   1      4.0986705099999998      23.484447580000001              3.27624615
   307   1      8.1117309100000003      23.348416749999998      3.3185863200000001
   308   1      12.249731629999999      23.382642570000002      3.1870816999999998
   309   1      16.326874709999998             23.25135599      3.2316354999999999
   310   1             20.09433593      23.314832859999999              3.15135385
   311   1      24.333628099999999             23.51901282      3.1866334300000001
   312   1      28.329907209999998             23.42552688      3.3829543000000002
   313   1      2.0859449200000002             26.99857939      3.4080086999999999
   314   1      6.0111336700000004      26.801385809999999      3.1945125999999999
   315   1      10.099506440000001      26.961543639999999              3.30330331
   316   1             14.14721069      26.878272949999999      3.1574916800000001
   317   1      18.291277489999999      27.017557360000001      3.1478978799999999
   318   1             22.28420509             26.88824752      3.2803157999999999
   319   1      26.344744819999999      26.978572329999999              3.31715786
   320   1             30.48646729             26.99598585              3.44569087
   321   1    0.031924710000000002    0.056468169999999998      4.0939484100000003
   322   1      3.9416478000000001      28.113811760000001      4.1042476299999997
   323   1      8.0716733600000001   -0.069784289999999999              3.97376263
   324   1             12.09325228             -0.03107068      3.9888399899999998
   325   1      16.136562439999999   0.0033748099999999998      4.1150183900000004
   326   1      20.208407480000002      28.233490969999998      3.9936681200000002
   327   1      24.212012510000001      28.151434680000001      4.0594686099999997
   328   1      28.298415129999999              28.1442786              4.17297574
   329   1      2.0913118900000001      3.3870684500000001      4.1030550200000002
   330   1      5.9833120400000004      3.3212824599999999      4.0162877699999999
   331   1      10.155559950000001      3.3145877700000002      4.1306130799999998
   332   1      14.290515729999999      3.7018999300000002      4.0423546000000004
   333   1      18.278338489999999      3.6664457600000002      4.2279721300000004
   334   1             22.28302176      3.4805055500000002      4.2748229200000001
   335   1      26.285207020000001      3.4965705499999999              3.83419949
   336   1      30.332824129999999      3.5586369599999998      4.0018536899999999
   337   1    -0.27585087000000003      6.7941377799999998      4.0400476899999997
   338   1              3.94144666      7.0126315400000001      4.1634118200000003
   339   1              8.19557395      6.9584959099999999              4.03600621
   340   1      12.191042039999999              7.18189732      3.9062846800000002
   341   1      16.237353760000001      7.1702527099999998      4.2668358800000004
   342   1      20.249175780000002      6.8839009100000004      4.1066084700000003
   343   1      24.253115099999999      6.9706384799999999      4.0788958700000002
   344   1      28.313798689999999      6.9488642900000004      3.9148291999999998
   345   1      2.1199354100000001      10.631855249999999      4.0154845100000003
   346   1      6.0715188199999996      10.531162650000001              4.06137836
   347   1      10.152784649999999      10.414128420000001      4.1159568999999996
   348   1      14.246025299999999             10.70514616      4.2564176299999996
   349   1      18.166274139999999             10.32220158              4.10882492
   350   1      22.388412899999999             10.56046785      4.2507030700000001
   351   1      26.480571900000001             10.58590006      4.0373669799999998
   352   1      30.627315029999998      10.512920510000001      4.0628748300000002
   353   1   -0.054210719999999997             13.85060242               3.9732935
   354   1      4.0377584100000004      13.991043189999999      4.3296709599999996
   355   1      8.0321003199999996      14.114362209999999      4.1745910200000003
   356   1      12.168568779999999             14.04458691      3.9662471699999999
   357   1      16.199316920000001             14.07815823      4.1576813000000001
   358   1             20.18149489             13.96247108      3.9834744799999999
   359   1      24.371365340000001             14.11699638      4.0514670400000004
   360   1      28.512921209999998             14.07446828      4.1151744900000002
   361   1      1.9290263299999999             17.55895422      3.9648466999999998
   362   1              6.03342445      17.554139450000001      4.0219012200000002
   363   1      10.221129960000001             17.58682486              4.10506189
   364   1              14.1603791      17.355592189999999      4.2234865199999998
   365   1      18.220540159999999      17.536347419999998      4.0350963499999999
   366   1      22.262077519999998      17.551518309999999              3.96345254
   367   1      26.174826889999999      17.591716770000001      3.9923238599999999
   368   1      30.582148050000001      17.469475979999999              4.10543104
   369   1      32.427331719999998      21.182264379999999      4.1284330799999998
   370   1      4.0209458199999997      21.011831340000001      4.1030846399999996
   371   1      8.2432762000000004             21.14933366      4.0469074899999997
   372   1              12.1522548      21.159249339999999      4.0676412500000003
   373   1      16.107119319999999             21.12023954      4.2642818900000004
   374   1      20.150659569999998             20.92092061      4.0162364699999999
   375   1      24.435269380000001      21.042332999999999      4.2205269799999998
   376   1             28.33232615      21.028486959999999      4.0260705999999997
   377   1              1.89786144      24.676227310000002      3.9829431899999999
   378   1      6.2264556100000004      24.607238420000002      4.1072445499999999
   379   1      10.202512130000001             24.44590852      4.0403160199999997
   380   1             14.09227147             24.64712463      4.0858809100000002
   381   1      18.168012350000001      24.547448639999999              4.04349588
   382   1      22.162128419999998      24.489018189999999      4.0409743499999999
   383   1      26.342899750000001      24.687518990000001      4.1296993400000002
   384   1      30.517195009999998      24.728990360000001      4.3176996900000004
   385   1      2.0282066900000002              1.00293024      4.9131669999999996
   386   1      5.9215362300000001      1.1904170000000001      4.8655416699999998
   387   1             10.10059605              1.26571134      4.8923517900000002
   388   1      14.196904119999999      1.2415171599999999      5.0058256600000002
   389   1      18.144220050000001               1.2370402      4.9751418599999999
   390   1      22.209662600000001              1.28212843      4.6916706100000001
   391   1      26.371927840000001      1.2629511499999999               5.1017652
   392   1      30.320795440000001              1.27099663      4.9106116200000001
   393   1   -0.056088440000000003      4.6827016500000003      5.0669053999999996
   394   1              3.97826754              4.56510938      4.9366489199999997
   395   1      8.1408938400000004      4.4187470099999997      4.9325936099999996
   396   1      12.220870290000001      4.9190591399999999      4.9258582500000001
   397   1      16.194914499999999      4.7671396499999998      4.8570044699999997
   398   1             20.21480291      4.4935757399999998              5.08150792
   399   1      24.262947860000001      4.6552348700000001      5.1285031099999996
   400   1      28.410912270000001              4.72783803      4.9241838299999996
   401   1      2.0848757199999999      8.0010773700000009              4.81158179
   402   1      6.0659956299999997      8.1498111400000006      4.8276870000000001
   403   1             10.17025585      8.1753965999999991      5.0287623100000003
   404   1             14.23120005      8.4162016600000005      5.0201406200000003
   405   1      18.259765210000001      8.1254686700000001      4.9946279100000002
   406   1      22.248595160000001      8.2022602599999992      4.9463200599999997
   407   1      26.362472019999998      8.0389799800000006              4.95260984
   408   1             30.38599468      8.2193702099999992      4.9942475399999999
   409   1    0.047053890000000001             11.67312791                5.019647
   410   1      3.9494792699999999             11.62515528      4.9728881600000001
   411   1      8.0121284799999994      11.835288500000001      4.9825910200000001
   412   1      12.108342070000001      11.784785980000001      4.9073556299999996
   413   1      16.214513119999999             11.85203342      4.9327246899999997
   414   1      20.207364439999999      11.481089839999999      4.8927665300000003
   415   1              24.4479525              11.7690743      4.8416404200000001
   416   1      28.753856160000002      11.545970609999999      4.7103526000000002
   417   1              1.88529514             15.09405231      5.0441527400000004
   418   1      5.9524409699999996             15.33062339      5.0801383900000001
   419   1             10.14792443             15.14299537      4.9309215200000001
   420   1      14.324887220000001             15.24472096              5.01001443
   421   1      18.135006239999999             15.18725519      4.8254072700000004
   422   1      22.297099100000001      14.988749260000001      4.9317487800000004
   423   1             26.27854683             15.12383911      4.9809039400000001
   424   1      30.633477079999999      15.122388920000001      4.6685496300000002
   425   1   -0.089258130000000005             18.64790563      4.9039102699999999
   426   1      4.0008110700000001      18.685921359999998      4.9970198000000003
   427   1      8.0652846999999994      18.780549749999999      5.1529193800000002
   428   1      12.359373010000001      18.725760579999999      5.0860542899999999
   429   1      16.115263150000001      18.683374709999999      4.8877928400000004
   430   1      20.183960599999999      18.632675119999998              4.98835184
   431   1      24.232385440000002             18.55464525      4.9453277099999999
   432   1      28.262515830000002      18.536347259999999                4.912598
   433   1               1.9852683      22.248047830000001      4.8229436799999998
   434   1      6.2154313600000002      21.987267070000001      5.0506359099999996
   435   1      10.123139950000001             22.18007021      5.0873312200000003
   436   1             14.20327114      22.333545040000001      5.0552253399999998
   437   1             18.17856944      22.163452169999999      4.8407272099999998
   438   1      22.378722249999999             22.22358376              4.83768244
   439   1      26.466436210000001      22.215554999999998      5.0633977100000003
   440   1      30.215919110000002      22.350705260000002      5.0280816000000002
   441   1      32.482475909999998             25.82028863      5.0272861899999999
   442   1      4.0454790100000002      25.680026789999999              4.81778905
   443   1      8.0063112299999997             25.83149345      4.9348341600000003
   444   1      12.046161509999999      25.725909510000001      4.9146659000000001
   445   1      16.148679439999999      25.628461000000001      4.8758970799999997
   446   1      20.237454929999998      25.677049910000001      4.9181426500000001
   447   1             24.25206974      25.692685350000001      5.1470838700000003
   448   1             28.62655144      25.734081549999999      5.1207797099999999
   449   1      32.530833559999998      2.2829717700000001              5.76340772
   450   1      3.8752126900000001      2.2932670599999998      5.7563940799999997
   451   1      8.0865106499999992      2.0951798799999999      5.8682299200000001
   452   1             11.99850577      2.2498593900000001      5.6086687599999996
   453   1      16.230286490000001      2.4536864700000001      5.9636870699999998
   454   1      20.265639759999999      2.2667248299999998      5.9099059900000004
   455   1             24.27179546      2.2906226599999999               5.9405668
   456   1      28.364993380000001      2.4397513100000001      6.0687528500000001
   457   1               1.9994148              5.53065374      5.9725229300000002
   458   1              5.85780733      5.7305780400000002      5.8488664500000001
   459   1              10.0886066      5.7892777500000001      5.8038666399999999
   460   1      14.284840880000001      6.1529510600000004      5.7518784600000004
   461   1      18.341429680000001      5.8482806900000002      6.0222565899999996
   462   1      22.143765500000001      5.8639692400000003      5.7607254899999996
   463   1             26.48371504      5.6286157399999999      5.7797764899999997
   464   1      30.339188530000001      5.7959603700000004      5.8839706600000001
   465   1      32.514391779999997      9.3164625500000007      5.7688889799999998
   466   1      4.1040289699999999      9.1603013099999995              5.65312123
   467   1      7.9650436200000003      9.1911562500000006      5.8071007200000002
   468   1      12.172675330000001      9.4168189400000006              5.71857258
   469   1      16.334017159999998      9.5784217799999993      5.9176380399999999
   470   1      20.273060059999999      9.3555567800000006      5.8685947699999996
   471   1      24.192560530000002      9.1331035800000002      5.7581313600000001
   472   1      28.455306069999999      9.3226440900000007      5.7320714500000003
   473   1      2.0480192000000002      12.786561300000001      5.8151129700000004
   474   1      6.0447130199999997             12.89954902      5.9783549200000001
   475   1             10.03162494             12.81476573              5.84093806
   476   1      14.125815729999999             12.77759326              5.81085019
   477   1      18.247803350000002      13.102923219999999      5.7454185400000002
   478   1             22.32051478      12.718695220000001      5.6360065600000002
   479   1             26.22451044             12.86003842      5.6508714500000004
   480   1      30.589211689999999      12.640624710000001      5.6373865399999996
   481   1   -0.015401929999999999      16.500053430000001      5.7295462199999996
   482   1      3.9371354799999998      16.436659689999999              5.64772286
   483   1      8.2431409599999999             16.36902444      5.8270915099999998
   484   1      12.142516820000001      16.342183080000002               5.7709956
   485   1      16.397972970000001      16.387371430000002      5.8446767700000004
   486   1      20.261786149999999      16.321969849999999      5.7868659400000002
   487   1             24.18867526      16.258755260000001      5.8140968300000004
   488   1      28.504060979999998             16.40682567      5.8135834099999997
   489   1              1.98092728             19.89294598      5.8447218300000001
   490   1      6.0629655199999997             19.92321574      5.9565226100000004
   491   1      10.304454829999999      19.785524639999998      5.6485066399999999
   492   1             14.24202195             19.88265955      5.7128051099999997
   493   1      18.080842100000002             19.89873343               5.7812649
   494   1      22.253670799999998              19.9653119              5.74925671
   495   1             26.23443374      19.731984529999998      5.7933935400000003
   496   1      30.358279159999999      19.928921370000001      5.7294066299999997
   497   1      32.312389920000001      23.331016049999999      5.8619473199999996
   498   1      3.9876073500000002      23.564640709999999      5.6876974899999997
   499   1      8.1304420000000004      23.406569650000002      5.9118596999999999
   500   1             12.06108246      23.334347940000001      5.6771775900000003
   501   1      16.117605569999998      23.536077209999998              5.79289699
   502   1      20.259517550000002      23.314848309999999      5.6869536900000002
   503   1             24.43824803             23.27835061      5.8320357100000004
   504   1      28.335809919999999      23.534670640000002      6.1221074199999999
   505   1      1.9604851000000001      26.945255670000002      5.8256367999999998
   506   1      6.1825579499999996      26.916318610000001      5.8194882400000001
   507   1      9.9577311399999999             27.12735795      5.7491612600000002
   508   1      14.158471990000001             27.05864648      5.5322240599999999
   509   1      18.222933099999999               26.867317      5.8666471400000004
   510   1      22.352306080000002      26.913673209999999      5.6667071199999999
   511   1              26.2747773              26.9080777      5.7714474999999998
   512   1      30.439738129999999      27.060044309999999      5.7990709699999998
   513   1      32.398366799999998      27.900985120000001      6.5524531499999998
   514   1      4.2129310699999998             28.07810495      6.5416105800000004
   515   1      7.8799771400000003      28.183892820000001      6.5661158500000001
   516   1             12.17998833   -0.057003779999999997      6.6037488099999999
   517   1      16.047008550000001    0.052201200000000003      6.5748597999999996
   518   1             20.15199277      28.074402259999999      6.6821956299999998
   519   1             24.24819887             28.17108103      6.7552914299999998
   520   1             28.23705313      27.917523719999998      6.7548624899999998
   521   1               2.1276633      3.4405661300000001      6.6780049100000003
   522   1      5.9046528599999997      3.3806697899999998              6.49681906
   523   1             10.05958994      3.4764393500000002      6.6911666500000004
   524   1      13.899428970000001      3.6753529899999999      6.5658200500000001
   525   1      18.396916050000002      3.3341970000000001      6.6571882599999999
   526   1      22.378082620000001      3.4346601300000001      6.9198958199999998
   527   1             26.18340594              3.40035197      6.3475188899999999
   528   1      30.384257770000001      3.4199146200000001      6.7557098900000003
   529   1    0.092226639999999999      6.8792688899999996      6.5989543599999996
   530   1              3.84822123      6.9470628000000003              6.70702702
   531   1      8.0440493400000008      6.8718350199999998      6.3740827099999997
   532   1             12.08116757      7.0686427199999997      6.6687727099999998
   533   1              16.3044145      7.3045048799999996      6.6880496899999997
   534   1      20.253131700000001      6.9270865099999996      6.7391839300000003
   535   1      24.385148860000001      6.8722396100000003      6.6483992399999998
   536   1      28.300694579999998      6.9103912100000002      6.7489580199999999
   537   1      2.1888214600000002             10.47560614      6.5771070500000004
   538   1      6.1314632400000004             10.32065787      6.5445768600000003
   539   1      9.9906976499999995             10.39115979      6.5811331400000004
   540   1      14.413653119999999              10.5504354      6.8725672800000002
   541   1      18.253683970000001      10.485663880000001      6.7524674999999998
   542   1      22.319636110000001      10.593594169999999      6.5812790799999998
   543   1      26.252794990000002             10.35359957      6.6132957000000001
   544   1      30.593805830000001      10.331012810000001      6.6840633399999998
   545   1    -0.17522146999999999             14.18731783      6.5330714800000003
   546   1      3.9092991700000002      14.078698380000001      6.6997256099999998
   547   1      8.1327771900000005      14.045416039999999      6.7475044999999998
   548   1      12.163410280000001             13.88625221      6.5596156099999998
   549   1             16.35880826             14.14003759              6.67784172
   550   1      20.413551609999999      13.953943089999999      6.6379896299999999
   551   1             24.30470249      13.973259369999999      6.6687038200000002
   552   1             28.35800579      13.932063899999999      6.4800813599999998
   553   1      1.8515872600000001      17.559443269999999      6.7682018199999998
   554   1      5.9910801600000001      17.733765550000001      6.5171090600000001
   555   1             10.24896328      17.257109710000002      6.5499368000000002
   556   1             14.14778559      17.373213499999999      6.6872681500000004
   557   1      18.105890179999999      17.636485709999999      6.8988962899999997
   558   1      22.271252260000001             17.46280707      6.5522203299999999
   559   1             26.18710098      17.329895369999999      6.4659279999999999
   560   1      30.443947810000001      17.562244539999998      6.5354765800000001
   561   1      32.424550830000001      21.055549630000002      6.5317252200000002
   562   1      4.0527063400000003      21.147593860000001      6.5013932099999998
   563   1      8.2596214999999997      20.885489339999999      6.7266998500000001
   564   1      12.230008639999999      20.952235510000001      6.6023205000000003
   565   1      16.234373479999999             21.01035482      6.5876305100000003
   566   1             20.29578403             21.14908123      6.6842320199999996
   567   1      24.287817130000001      21.027406039999999      6.8260651000000001
   568   1      28.183862730000001             21.10619084      6.5334866399999996
   569   1              2.03069196      24.360079420000002      6.5579531099999997
   570   1      6.1833313399999996      24.605106660000001      6.6755547399999999
   571   1             10.20900376      24.669167439999999      6.4751288200000001
   572   1      14.006610820000001      24.709023949999999      6.4479540000000002
   573   1      18.209580800000001      24.525577309999999      6.6359173800000004
   574   1      22.263350620000001      24.557369000000001      6.5514160700000001
   575   1      26.268563579999999             24.66523063              6.85883821
   576   1      30.417888820000002             24.64034869      6.8928078199999998
   577   1              1.96838179     0.98685524000000002      7.3393932900000003
   578   1      5.9937030800000004              1.29311346              7.48860963
   579   1              9.97579715      1.2723878099999999      7.4069550099999999
   580   1             14.09318908              1.30303021      7.3232187700000004
   581   1      18.323281680000001      1.1605129599999999      7.5908204599999998
   582   1      22.384927359999999      1.1343244699999999      7.0863324099999998
   583   1      26.216826659999999      1.2851244100000001      7.7165519900000001
   584   1      30.190592150000001              1.08437088      7.4049032500000003
   585   1      32.330391419999998      4.5022263000000002               7.5716364
   586   1      3.8818905400000001      4.6919912799999999      7.8280687899999997
   587   1      7.9069102300000003      4.4826674300000002      7.5369066800000004
   588   1             12.17523437      4.8751523499999996      7.5665280900000003
   589   1      16.071330639999999              4.60053892              7.43705923
   590   1             20.23250715      4.4699894699999998      7.7815435099999997
   591   1             24.46360593      4.5744309200000002              7.60055441
   592   1      28.570847350000001      4.5071171999999997      7.7448530499999997
   593   1      2.1451602400000001      8.0698369999999997      7.2081193700000004
   594   1      5.9475345099999997      8.0133134500000001      7.3877825599999998
   595   1      9.8621957099999999      8.0681014900000001      7.6456772600000003
   596   1      13.995081450000001      8.2583661999999993      7.6147381599999999
   597   1      18.302829289999998      8.0836557199999994      7.7437936599999997
   598   1      22.392468109999999      7.8813899799999998              7.57778989
   599   1             26.45439966      7.9672353500000002              7.32482597
   600   1      30.611289840000001      8.0585426899999995      7.2849031899999996
   601   1      32.507839570000002             11.59518563      7.5519649700000002
   602   1      4.4470422100000002             11.71688595      7.6713264600000004
   603   1      8.1308522700000001             11.65271901      7.7055779600000003
   604   1             12.01003955             11.68263344      7.7642371800000003
   605   1      18.421037269999999             12.67293531      8.2145749600000002
   606   1      20.389627350000001             11.59682935      7.3711636800000004
   607   1      24.312955389999999      11.744817810000001      7.2462913000000002
   608   1      28.565209379999999      11.569992129999999      7.3835649700000001
   609   1      1.9730402300000001              15.1489189      7.7092844300000003
   610   1      5.9963534899999997             15.35221129      7.3929739100000003
   611   1              10.1298149              15.0936968      7.5184100599999999
   612   1             14.44245763             15.10949418      7.7533149000000003
   613   1      18.415488329999999             15.18018374      7.3556088800000001
   614   1      22.193723810000002      15.221891230000001      7.3996729400000003
   615   1             26.34808962      15.061681780000001      7.4672528199999997
   616   1      30.338922050000001      15.329093009999999      7.4130938200000003
   617   1      32.240814909999997      18.715894850000002      7.2100138999999999
   618   1      4.1035572900000004      18.720601380000002      7.5761658000000001
   619   1      8.2868058900000001      18.648191579999999      7.6685278300000004
   620   1             12.00788191      18.582234410000002      7.4986913700000004
   621   1      16.149278760000001      18.789570139999999      7.5222340399999998
   622   1      20.223812540000001      18.811937990000001      7.3910906000000001
   623   1      24.151704930000001             18.75531543              7.33634378
   624   1      28.305263060000001      18.600996519999999      7.3464439400000003
   625   1              1.96880086      22.061075209999998      7.7105986900000003
   626   1      6.1392923000000001      22.239337580000001      7.4332996500000004
   627   1      10.187336439999999             22.26318887      7.5398508700000004
   628   1      14.262996940000001      22.448959179999999      7.4911388600000004
   629   1      18.208645910000001      22.300178290000002      7.2953646499999998
   630   1      22.285263860000001      22.273291660000002      7.5335168299999999
   631   1      26.305076419999999             22.13972304      7.6369760400000004
   632   1      30.492325510000001      22.278431900000001      7.6804054199999996
   633   1     0.13016145000000001             25.55956613              7.56009317
   634   1      4.2360248599999997      25.708723800000001      7.3057948799999997
   635   1      8.1359014599999995      25.791443950000001      7.5871674799999997
   636   1             12.01986144      25.811138750000001      7.4058081099999997
   637   1             15.79648289      25.896629359999999      7.3737229700000002
   638   1      20.196575800000002             25.49628474      7.3653137099999997
   639   1              24.2488815      25.911878959999999      7.6628720299999999
   640   1      28.265453220000001      25.588256470000001      7.8762262999999999
   641   1              1.75746234      5.9475968300000002      8.4922249999999995
   642   1      1.8873047999999999     0.99776436999999996              9.77291445
   643   1      10.045715769999999               3.4906324      8.9352167199999997
   644   1      11.982532880000001              2.08369801      8.2399903200000004
   645   1      16.236336529999999      28.023854610000001      9.0659997699999995
   646   1      18.254168530000001              2.98191059      9.1264231500000008
   647   1      26.376334199999999      3.5988988800000001              8.80447998
   648   1      28.421016300000002      2.1925837399999999      8.6842836600000002
   649   1      5.7661794799999999      3.5058755399999999      9.1939228699999997
   650   1              2.07094866             26.91207073      8.4074909800000004
   651   1             14.07366665      3.6489413499999999      9.1323246400000002
   652   1      13.664174490000001      10.387911709999999      9.3020152300000003
   653   1      24.320076019999998      9.5286696699999993      8.0128461600000005
   654   1      32.266765589999999      27.965609329999999      8.8103828199999992
   655   1             18.13516018      5.7737950099999997      8.4941050199999992
   656   1      3.9326718299999999      7.0072281299999997      9.1261342600000006
   657   1      8.0423416099999994      9.1987830200000005      8.2396229600000002
   658   1             10.07284505             12.89675817      8.5320164900000002
   659   1      5.9188504799999997      8.2287971899999999      9.7137424699999997
   660   1      9.8140661399999995      5.8411343599999999      8.2048784399999999
   661   1             14.26410757      17.304398280000001      8.9948735800000001
   662   1             28.60006727      8.9665233099999995              8.09886397
   663   1             20.31492313      6.9362220900000002      9.0480073000000001
   664   1      32.662352869999999      8.9213546600000004      8.1690035699999992
   665   1      11.862958130000001      9.3390217500000006      8.0765016599999999
   666   1      2.7416529600000001      16.834501830000001      8.8536318000000005
   667   1      12.306497370000001      16.216543569999999      8.2959389199999993
   668   1             16.27303728             11.90589392      7.5638238199999996
   669   1      20.091496370000002      16.536810119999998              8.29553181
   670   1      26.525754549999998             12.45071909      7.9902327599999996
   671   1             28.36351754             13.78166908      8.9839837500000002
   672   1      1.9788749400000001             12.84227512      8.2034516199999992
   673   1             30.44721204      17.246501380000002      9.1371285800000006
   674   1      1.8625459600000001             10.43475542      8.8079015500000004
   675   1      5.5668106399999999             16.95480555      8.7522925199999992
   676   1      10.224757840000001      19.729677930000001      8.4352616999999999
   677   1             12.22493805      13.858581409999999      9.0128113600000006
   678   1      22.294601889999999             17.72408107      9.1156673799999997
   679   1      24.555848829999999      13.918947770000001      8.9965363699999994
   680   1      28.318903240000001      16.269290479999999      8.3700981999999993
   681   1      4.1485355799999999      25.671330699999999      9.6777754199999997
   682   1      8.0077783500000006             16.42586906      8.1800888199999999
   683   1      6.1210761099999997      26.953659699999999      8.4820699400000006
   684   1      6.2633626900000001             13.05620848      8.2962243000000004
   685   1             22.17058759             19.98710749      8.2804589600000007
   686   1      24.221565729999998      20.924289349999999      9.2197682099999998
   687   1      26.490047870000001      15.059105730000001              9.70677491
   688   1      30.325182659999999      19.486253059999999      8.1321477899999994
   689   1      24.262962720000001      18.668027680000002      9.8826047700000004
   690   1      4.2204002300000001      23.573025919999999      8.0416138700000008
   691   1      5.8241767700000002      1.2515941799999999             10.02247685
   692   1      10.239710629999999      27.174089559999999      8.1118757200000005
   693   1      16.072908850000001      21.141958559999999      8.8956493800000001
   694   1             18.44086995      19.764343740000001      8.2415636699999997
   695   1             24.18735221      23.405269530000002      8.5343669999999996
   696   1             28.20277776      23.334678660000002      8.3147809499999994
   697   1      3.7845253300000001               2.1998077      8.5327623700000004
   698   1      6.3473849700000002             24.81820445      9.2556649699999998
   699   1      20.245715310000001             22.98088727      8.2648435399999993
   700   1             14.16895197      19.707878950000001      8.1983973700000004
   701   1      18.044157040000002             26.84325003      8.2452961899999995
   702   1      21.819954160000002      26.908841200000001      8.0802667600000007
   703   1      26.379241010000001      27.020711689999999      8.3836268900000004
   704   1      30.375629480000001      26.626634490000001      8.3508211600000006
   705   1               1.6391993      3.6195353699999999      8.9895067300000004
   706   1      7.8472661800000001      28.032918049999999      9.1039452799999996
   707   1             14.14577806      5.9271092300000001               8.1800359
   708   1      14.517558149999999      24.622092980000001      8.8842450799999995
   709   1      16.748859509999999      23.606127669999999      8.4000754799999999
   710   1             22.09403004      22.277110019999999      9.8480138999999998
   711   1      28.614411650000001      27.747011659999998      9.1752870800000004
   712   1      32.438525329999997      25.620321180000001      9.9535879200000004
   713   1             32.33790363      2.0594778900000001      8.4413642200000005
   714   1   -0.015812409999999999      23.200716669999998      8.6727471699999992
   715   1      30.396917179999999      24.388449609999999      9.2518281899999995
   716   1      11.886068079999999      7.0726876299999999      8.9902933399999991
   717   1      24.092937360000001      28.021137790000001      9.2543765800000006
   718   1      24.142765539999999      2.3551971699999998      8.6504910699999993
   719   1      30.723381839999998      3.7993842799999999      9.2375465499999994
   720   1      30.776567679999999      6.1245330999999998      8.5940905399999998
   721   1      3.9887759300000001      9.3689256400000005      8.2146819099999995
   722   1      9.8300024700000002             10.46776689      8.9548803199999991
   723   1      5.8423718400000002      5.7840244399999996      8.2188417499999993
   724   1      7.6915091899999997      4.3240172399999999      9.9434909900000008
   725   1      7.9457412999999999      6.8477511700000004      8.9800504199999995
   726   1      16.156217049999999      7.1696782399999996      9.0361113100000008
   727   1             15.95331459      2.3071291299999999      8.3479012299999997
   728   1      30.443007219999998      12.875924380000001      8.1631926000000004
   729   1             -0.11352713             14.19279515      9.0420778800000008
   730   1      7.8540707200000002      2.2984818800000002      8.3484342399999996
   731   1      16.235095229999999      9.5679002799999999      8.4175593899999992
   732   1             18.38057749      10.349839449999999      8.9989801699999994
   733   1             16.41421369             16.48113987      8.4110193899999999
   734   1      30.318806410000001              1.16432095      9.8537418799999994
   735   1      22.245179329999999      5.5137092900000004      8.3750867800000002
   736   1      6.1157817300000001             10.30103871      8.9869987800000004
   737   1      28.409760940000002      18.325482210000001              9.86802344
   738   1      30.127284249999999             10.85083683      8.8814841199999996
   739   1      14.090395669999999             12.67157562               8.2868385
   740   1      16.188920679999999             13.84567382      8.9997611400000004
   741   1             22.45903285             12.76577917      8.1813949699999995
   742   1      26.183476670000001      6.0627749700000004      8.3363577499999995
   743   1      20.334658019999999      9.2485098400000005      8.3156673399999992
   744   1    0.046416810000000003      16.545567720000001      8.2040762399999991
   745   1      1.8586085299999999      19.620345879999999      8.5098295000000004
   746   1      4.3408145400000002              14.5683419      8.9922520200000005
   747   1      10.202682709999999      17.348038769999999      8.9318124999999995
   748   1      8.0771658599999991      21.113974030000001              9.08639449
   749   1             20.20150546      14.233407740000001              8.87618157
   750   1      26.303376199999999      17.499052450000001      9.0098268899999994
   751   1      24.219002329999999      16.377113940000001      8.3173311600000002
   752   1      32.134296980000002      20.663933220000001      9.0045862999999997
   753   1      2.1276679199999999             24.42199742      9.2864169499999996
   754   1      8.1743385199999992      23.320259190000002      8.0519485700000004
   755   1              3.94032947      21.260487250000001      8.9240978099999992
   756   1      9.9639471700000009      24.554049880000001              9.06924931
   757   1      12.401773889999999      21.215112349999998      8.9754457500000004
   758   1             22.20433461             24.63702421      8.9375127800000005
   759   1             26.29943987      19.709131849999999      8.2970223799999996
   760   1             26.28420259             22.00149695      10.085922829999999
   761   1      6.1124852399999998      19.670227870000002      8.3782853999999993
   762   1             26.38190028      19.757302030000002      10.683654020000001
   763   1      4.0046632200000003      28.078621030000001      8.9101202500000003
   764   1      14.024530390000001             27.15462436      8.2094069899999997
   765   1             12.02285741      23.553355209999999      8.2279567399999998
   766   1             20.43354472      1.9141651099999999      8.2041034199999991
   767   1      26.073290759999999             24.80228966      9.3499802200000008
   768   1      28.563098799999999             20.85280607      9.1609862700000004
   769   2      31.687989779999999      12.466623569999999      9.4039809499999993
   770   2     0.77153450000000001             11.73445577      9.5376778499999997
