N2-dn2-coord-10bar/700K/snapshots/frame-60171/run-000/../data.lammps (written by ASE) 

770 	 atoms 
2  atom types
0.0      32.470343392086264  xlo xhi
0.0      28.120142247150884  ylo yhi
0.0      31.213473999158239  zlo zhi


Atoms 

     1   1      2.0293964600000001      1.1716090800000001    0.023552650000000001
     2   1      6.0880008999999999              1.17168918              0.02556874
     3   1      10.146952280000001              1.17170328    0.025416459999999998
     4   1      14.205754900000001      1.1716496700000001              0.02501565
     5   1             18.26456816              1.17166478              0.02504435
     6   1             22.32338141      1.1716496700000001              0.02501565
     7   1      26.382184030000001              1.17170328    0.025416459999999998
     8   1      30.441135410000001              1.17168918              0.02556874
     9   1  9.1780000000000006e-05      4.6866847900000002    0.025581599999999999
    10   1      4.0587011400000002      4.6866847900000002    0.025581599999999999
    11   1      8.1174961000000003      4.6866290399999997    0.025584639999999999
    12   1             12.17638011      4.6866852999999997              0.02491202
    13   1             16.23517979      4.6866942700000003    0.025006210000000001
    14   1      20.293956519999998      4.6866942700000003    0.025006210000000001
    15   1      24.352756209999999      4.6866852999999997              0.02491202
    16   1      28.411640219999999      4.6866290399999997    0.025584639999999999
    17   1      2.0293964600000001      8.2016395800000002    0.026613040000000001
    18   1      6.0881071599999999      8.2016314300000008              0.02543782
    19   1             10.14701835               8.2017045    0.025156850000000001
    20   1      14.205766049999999      8.2017080900000003    0.024990459999999999
    21   1             18.26456816      8.2017077599999997    0.025091249999999999
    22   1      22.323370260000001      8.2017080900000003    0.024990459999999999
    23   1      26.382117969999999               8.2017045    0.025156850000000001
    24   1      30.441029149999999      8.2016314300000008              0.02543782
    25   1  9.2789999999999998e-05             11.71671873    0.025573410000000001
    26   1              4.05870014             11.71671873    0.025573410000000001
    27   1      8.1176017700000003             11.71668698              0.02497914
    28   1             12.17637068             11.71673069    0.025001590000000001
    29   1      16.235177310000001      11.716730249999999    0.025074039999999999
    30   1      20.293959009999998      11.716730249999999    0.025074039999999999
    31   1      24.352765640000001             11.71673069    0.025001590000000001
    32   1      28.411534549999999             11.71668698              0.02497914
    33   1      2.0293964600000001             15.23167155              0.02525285
    34   1      6.0881728300000004      15.231678799999999    0.025062859999999999
    35   1             10.14698486      15.231762639999999               0.0250786
    36   1             14.20578841             15.23176782    0.025201990000000001
    37   1             18.26456816              15.2317707    0.025149979999999999
    38   1      22.323347900000002             15.23176782    0.025201990000000001
    39   1      26.382151459999999      15.231762639999999               0.0250786
    40   1      30.440963480000001      15.231678799999999    0.025062859999999999
    41   1      32.470327990000001      18.746748629999999    0.024951939999999999
    42   1      4.0588083299999997      18.746748629999999    0.024951939999999999
    43   1      8.1175770200000006      18.746803499999999    0.025222040000000001
    44   1             12.17637459      18.746799750000001    0.025428470000000002
    45   1      16.235159400000001      18.746805200000001    0.025487360000000001
    46   1      20.293976919999999      18.746805200000001    0.025487360000000001
    47   1      24.352761730000001      18.746799750000001    0.025428470000000002
    48   1             28.41155929      18.746803499999999    0.025222040000000001
    49   1      2.0293964600000001      22.261939099999999    0.025844880000000001
    50   1      6.0881419299999999      22.261841799999999    0.025489439999999999
    51   1             10.14692954             22.26176895              0.02551757
    52   1             14.20573559      22.261804690000002    0.025639160000000001
    53   1             18.26456816             22.26178625    0.025640119999999999
    54   1      22.323400729999999      22.261804690000002    0.025639160000000001
    55   1      26.382206780000001             22.26176895              0.02551757
    56   1             30.44099439      22.261841799999999    0.025489439999999999
    57   1  5.6450000000000003e-05      25.776936450000001              0.02613327
    58   1      4.0587364700000004      25.776936450000001              0.02613327
    59   1      8.1175325399999991              25.7767713    0.024734180000000001
    60   1      12.176376469999999      25.776831090000002              0.02545323
    61   1      16.235145939999999      25.776775220000001    0.025273360000000002
    62   1             20.29399038      25.776775220000001    0.025273360000000002
    63   1      24.352759840000001      25.776831090000002              0.02545323
    64   1      28.411603769999999              25.7767713    0.024734180000000001
    65   1  0.00024266000000000001              2.34304215     0.80166565000000001
    66   1      4.0585502699999996              2.34304215     0.80166565000000001
    67   1      8.1157394600000003              2.34454954     0.80169402000000001
    68   1             12.17601256      2.3433829099999999     0.80116898000000003
    69   1      16.235258170000002      2.3433209100000001     0.80090046999999998
    70   1      20.293878150000001      2.3433209100000001     0.80090046999999998
    71   1      24.353123750000002      2.3433829099999999     0.80116898000000003
    72   1      28.413396859999999              2.34454954     0.80169402000000001
    73   1      2.0293964600000001      5.8582218700000004     0.80119762000000005
    74   1      6.0870566899999998      5.8583336700000004              0.80194851
    75   1             10.14649655              5.85853131     0.80121584000000001
    76   1             14.20597894      5.8582938599999999     0.80086840999999998
    77   1             18.26456816      5.8583798500000004               0.8010794
    78   1      22.323157380000001      5.8582938599999999     0.80086840999999998
    79   1             26.38263976              5.85853131     0.80121584000000001
    80   1      30.442079629999999      5.8583336700000004              0.80194851
    81   1  0.00019438999999999999      9.3717771800000005     0.80082061000000004
    82   1      4.0585985400000002      9.3717771800000005     0.80082061000000004
    83   1      8.1175070500000004      9.3725002699999997     0.80149060999999999
    84   1      12.176590020000001      9.3733583399999993     0.80088261999999999
    85   1             16.23512199      9.3733789200000004              0.80106506
    86   1             20.29401433      9.3733789200000004              0.80106506
    87   1      24.352546289999999      9.3733583399999993     0.80088261999999999
    88   1      28.411629269999999      9.3725002699999997     0.80149060999999999
    89   1      2.0293964600000001             12.88692854     0.80220621000000003
    90   1      6.0883212999999996             12.88743848     0.80138414999999996
    91   1      10.147128609999999             12.88859852     0.80085256000000005
    92   1             14.20571782      12.888558189999999     0.80113791000000001
    93   1             18.26456816      12.888409899999999     0.80109381000000002
    94   1      22.323418490000002      12.888558189999999     0.80113791000000001
    95   1             26.38200771             12.88859852     0.80085256000000005
    96   1      30.440815019999999             12.88743848     0.80138414999999996
    97   1              0.00012365      16.403222639999999     0.80145666999999998
    98   1      4.0586692700000002      16.403222639999999     0.80145666999999998
    99   1      8.1174337899999998      16.403825260000001     0.80097196999999998
   100   1              12.1761021             16.40390721     0.80133072000000005
   101   1             16.23503496      16.403861750000001     0.80140014999999998
   102   1      20.294101359999999      16.403861750000001     0.80140014999999998
   103   1      24.353034220000001             16.40390721     0.80133072000000005
   104   1      28.411702529999999      16.403825260000001     0.80097196999999998
   105   1      2.0293964600000001      19.919205120000001     0.80066369999999998
   106   1              6.08752564             19.91894023     0.80122479000000002
   107   1      10.146078839999999             19.91919038     0.80159137999999996
   108   1      14.204993419999999              19.9192584     0.80178742000000003
   109   1             18.26456816      19.919377350000001     0.80194975999999996
   110   1      22.324142899999998              19.9192584     0.80178742000000003
   111   1      26.383057470000001             19.91919038     0.80159137999999996
   112   1      30.441610669999999             19.91894023     0.80122479000000002
   113   1              0.00142012      23.434536609999999     0.80178442000000005
   114   1      4.0573728100000004      23.434536609999999     0.80178442000000005
   115   1      8.1165862000000004      23.433936769999999     0.80182306000000003
   116   1             12.17555218      23.433996919999998     0.80156656000000004
   117   1             16.23465491      23.434040110000002     0.80170828999999999
   118   1      20.294481409999999      23.434040110000002     0.80170828999999999
   119   1      24.353584130000002      23.433996919999998     0.80156656000000004
   120   1      28.412550110000002      23.433936769999999     0.80182306000000003
   121   1      2.0293964600000001      26.949875330000001              0.80297246
   122   1      6.0858208300000003      26.950066320000001              0.80215291
   123   1             10.14598146      26.949241430000001     0.80165810000000004
   124   1             14.20520604      26.948673230000001     0.80131923999999999
   125   1             18.26456816             26.94858318     0.80108193999999999
   126   1      22.323930279999999      26.948673230000001     0.80131923999999999
   127   1      26.383154860000001      26.949241430000001     0.80165810000000004
   128   1             30.44331549      26.950066320000001              0.80215291
   129   1      32.544831850000001      28.133102560000001      1.5128212400000001
   130   1      3.9530556300000002      28.179781070000001      1.2797857699999999
   131   1      8.0262422400000002      28.174563419999998              1.50852451
   132   1             12.13452229      28.275544140000001      1.3366165400000001
   133   1      16.285082500000001              0.11520031      1.5450617099999999
   134   1      20.355106459999998              0.15415345      1.4035681499999999
   135   1      24.382977149999999      28.166610299999999               1.2328157
   136   1      28.418243449999999   -0.061622320000000001              1.74123389
   137   1      2.0801408800000001      3.5250344899999999      1.3562871299999999
   138   1      6.0856592699999998              3.55257691      1.4645991300000001
   139   1             10.23730632      3.4716667800000001              1.51181287
   140   1      14.191213530000001      3.5366498100000001              1.41499164
   141   1      18.367211789999999      3.4820402100000001      1.6101029200000001
   142   1      22.419895459999999      3.5164311399999999      1.6055221200000001
   143   1      26.296225289999999              3.47407003              1.42360318
   144   1             30.48753778              3.46769975               1.4067307
   145   1      32.344725400000002      6.9507963000000004      1.4840005700000001
   146   1      4.0049179199999996      7.0836901699999997      1.5074676300000001
   147   1      7.9740470999999999      7.0976882999999997              1.43180325
   148   1             12.22870672      7.0165973599999996               1.4656323
   149   1      16.333963709999999      6.9853808500000003              1.53412726
   150   1      20.376472499999998      7.0613250499999998              1.47128383
   151   1      24.226409520000001      6.9123385800000001      1.6106404400000001
   152   1      28.382026939999999      7.0537338299999996              1.33230446
   153   1      1.9683233200000001             10.65376987              1.64485316
   154   1      6.1046883100000002      10.649774620000001      1.4494894599999999
   155   1             10.16398334             10.57845674      1.4875842699999999
   156   1             14.11652885              10.6987381      1.5112745700000001
   157   1      18.213289700000001      10.605210550000001              1.62810276
   158   1      22.349744279999999             10.57434817      1.5001992200000001
   159   1             26.24665959      10.620545359999999              1.41070399
   160   1      30.433149090000001             10.59197073      1.3151026699999999
   161   1      32.474386539999998             14.12605866      1.4451572500000001
   162   1      4.0815316399999997              13.9967846      1.4565680700000001
   163   1      8.1622222600000001             14.13410369      1.5063506600000001
   164   1             12.17624547      14.151075459999999              1.59461455
   165   1      16.210285949999999      14.040901079999999      1.2525690899999999
   166   1      20.064805140000001      14.030855880000001              1.54823266
   167   1      24.370224029999999             13.96302013      1.5182599000000001
   168   1             28.42351553             13.99462793      1.4402582799999999
   169   1               2.1445444      17.626357859999999                1.422085
   170   1      6.0483660099999996      17.517248500000001              1.72495479
   171   1             10.00609757             17.63508599      1.4408394899999999
   172   1              14.2126895      17.630350100000001              1.23100721
   173   1      18.159601689999999      17.544317190000001      1.5685282899999999
   174   1      22.387171909999999      17.548583140000002      1.3965738400000001
   175   1      26.549725179999999      17.661985779999998      1.3678430800000001
   176   1      30.465151299999999      17.470455919999999              1.40383305
   177   1   -0.054319539999999999      21.067667570000001      1.2181684500000001
   178   1      3.9873938099999999             21.08018612      1.3481972099999999
   179   1      8.1630316000000001      21.108773759999998              1.36049361
   180   1      12.147869590000001      21.199114600000001      1.4492516099999999
   181   1             16.11339383      21.271529279999999              1.58547767
   182   1             20.40252551      21.003726060000002              1.51871102
   183   1      24.230943870000001      20.991135539999998              1.53510831
   184   1      28.369868400000001      21.252209300000001      1.4038792899999999
   185   1      2.0871737600000002      24.685657599999999              1.16153441
   186   1              6.21314045      24.582395949999999              1.68861241
   187   1      10.367935340000001      24.640888109999999      1.5815742699999999
   188   1      14.048363350000001      24.433998689999999      1.4746394899999999
   189   1      18.226306399999999      24.600259250000001      1.2812939800000001
   190   1      22.326360789999999      24.613260789999998      1.4655547099999999
   191   1      26.420508130000002      24.627975469999999              1.34013242
   192   1      30.416783169999999      24.423113430000001              1.25040807
   193   1      1.9716655000000001              1.19807011      2.3694124900000002
   194   1      5.9451537099999996              1.06523301      2.3080135799999999
   195   1             10.13679144              1.14806499      2.2100575899999999
   196   1             14.18400849              1.28392369      2.4212643900000002
   197   1             18.26652108              1.09521165      2.3422011600000001
   198   1      22.191875199999998      1.3473893100000001              2.37004086
   199   1             26.50879076      1.3145937299999999      2.5108804500000002
   200   1      30.293550100000001              1.14615143      2.5438099099999998
   201   1    -0.12647249999999999              4.64853527      2.5102969000000002
   202   1      4.0085183999999998      4.7818058600000004              2.49277594
   203   1      8.0730553100000009      4.5936388299999997      2.5760786800000002
   204   1             12.18858577      4.7241752899999998      2.5423610700000001
   205   1      16.152275289999999      4.6429449700000003      2.4002127999999998
   206   1             20.18285126      4.8081151599999998      2.4276319800000001
   207   1      24.309311950000001      4.8776439700000003      2.7284540100000001
   208   1      28.316568530000001      4.7999250099999999      2.4173100700000001
   209   1      1.7481011399999999      8.1736022899999998      2.3848459499999999
   210   1      6.0356996900000004      8.2654229099999998      2.3222013600000002
   211   1      10.205849519999999      8.2402192900000006      2.2945336200000002
   212   1             14.13247147      8.2376200799999992      2.3154921700000002
   213   1      18.417801910000001      8.2901872000000001      2.4457313699999998
   214   1             22.32071689              8.25087233      2.6007955699999998
   215   1             26.20322161      8.1896103599999996              2.33788909
   216   1      30.273448680000001      8.3345088000000001      2.5644280099999999
   217   1             -0.10490484             11.86282437      2.3425445699999998
   218   1      4.1523710700000001      11.732627259999999              2.48842192
   219   1      8.1130664100000001              11.7721485      2.5038015300000001
   220   1      12.155117000000001             11.86599146      2.5972947899999999
   221   1      16.166855300000002      11.677463680000001      2.4268597299999999
   222   1             20.20333098      11.797528590000001      2.4617720900000002
   223   1      24.335544250000002      11.526506449999999              2.50230379
   224   1      28.343678780000001             11.61984457      2.4283413700000001
   225   1              2.19713789      15.401162810000001      2.4073507200000002
   226   1      6.3166289899999999             15.28865083      2.4799271699999998
   227   1              10.0989985             15.33474281      2.3132720999999998
   228   1             14.10741462      15.272641269999999      2.3647266400000002
   229   1      17.821249760000001      15.120091329999999      2.4236887299999998
   230   1              22.2241936      15.042517370000001      2.3570517500000001
   231   1      26.460719090000001             15.39016704      2.4833107499999998
   232   1             30.41795299             15.00977086      2.5084442600000001
   233   1             -0.10706501      18.825886350000001      2.1484385700000002
   234   1      4.0472800800000002      18.728519389999999      2.5321805300000002
   235   1      8.1112630400000008      18.870784400000002      2.4451195399999999
   236   1      12.256108190000001      18.579675139999999      2.4709444199999999
   237   1      16.292943470000001             18.82897535               2.6705885
   238   1             20.15028788      18.491643100000001      2.3325201999999998
   239   1      24.485974120000002             18.66692531      2.4235649600000002
   240   1      28.577322429999999      18.596352320000001      2.4284718199999999
   241   1      2.0514473400000002             22.23434233      2.4803419199999999
   242   1      6.1921724200000003      22.067029009999999      2.3375791600000002
   243   1      10.252090259999999      22.331979369999999      2.3564989500000002
   244   1      14.084814099999999      22.275523759999999              2.51158153
   245   1      18.213754569999999             22.20300795      2.4293621999999999
   246   1      22.212402099999998      22.342560389999999      2.3110106099999999
   247   1      26.309981700000002      22.125906910000001      2.2739478499999999
   248   1             30.43822866      22.124448260000001      2.4728577899999999
   249   1             32.56902539             25.86105981      2.3726793000000002
   250   1      4.2932681600000002      25.820421209999999      2.3853293099999999
   251   1      8.2178781300000008      25.924761100000001      2.4489215899999999
   252   1      12.191842830000001             25.79472307      2.3229537200000001
   253   1             16.27172904               25.833603      2.2640110500000001
   254   1      20.385856789999998      25.842471549999999      2.2769443699999998
   255   1      24.427134379999998      25.866393009999999              2.45301963
   256   1      28.599601100000001              25.8100281      2.3543008699999999
   257   1      32.382402069999998      2.4085824200000001      3.3070687200000002
   258   1      3.8626919399999999      2.2857595599999998      3.2746556899999999
   259   1      8.0989754200000004      2.2442877399999999      3.4315975600000002
   260   1             12.35183996      2.4681881799999998      3.2006246300000001
   261   1      16.179192019999999      2.4476505300000002      3.2744224000000002
   262   1      20.210921989999999      2.4269265999999998      3.3734531799999998
   263   1      24.318200940000001      2.4819042699999998              3.27342376
   264   1             28.40177061              2.29500912              3.28341386
   265   1              1.97888719      5.7826354499999999      3.3398877900000001
   266   1      6.1525800500000001      6.2310517699999997      3.4214383700000002
   267   1             10.03312582      5.8719219599999999      3.0482323400000002
   268   1      14.177156480000001      5.8834802899999996      3.1470107199999999
   269   1      18.270213720000001      5.9430721899999996      3.3184529299999999
   270   1      22.223004929999998      5.9034703999999998      3.3468008600000001
   271   1      26.525674980000002      5.8644565699999998      3.3248047700000001
   272   1      30.394422460000001      5.8432282899999999      3.2358070400000001
   273   1      32.466651730000002      9.3537281100000005      3.3409076400000002
   274   1      3.9824601799999999      9.4799205099999995              3.32324186
   275   1      8.1815233900000006      9.3815153099999993      3.2153647900000002
   276   1              12.1422308      9.3842985999999993      3.1248447800000001
   277   1      16.081879390000001      9.6147872200000002      3.2963697999999999
   278   1      20.231473220000002      9.5340711099999993              3.42423732
   279   1      24.586338699999999      9.3190573600000004      3.3211611300000001
   280   1             28.36360384      9.4540214900000006      3.5007025299999999
   281   1      2.1111043999999999             12.94194899      3.3933189600000002
   282   1      6.1271675800000001             12.97639337      3.3605368200000001
   283   1      10.062174219999999             12.96586643              3.46600281
   284   1             14.13270816             12.94342441              3.25392788
   285   1      18.159590919999999             12.84548592      3.2251128200000001
   286   1      22.271051759999999             12.80557449              3.57493544
   287   1      26.403582350000001             12.96723907      3.2048602499999999
   288   1      30.363769860000001             12.75410565      3.3042120800000001
   289   1    0.037986109999999997      16.491767429999999      3.1526171000000001
   290   1      4.2548799900000001             16.16885864      3.3184958299999998
   291   1      8.2129905300000008             16.39747783      3.3038264900000001
   292   1             12.17066153      16.335293180000001              3.38525206
   293   1      16.120113790000001      16.454455119999999              3.35753148
   294   1             20.18233275      16.279187149999998              3.37819622
   295   1             24.44087717      16.280433219999999      3.3011140800000001
   296   1      28.458068699999998      16.216725319999998      3.2740049600000001
   297   1      2.1230417199999998      19.909710860000001      3.1789414800000002
   298   1      6.1338768200000002      19.906923949999999      3.3522680299999998
   299   1             10.37663987      19.981035240000001      3.2335497100000001
   300   1             14.31253319      19.970562109999999      3.2613261599999999
   301   1      18.340995599999999             19.89472525      3.3989145000000001
   302   1      22.328173769999999             19.79046142      3.2660367699999999
   303   1      26.523275080000001      19.764926599999999      3.2211748400000002
   304   1      30.501910429999999      19.890441450000001      3.2839244999999999
   305   1   -0.088381790000000002      23.241735859999999      3.2226208999999999
   306   1      3.9467437599999999             23.38750946      3.4324163599999999
   307   1      8.0617872100000003             23.52811792      3.3104950400000002
   308   1      11.964131569999999      23.482150659999999              3.32937656
   309   1      16.348733509999999             23.50104275      3.3713495199999999
   310   1             20.51923115              23.5001748      3.2156160599999999
   311   1             24.20871374             23.31677869      3.3029373400000002
   312   1      28.420187720000001      23.422134639999999      3.2074131100000001
   313   1      2.0627298500000002      26.867236210000002      3.1873135700000002
   314   1      6.2802937600000002             26.91310889              3.30705078
   315   1             10.13207757      27.064920860000001              3.25732702
   316   1      14.236987450000001      27.015939060000001      3.1373626799999998
   317   1             18.33847819      27.001271460000002              3.29707705
   318   1              22.4592712      27.173182879999999      3.2666020900000001
   319   1      26.351197129999999             26.94685741      3.2793336000000002
   320   1             30.44238198             26.92314399              3.21769543
   321   1      32.641998280000003      27.756315650000001      4.1024093099999996
   322   1      3.9917235799999999      28.069674389999999      3.9764062299999998
   323   1      8.1777799600000005   -0.076968549999999997      4.2972337200000004
   324   1      12.290785899999999     0.14630336999999999      3.9665082800000002
   325   1             16.38090489      28.285005120000001              4.19158162
   326   1      20.439511570000001             28.16537306      3.8727996600000001
   327   1              24.5646311              0.22140466      4.1446145300000001
   328   1      28.458950779999999      28.082126089999999              4.11024893
   329   1              1.86526372              3.47706633      4.1184406899999999
   330   1              5.98762112              3.60709327      3.9690293900000002
   331   1      10.162252860000001      3.5393649900000002      4.1387971700000001
   332   1             14.20363233      3.5872777299999998      4.0459015000000003
   333   1      18.143527200000001      3.5049047400000002              4.17266885
   334   1      22.496251919999999      3.7093853800000001      4.2397375899999998
   335   1      26.319209990000001      3.5394962599999999      4.0305230500000002
   336   1      30.320095120000001      3.6421810899999998      4.0179851600000003
   337   1      32.419061210000002      6.8237195399999999      4.2579386499999998
   338   1              4.13467188      7.1541518899999996      4.3130282800000002
   339   1      8.2271521100000005      7.1092517300000004      4.2620424999999997
   340   1             12.20047705      7.0073904200000001      4.1678297000000004
   341   1      16.176909429999998      7.2538182300000003      3.9495570199999999
   342   1      20.247544319999999      7.2705806199999996      4.1409513899999997
   343   1             24.36793437      7.0364747999999997      4.2548723300000004
   344   1      28.396941179999999      6.9729460699999999      4.1753237900000002
   345   1      1.9675026600000001      10.678936869999999      4.2292016800000001
   346   1      5.9961378099999996             10.51871169      4.0760916600000003
   347   1      10.093474949999999      10.635696449999999      4.0210779099999998
   348   1      14.125190480000001      10.540044890000001      4.1040374899999996
   349   1             18.25907136             10.69626012      4.0541203399999999
   350   1      22.508770779999999      10.416866929999999      4.2369754300000002
   351   1      26.503530739999999             10.58860608      4.3248711599999998
   352   1             30.54334901              10.4234256              3.93234087
   353   1     0.16714084000000001      14.030620900000001      4.0643356099999997
   354   1               4.1440633             13.94677254      4.2221804000000001
   355   1      8.1223096100000003             14.02670764      4.2561259900000001
   356   1             12.20088172             14.03332677      4.0831520399999999
   357   1             16.12964741      13.959437339999999      4.1558137400000001
   358   1             20.22723774      14.039351180000001      4.1002840699999998
   359   1      24.377241560000002      13.932334300000001      4.0765825900000001
   360   1             28.36041367             13.97452552      4.0181399999999998
   361   1      2.2816068999999999      17.501384309999999      4.0851928600000003
   362   1      6.2432043500000001      17.528345300000002              4.22151327
   363   1      10.378543860000001      17.435537109999999      4.1767882099999998
   364   1             14.05866704              17.6353182      4.0582437200000001
   365   1             18.28254609      17.607700659999999      4.1925509200000004
   366   1      22.404317349999999      17.464753699999999      4.1385853399999997
   367   1      26.367535539999999               17.423009      3.9679047299999999
   368   1             30.47809638             17.50713558      3.9955706700000002
   369   1      32.517866529999999      21.001005459999998              3.98084777
   370   1      4.1069048400000003      21.115219490000001      4.0824060600000003
   371   1      8.2971005400000006      21.005526459999999      4.0870087699999997
   372   1             12.34854872      20.858231109999998      3.9790039300000002
   373   1      16.317080350000001      20.986001349999999      4.4049215100000003
   374   1      20.451874149999998      21.223553720000002      4.0918779599999997
   375   1      24.324342080000001      20.827161329999999      3.9653506100000002
   376   1      28.451122519999998      21.017498920000001      4.1154216400000001
   377   1      1.9593964399999999      24.643091439999999              4.00569913
   378   1      6.2129165000000004      24.429940569999999      4.2270147299999996
   379   1      10.179074809999999              24.7132972              3.98419239
   380   1             14.22145486      24.648977120000001      4.1173963200000001
   381   1      18.432585039999999      24.575634820000001      4.0832965699999999
   382   1             22.36683936      24.675639749999998              4.13940573
   383   1      26.398243310000002      24.614766580000001      4.1310861599999997
   384   1      30.328323229999999      24.464370500000001              4.08663562
   385   1      1.9128383499999999      1.1237277999999999      4.9068654399999998
   386   1               6.1325512              1.27916724      4.8641784899999996
   387   1      10.104323020000001      1.2068142399999999      4.7673949699999998
   388   1             14.24189473      1.1456823599999999      4.8753116600000004
   389   1             18.47966525      1.2874207099999999      4.9885118400000001
   390   1      22.467309719999999      1.1284790200000001      4.7785000999999996
   391   1      26.549435890000002              1.28688972      4.9953345699999998
   392   1      30.648948170000001              1.06444462              5.03169662
   393   1      32.476698550000002      4.6602217899999996      5.0875905699999997
   394   1      4.0484169300000001      4.8882068700000003      4.9185611199999997
   395   1      8.0909373500000008      4.7493915299999996              5.12875733
   396   1             12.09597892      4.7079097399999998      4.8650193399999999
   397   1              16.1597036      4.8938964399999998      5.0703732800000001
   398   1             20.29515949      4.8381204999999996      4.9706903499999999
   399   1      24.442101919999999      4.5465292499999999      5.2135813300000002
   400   1             28.31628332      4.5990367399999998      5.0157867400000002
   401   1               1.7417935      8.2504500299999997      5.0291945299999998
   402   1      6.0564620800000002      8.2847812800000007              4.91369568
   403   1              10.2015194      8.3303945800000001      4.8302586099999996
   404   1             14.15150002      8.3595843799999994      4.8799697799999997
   405   1      18.211168170000001      8.4916666099999993      4.8831198799999997
   406   1             22.34693008      8.2395714000000009      5.2111812400000002
   407   1      26.329459419999999      7.9893465299999997              5.19737984
   408   1      30.454056349999998      8.1876802299999998              4.85635891
   409   1             32.44704788      11.724889060000001      5.0257112599999996
   410   1      4.0876801699999996      11.660104219999999      5.2238425499999996
   411   1      8.0967489199999996      11.619158690000001      4.9407690999999998
   412   1      12.122464730000001              11.6203596      5.0228378500000002
   413   1      16.225559239999999      11.632614439999999      4.9975388299999999
   414   1      20.411057329999998              11.7049106               4.9612536
   415   1      24.398208289999999             11.80612898      4.9265426799999998
   416   1             28.45449541      11.700013179999999      4.9138604800000003
   417   1      2.2642523300000001             15.15087248      4.9214154299999997
   418   1      6.0938307199999997             15.29059633      4.9607120599999996
   419   1      10.414969839999999      15.158992469999999      4.9746833800000001
   420   1             14.19222566             15.31625401      5.0049874000000001
   421   1      18.318966570000001                15.20086      4.9489003199999999
   422   1      22.388330660000001      15.207881759999999      4.8903098199999997
   423   1             26.44424862             15.24621863      4.9153997599999997
   424   1      30.475062189999999             15.18788837      4.8827094500000001
   425   1   -0.095080109999999995             18.89236975      4.9019915899999997
   426   1      4.1528730600000001      18.866583219999999      4.9660969699999997
   427   1      8.1701734699999999             18.69183546      4.9216769999999999
   428   1             12.36916733             18.61583529      5.0053263299999999
   429   1             16.23032925      18.668671100000001      5.3496370400000002
   430   1             20.44007852             18.89750811              4.67549934
   431   1      24.427857119999999      18.589577160000001      4.8639102999999997
   432   1      28.489526699999999             18.53691216      4.9452667100000003
   433   1      2.0608368399999999      22.147159949999999      5.0621773000000001
   434   1              6.26152044      22.126719869999999      5.0434331400000003
   435   1             10.29599473      22.050345459999999      4.8165516100000003
   436   1      14.139727519999999              22.3241902      5.1661465099999999
   437   1      18.446783969999998      22.289969259999999      4.8684224900000004
   438   1      22.432399270000001      22.344762960000001              4.97423328
   439   1      26.514008130000001      22.043500760000001      4.9508420199999996
   440   1      30.542182919999998      22.299980850000001              4.74705288
   441   1              0.04921963             25.68138403      5.0492390399999998
   442   1      4.0074400600000004             25.75473379      4.9035855899999996
   443   1      8.0940682899999992      25.747072190000001      4.8742046400000003
   444   1             12.29121979      25.877167839999998      4.8586292799999997
   445   1      16.438112100000001      25.805011619999998      4.6348898299999997
   446   1      20.360854589999999      25.934597490000002      4.7198193399999999
   447   1      24.672131350000001      25.781259039999998      4.9646776499999996
   448   1      28.611759330000002      25.798883320000002      4.9151037300000002
   449   1              0.14796772      2.4331989900000002      5.6570255899999999
   450   1      4.0440728400000001      2.5212380900000002      5.6719052999999997
   451   1      8.1981080300000002      2.3924969900000002      5.7853190699999999
   452   1             12.09465271      2.4282784500000001      5.8123959200000002
   453   1      16.252690990000001      2.4176394600000002      5.5845047799999996
   454   1      20.567442150000002      2.5906602200000002      5.8486180499999998
   455   1             24.29693687      2.2478933300000001      5.9398492100000002
   456   1      28.556220289999999      2.4264870200000002      5.9809445600000002
   457   1      1.9934319300000001      5.9504884599999999              5.80057417
   458   1      6.1645012299999999      5.9093617700000003      5.8748339100000004
   459   1             10.20095622      5.9632887500000002      5.7114347800000003
   460   1      14.099897459999999      5.9728284399999998      5.6837592299999997
   461   1             17.98739226      5.9473918399999999      5.8914436700000001
   462   1      22.568874210000001      5.9696918500000002      5.9599651800000002
   463   1      26.402706890000001      5.7098180300000001      5.8889847299999998
   464   1             30.33728932      5.8539547699999996      5.8197629600000003
   465   1      32.277040020000001      9.3998536999999995      5.6834456800000002
   466   1      4.0071432500000004      9.3317094899999997      5.8422073399999999
   467   1      8.1573461100000006      9.5022552600000001      5.7576855800000004
   468   1             12.22596646      9.4868235199999997              5.89132693
   469   1      16.206057489999999      9.4060882800000005      5.7915921299999997
   470   1      20.369664459999999      9.3337840100000005      5.8421048000000004
   471   1             24.25727496      9.3783887499999992      6.0257709999999998
   472   1             28.28081319      9.5151628200000005      6.0129525099999999
   473   1              2.22419594      12.791145520000001      5.9511887200000002
   474   1              6.13619629             12.78935905      5.8333815800000002
   475   1      9.9744819299999996             12.85092444      5.7931895100000004
   476   1      14.135459579999999             12.97318888      5.7458016900000004
   477   1      18.510844120000002      12.864491360000001      5.7566824900000002
   478   1      22.392877599999998      12.923776930000001              5.86665802
   479   1      26.430960979999998      12.904992460000001      5.7665575899999997
   480   1      30.468479200000001      12.819817130000001      5.7633367700000004
   481   1     0.12054761999999999      16.332513169999999      5.7554936200000002
   482   1      4.0777561899999997             16.35211842      5.7843424600000004
   483   1      8.2622014299999993      16.317680249999999              5.76226342
   484   1      12.346102139999999             16.28188617      5.8664914699999997
   485   1      16.239663820000001      16.140958909999998      5.7396144700000002
   486   1             20.45187855             16.41601885      5.6642588600000003
   487   1      24.370170430000002      16.318300900000001      5.7131267799999996
   488   1      28.706830700000001              16.4138135      5.7320451700000001
   489   1              2.08774141      19.874615739999999      5.7976611399999998
   490   1      6.1468814700000003      20.038375080000002      6.1773629400000001
   491   1              10.2448275             19.71159037      5.7325069400000004
   492   1             14.24730012      19.977336489999999      5.8552075500000003
   493   1      18.352822790000001             20.19973852      5.8882138199999998
   494   1      22.372970049999999      19.986628199999998      5.6321016799999999
   495   1             26.42912621      19.552355890000001      5.6887762000000004
   496   1             30.48924637      19.881773549999998      5.7704700500000001
   497   1      32.569854560000003      23.337633709999999              5.73803866
   498   1      4.1506214200000002             23.28608766      5.9666235500000004
   499   1      8.3935453899999999             23.36695714      5.8574815899999999
   500   1             12.18771048      23.363220609999999      5.7313966299999999
   501   1      16.469248390000001      23.493304810000001      5.7048638499999997
   502   1             20.59360899      23.647616259999999      5.6953357699999998
   503   1      24.462432499999998      23.255582270000001      5.8140413000000004
   504   1      28.402688489999999             23.38277604              5.79705285
   505   1      2.1844559700000001      26.920487250000001      5.7711647599999996
   506   1      6.1032319800000003      26.956868960000001      5.6636218600000001
   507   1      10.335692979999999      26.891879280000001      5.7597847900000003
   508   1             14.37202761      27.038665630000001      5.6089521299999996
   509   1             18.32647785      26.895832380000002      5.7602954899999999
   510   1             22.48582197      27.004653210000001      5.6921725199999997
   511   1      26.576654220000002      27.120383109999999      5.8642312700000003
   512   1      30.586880709999999      26.984227539999999      5.8413732200000004
   513   1     0.13743585999999999    0.095149670000000006      6.7637885000000004
   514   1      4.1766184400000004    0.031846579999999999      6.5833013500000002
   515   1      8.2288471100000002    0.062217710000000002              6.52496074
   516   1      12.314582850000001      28.144986379999999      6.3780561699999998
   517   1             16.28948677     0.23024314000000001      6.5435942599999999
   518   1      20.480626430000001              0.11799504      6.3744889799999997
   519   1      24.543692870000001             28.17449264      6.8965777099999999
   520   1             28.68770722      27.909236920000001      6.8302181099999997
   521   1              2.15314826      3.5121503399999998      6.8336411100000003
   522   1      6.2751947799999996      3.5855635499999998      6.5071536999999999
   523   1      10.327722120000001      3.5706700800000002      6.7748071100000002
   524   1             14.30742931      3.5423239099999999      6.5490944999999998
   525   1      18.221897210000002              3.50505953      6.7896260799999997
   526   1      22.468548420000001      3.5601331900000002      7.0550303000000003
   527   1             26.38335318      3.3678681500000001      6.4789488400000002
   528   1      30.589538780000002              3.53500178      6.6308835799999999
   529   1      32.306268449999997      7.1851894500000002      6.7110506900000004
   530   1      4.1091996499999999      7.1485496599999996      6.9076972200000002
   531   1      8.1325484199999991      7.2525385099999999      6.6245111300000001
   532   1      12.081625349999999      7.1284083799999998      6.5863142100000003
   533   1      16.053878359999999      7.2303160000000002      6.5890614100000002
   534   1      20.389480599999999      7.0065657100000003                6.717975
   535   1      24.390104109999999      7.1919348699999999      6.7444008899999996
   536   1      28.180785409999999      7.0159767500000001      6.9042140300000003
   537   1              1.94785271      10.491901240000001      6.6485717900000001
   538   1      6.1605862699999996             10.55086451      6.4379901500000001
   539   1             10.14801464      10.655577879999999      6.8671738600000003
   540   1             14.27657067      10.539411940000001      6.6217691800000003
   541   1             18.37245592             10.46935787      6.5992065100000001
   542   1      22.494329180000001             10.59952751      6.6250886600000003
   543   1      26.456107320000001      10.695943400000001      6.9119204999999999
   544   1      30.377376089999998      10.638158730000001      6.7808768400000003
   545   1  -0.0078735300000000001             13.96916687      6.5493665300000004
   546   1      4.2553252600000002      14.026287699999999      6.8269960799999998
   547   1      8.1336685699999993      13.977033970000001      6.9108890000000001
   548   1             12.27038591      13.875837089999999              6.71331335
   549   1      16.343165689999999             13.90966849      6.5529969799999996
   550   1      20.267512549999999              14.1733241      6.5381325800000001
   551   1      24.506842720000002      14.028734030000001      6.7727280299999997
   552   1      28.515853700000001             14.15361802      6.6474925499999999
   553   1      2.0529169999999999      17.493928489999998      6.4789343099999996
   554   1      6.0920113300000001             17.67631299      6.6675887300000003
   555   1             10.32629144             17.43771903      6.6511738500000002
   556   1      14.294524060000001      17.424093119999998      6.6613786700000004
   557   1             18.24909551      17.536125049999999      6.7357122499999997
   558   1             22.29992347      17.718803019999999      6.5679037200000003
   559   1      26.362053150000001             17.30151935      6.6254448699999999
   560   1      30.562512909999999      17.622239270000001      6.6367136899999997
   561   1              0.18604023      21.150955190000001      6.5288768299999997
   562   1      4.0317383199999997             21.09848268      6.7620143300000004
   563   1      8.2229564199999992      21.201781369999999      6.6655431700000003
   564   1             12.13065559             21.05547224      6.7974511499999997
   565   1             16.25574233      21.271021520000001      6.8075857700000002
   566   1             20.55202615             21.36746539      6.6715270999999996
   567   1      24.326522730000001             21.03550233               6.3704291
   568   1      28.280084800000001             20.77697216      6.7453787700000003
   569   1      1.8811926999999999             24.51977231      6.6153239099999999
   570   1              6.32262843      24.605519470000001      6.5756791799999998
   571   1             10.30282281      24.619435559999999      6.8594869200000002
   572   1             14.40234551      24.576998400000001      6.5681560299999999
   573   1      18.456020460000001      24.606129030000002      6.7929727199999999
   574   1      22.719183099999999      24.821642480000001      6.7496525500000004
   575   1      26.631847570000001      24.593298730000001      6.7376609800000002
   576   1      30.648023999999999             24.61846839      6.6306739800000001
   577   1               2.1428042      1.2999663299999999      7.5774357400000003
   578   1      6.2627867100000003              1.31397338              7.43682832
   579   1      10.305786469999999      1.0067112499999999              7.42159456
   580   1             14.36578514      1.3715857199999999      7.6313153199999997
   581   1      18.572288029999999      1.2901013299999999      7.6199406300000003
   582   1      22.445543010000002              1.23950892      7.5819580999999996
   583   1      26.861227450000001              1.08512981      7.5640963699999997
   584   1             30.49960072      1.1661978099999999      7.6398935300000002
   585   1     0.17034949999999999      4.7888629600000003      7.4960752199999998
   586   1      4.1713050200000001      4.9151334699999998      7.5225858600000004
   587   1              8.17291715      4.7604202200000003      7.4989882999999997
   588   1      12.302166870000001      4.8366406599999996      7.4010198699999998
   589   1             16.19030012      4.8419824800000004      7.4693471999999996
   590   1      20.301144319999999      4.7895454800000001      7.5743141300000003
   591   1      24.528287580000001      4.6894287200000004      7.5350767799999998
   592   1             28.33561898      4.7676200299999998              7.78447142
   593   1      2.0269812699999998      8.0016900599999996              7.64758914
   594   1              6.19090965      8.1763931099999994      7.6322726200000002
   595   1             10.11137241              8.19503585      7.6385634099999997
   596   1      13.851296830000001      8.3128160700000002              7.59214068
   597   1      18.248073260000002      8.1856272600000004      7.6220619100000002
   598   1      22.263869719999999      8.1700979100000009      7.6508375300000004
   599   1             26.16463456      8.3636700000000008      7.8809295300000004
   600   1             30.11866109      8.2169590100000001      7.3764376699999996
   601   1    0.021234739999999998      11.741747999999999      7.6039897500000002
   602   1      3.9152554199999998             11.69495139      7.6387538800000003
   603   1      8.0424884900000002              11.7829766      7.6534872399999996
   604   1      12.257442429999999             11.58949857      7.5305525500000003
   605   1      18.206294320000001             12.94045786      8.3866666399999996
   606   1      20.321040029999999             11.68986657      7.5546264699999996
   607   1             24.25041298      11.860891110000001      7.4380432799999996
   608   1             28.48103489      11.797557680000001      7.3049764499999998
   609   1      1.9832658999999999      15.353713920000001      7.4001052500000002
   610   1              6.35658207              15.3107358      7.5607328799999998
   611   1             10.21133712      15.167718689999999      7.5110368599999999
   612   1             14.34809175             15.15368917      7.5289408499999997
   613   1             18.38692816             15.23255092               7.4091654
   614   1      22.338259000000001              15.2835926      7.3474289300000004
   615   1      26.536387820000002             15.08612346      7.3306543599999996
   616   1             30.47362291             15.31400015               7.7981536
   617   1     0.15625538999999999      18.965769099999999      7.4317286999999999
   618   1      4.2330830600000002      18.720177849999999      7.6082572199999996
   619   1      8.1731070100000007      18.827486929999999      7.3022600100000004
   620   1      12.246678169999999      18.671188749999999      7.4420079599999998
   621   1              16.2132459      18.804598500000001      7.6603475999999997
   622   1      20.323570279999998             19.03397258      7.5468341099999998
   623   1      24.294512910000002      18.931556700000002      7.4259119199999999
   624   1             28.55807759      18.502068779999998      7.4110510999999999
   625   1              2.09662156      22.257505949999999      7.5941713200000001
   626   1               6.2404354             22.20275329              7.51323279
   627   1      10.111845199999999             22.25733915      7.6160034899999998
   628   1             14.22838211      22.411492450000001      7.6195154399999998
   629   1      18.618502490000001      22.480906279999999      7.7145375700000001
   630   1             22.66080406      22.452869509999999      7.3828845400000001
   631   1      26.362258629999999      22.260995980000001      7.3725705799999997
   632   1      30.531870949999998      22.070417500000001      7.3086057499999999
   633   1   -0.088821380000000005      25.813464589999999      7.5747794500000003
   634   1      4.2687747900000002      25.812865330000001      7.3460620099999998
   635   1      8.2475580100000006      25.942470320000002      7.4321430499999996
   636   1             12.38453361      25.812437259999999      7.4207309700000001
   637   1      16.341011999999999      25.975081119999999      7.1328876699999997
   638   1      20.577632049999998      25.969630810000002      7.2805530200000002
   639   1      24.682808009999999      25.739701839999999      7.4416630799999997
   640   1             28.65128241             25.65729868      7.5288044300000001
   641   1             30.46560036      8.3637115800000004      9.6929372300000001
   642   1      4.1278216800000003              0.20847526      9.0431963799999995
   643   1      10.390854920000001      3.9874520800000002      9.0648481800000003
   644   1      12.182135519999999              2.68291375      8.3468694499999998
   645   1             14.47823722      1.7819485900000001      9.9323721000000003
   646   1             16.36598579      2.4945354399999999      8.3721472800000001
   647   1              24.4048312      7.2955216700000003      9.2710471600000002
   648   1      30.557892240000001      3.4940381399999998      9.0840308400000005
   649   1      2.2416127000000001      3.3189200400000001      9.3293772300000004
   650   1              2.18442201              26.8451655              8.23016872
   651   1      14.287476789999999      4.0604234400000001      9.0374561199999999
   652   1      14.246036800000001      10.537174589999999      9.1444834499999992
   653   1      24.377394349999999      9.6557130999999998              8.60494819
   654   1      6.5783630999999998                1.029153      9.8556356199999993
   655   1      18.182268149999999              3.61179614      9.2001988000000008
   656   1     0.11592677999999999      6.8364606200000004      8.9827453599999991
   657   1      8.2771262100000005      9.5206566000000006      8.3402246600000005
   658   1             12.46078384      13.963843949999999      9.0862319500000002
   659   1      4.3187519200000004      7.0332770800000004      9.3775118099999997
   660   1             10.24526636      5.9467687900000001      8.1452049599999992
   661   1      16.251307879999999      21.188267369999998      9.1294641300000006
   662   1      30.491104549999999             10.78221965      9.1629866799999995
   663   1             20.45132143      7.3174817699999997      9.1031878499999994
   664   1      32.283759099999997              9.25407504      8.1621875199999998
   665   1      11.936841960000001      9.3841246500000004      8.3333872699999993
   666   1      6.2178308400000004             17.54189779      9.0282725199999998
   667   1             14.22702252             20.07875237      8.5426360300000006
   668   1      16.372031100000001      11.534991610000001      7.4779429500000001
   669   1      20.360900059999999             14.26246055      8.8809635300000007
   670   1             28.35593149      9.5266050900000003      8.5224388300000005
   671   1      30.594999519999998             17.43596908      9.2438605700000007
   672   1              2.34522393      13.246058229999999      8.3513944500000008
   673   1      1.8962997100000001      17.502527749999999      8.9968731099999992
   674   1              1.77519464      10.591506669999999              9.00349851
   675   1      8.3186877799999994      18.746601479999999      9.8191602200000005
   676   1      10.181095429999999             19.73946175      8.2239323100000004
   677   1             12.32059974             16.22172647      8.1920518500000004
   678   1      20.156123900000001             16.62699228      8.2091915199999992
   679   1      26.107804739999999      12.678245309999999      8.4626079700000005
   680   1      28.421605929999998             16.38613389      8.3594987399999994
   681   1      4.2848995399999996      25.987460630000001              9.67238826
   682   1      8.3918742599999998      16.420304349999999      8.3627135599999995
   683   1      6.2660948100000002             27.17433673      8.4528852699999995
   684   1      8.4365396700000002      14.054736159999999      9.1608308300000001
   685   1      22.088945150000001      17.600980530000001      9.0386628899999995
   686   1      24.328076320000001      21.170829900000001              9.02468249
   687   1             28.35549829      14.134701140000001      8.8787824499999992
   688   1      30.572687980000001      19.856780359999998      8.2372588600000007
   689   1      24.161885600000002             18.74690099              9.78126505
   690   1      4.1761821100000001      23.298369300000001              8.40115941
   691   1      4.4317944899999997      4.5913979300000003      9.9393500899999996
   692   1             12.06650591    0.089268109999999998      8.7694069300000006
   693   1      20.178049720000001              21.1874875      9.1418934000000007
   694   1      16.447705339999999      16.503484610000001      8.2060265300000008
   695   1             24.74787311      23.645163780000001      8.4032909900000003
   696   1             28.45265332      23.101788580000001      8.2241123799999993
   697   1      4.2825363699999999      2.4815104799999999      8.3206521099999993
   698   1      6.2047147000000002      25.050157070000001      9.0787969900000007
   699   1      20.571882469999998      23.738102749999999      8.3575302300000001
   700   1             16.53141381      23.755624529999999      8.2970277699999997
   701   1      16.511085550000001    0.092190569999999999      9.0126575300000002
   702   1             20.62923232      28.180821430000002      8.8090884299999992
   703   1      28.573293880000001      2.3143655299999999              8.44418091
   704   1      30.655231529999998             27.04687084      8.5543735600000002
   705   1      2.3113342399999999      5.6637079899999998      8.6896278799999997
   706   1      8.5157425500000006     0.28966663999999998      9.0364600999999993
   707   1      14.246528570000001      6.1900880300000001      8.2538206600000006
   708   1             18.44266051             20.08671962      8.3783407099999998
   709   1      18.569473590000001      26.996892160000002      8.2409407899999998
   710   1      22.230715419999999      20.174138630000002      8.1149594700000005
   711   1             26.29652565      5.7296714499999997      8.8124605999999996
   712   1      2.2645746099999999      24.695233099999999      9.0266963199999992
   713   1             -0.10879002      2.5326918799999998      8.2996499799999999
   714   1      32.674276949999999      23.381948049999998      8.2352432600000007
   715   1      30.480244320000001      24.523027410000001      8.9616341899999998
   716   1             16.26451132              6.98244664      9.1951510600000006
   717   1      26.770246780000001      27.064294709999999      8.3610771499999998
   718   1      25.069635649999999      2.3959049299999999      8.3143813600000005
   719   1              0.11019827      4.5413905899999998              9.97813923
   720   1             30.38146893      5.7874147999999996      8.4500821599999991
   721   1      4.1017164199999998      9.2295349099999999      8.5415310600000005
   722   1             10.49639953             12.89457425              8.24440901
   723   1              6.21258176      5.9899128499999996      8.5264465000000005
   724   1      8.3800901900000007      6.9814227400000002      8.9549518300000006
   725   1      12.021536429999999      7.0822509699999996      9.1519407099999999
   726   1      18.161885569999999      5.8892415900000001      8.1749098100000008
   727   1             14.52982995      27.072511840000001               8.3947927
   728   1              0.15474915      14.059879629999999      8.8505949899999994
   729   1    0.085960900000000007      16.468671910000001      8.2212485399999995
   730   1      8.2339100100000007      2.5037887699999999      8.3157999500000006
   731   1      16.358000870000001      9.3860137399999992      8.3741970400000003
   732   1             16.25557873             11.70293249      9.8033868599999998
   733   1      14.408783700000001      17.652373140000002      8.9694117900000006
   734   1              0.17665844              0.23945078      9.1959654799999999
   735   1             22.36681209      5.7606184000000002      8.5799038799999998
   736   1      6.2039484900000001             10.08989993      8.9668499399999995
   737   1      28.525806490000001             20.91288875      9.3050199399999993
   738   1      30.407448429999999      13.008133000000001      8.2600960200000006
   739   1      14.284384620000001             12.73773823      8.3128665700000006
   740   1             16.38510265             14.29311356      8.8755129299999993
   741   1      20.354209990000001      9.5673475999999997      8.4953477100000008
   742   1             28.30622164      6.9700071599999998      9.3797272899999999
   743   1      18.262089960000001             10.70531373      9.3297576499999995
   744   1      4.2622422499999999             16.22005394      8.1251640599999995
   745   1      2.3416320900000001      19.832369239999998      8.1969320700000008
   746   1              5.97693298             12.97200945      8.3831759100000003
   747   1              10.4934864      17.433207509999999      9.1034656500000004
   748   1      8.3563901499999993      21.301162829999999      9.2838608499999999
   749   1             22.32868246      13.120077569999999              8.34587316
   750   1      26.344305120000001      17.404800250000001      8.9599399799999997
   751   1      24.355997439999999      16.435806530000001      7.9844341500000002
   752   1              0.18815561      21.135131139999999      8.9765237599999992
   753   1      4.0339968400000004      21.122573200000001      9.5955408599999998
   754   1      8.1820322500000007             23.73035483      8.2403172700000002
   755   1      6.1816828800000003      22.747828890000001      9.7423863500000003
   756   1             10.23555541      26.668707510000001      8.4842984599999998
   757   1             12.09031734      21.268818929999998      9.1673074000000003
   758   1             22.51840215             26.92851344      8.2217936199999997
   759   1      26.417863499999999      19.900573420000001      8.3379505700000003
   760   1             26.42127537      22.041770020000001      9.6987416999999994
   761   1      6.3155968099999997      20.042926730000001      8.6528079600000005
   762   1             28.23713892      18.413949259999999      9.7745484400000002
   763   1      6.3076685599999998      3.5777900699999998              9.37422954
   764   1               10.425867      1.4899944700000001      9.9826306099999993
   765   1             12.20803969      23.612761249999998      8.2519104199999997
   766   1      20.365263550000002      2.4070589500000001      8.1816034099999992
   767   1             26.85918929             24.39025655      9.1494893800000003
   768   1      30.693563430000001      22.354744350000001      9.6424091199999999
   769   2      5.9170318999999996      21.028037860000001              10.4694266
   770   2      7.3149745700000004      20.170309719999999             10.35548945
