N2-dn2-coord-10bar/700K/snapshots/frame-142142/run-000/../data.lammps (written by ASE) 

770 	 atoms 
2  atom types
0.0      32.470343392086264  xlo xhi
0.0      28.120142247150884  ylo yhi
0.0      31.213473999158239  zlo zhi


Atoms 

     1   1      2.0293964600000001      1.1716090800000001    0.023552650000000001
     2   1      6.0880008999999999              1.17168918              0.02556874
     3   1      10.146952280000001              1.17170328    0.025416459999999998
     4   1      14.205754900000001      1.1716496700000001              0.02501565
     5   1             18.26456816              1.17166478              0.02504435
     6   1             22.32338141      1.1716496700000001              0.02501565
     7   1      26.382184030000001              1.17170328    0.025416459999999998
     8   1      30.441135410000001              1.17168918              0.02556874
     9   1  9.1780000000000006e-05      4.6866847900000002    0.025581599999999999
    10   1      4.0587011400000002      4.6866847900000002    0.025581599999999999
    11   1      8.1174961000000003      4.6866290399999997    0.025584639999999999
    12   1             12.17638011      4.6866852999999997              0.02491202
    13   1             16.23517979      4.6866942700000003    0.025006210000000001
    14   1      20.293956519999998      4.6866942700000003    0.025006210000000001
    15   1      24.352756209999999      4.6866852999999997              0.02491202
    16   1      28.411640219999999      4.6866290399999997    0.025584639999999999
    17   1      2.0293964600000001      8.2016395800000002    0.026613040000000001
    18   1      6.0881071599999999      8.2016314300000008              0.02543782
    19   1             10.14701835               8.2017045    0.025156850000000001
    20   1      14.205766049999999      8.2017080900000003    0.024990459999999999
    21   1             18.26456816      8.2017077599999997    0.025091249999999999
    22   1      22.323370260000001      8.2017080900000003    0.024990459999999999
    23   1      26.382117969999999               8.2017045    0.025156850000000001
    24   1      30.441029149999999      8.2016314300000008              0.02543782
    25   1  9.2789999999999998e-05             11.71671873    0.025573410000000001
    26   1              4.05870014             11.71671873    0.025573410000000001
    27   1      8.1176017700000003             11.71668698              0.02497914
    28   1             12.17637068             11.71673069    0.025001590000000001
    29   1      16.235177310000001      11.716730249999999    0.025074039999999999
    30   1      20.293959009999998      11.716730249999999    0.025074039999999999
    31   1      24.352765640000001             11.71673069    0.025001590000000001
    32   1      28.411534549999999             11.71668698              0.02497914
    33   1      2.0293964600000001             15.23167155              0.02525285
    34   1      6.0881728300000004      15.231678799999999    0.025062859999999999
    35   1             10.14698486      15.231762639999999               0.0250786
    36   1             14.20578841             15.23176782    0.025201990000000001
    37   1             18.26456816              15.2317707    0.025149979999999999
    38   1      22.323347900000002             15.23176782    0.025201990000000001
    39   1      26.382151459999999      15.231762639999999               0.0250786
    40   1      30.440963480000001      15.231678799999999    0.025062859999999999
    41   1      32.470327990000001      18.746748629999999    0.024951939999999999
    42   1      4.0588083299999997      18.746748629999999    0.024951939999999999
    43   1      8.1175770200000006      18.746803499999999    0.025222040000000001
    44   1             12.17637459      18.746799750000001    0.025428470000000002
    45   1      16.235159400000001      18.746805200000001    0.025487360000000001
    46   1      20.293976919999999      18.746805200000001    0.025487360000000001
    47   1      24.352761730000001      18.746799750000001    0.025428470000000002
    48   1             28.41155929      18.746803499999999    0.025222040000000001
    49   1      2.0293964600000001      22.261939099999999    0.025844880000000001
    50   1      6.0881419299999999      22.261841799999999    0.025489439999999999
    51   1             10.14692954             22.26176895              0.02551757
    52   1             14.20573559      22.261804690000002    0.025639160000000001
    53   1             18.26456816             22.26178625    0.025640119999999999
    54   1      22.323400729999999      22.261804690000002    0.025639160000000001
    55   1      26.382206780000001             22.26176895              0.02551757
    56   1             30.44099439      22.261841799999999    0.025489439999999999
    57   1  5.6450000000000003e-05      25.776936450000001              0.02613327
    58   1      4.0587364700000004      25.776936450000001              0.02613327
    59   1      8.1175325399999991              25.7767713    0.024734180000000001
    60   1      12.176376469999999      25.776831090000002              0.02545323
    61   1      16.235145939999999      25.776775220000001    0.025273360000000002
    62   1             20.29399038      25.776775220000001    0.025273360000000002
    63   1      24.352759840000001      25.776831090000002              0.02545323
    64   1      28.411603769999999              25.7767713    0.024734180000000001
    65   1  0.00024266000000000001              2.34304215     0.80166565000000001
    66   1      4.0585502699999996              2.34304215     0.80166565000000001
    67   1      8.1157394600000003              2.34454954     0.80169402000000001
    68   1             12.17601256      2.3433829099999999     0.80116898000000003
    69   1      16.235258170000002      2.3433209100000001     0.80090046999999998
    70   1      20.293878150000001      2.3433209100000001     0.80090046999999998
    71   1      24.353123750000002      2.3433829099999999     0.80116898000000003
    72   1      28.413396859999999              2.34454954     0.80169402000000001
    73   1      2.0293964600000001      5.8582218700000004     0.80119762000000005
    74   1      6.0870566899999998      5.8583336700000004              0.80194851
    75   1             10.14649655              5.85853131     0.80121584000000001
    76   1             14.20597894      5.8582938599999999     0.80086840999999998
    77   1             18.26456816      5.8583798500000004               0.8010794
    78   1      22.323157380000001      5.8582938599999999     0.80086840999999998
    79   1             26.38263976              5.85853131     0.80121584000000001
    80   1      30.442079629999999      5.8583336700000004              0.80194851
    81   1  0.00019438999999999999      9.3717771800000005     0.80082061000000004
    82   1      4.0585985400000002      9.3717771800000005     0.80082061000000004
    83   1      8.1175070500000004      9.3725002699999997     0.80149060999999999
    84   1      12.176590020000001      9.3733583399999993     0.80088261999999999
    85   1             16.23512199      9.3733789200000004              0.80106506
    86   1             20.29401433      9.3733789200000004              0.80106506
    87   1      24.352546289999999      9.3733583399999993     0.80088261999999999
    88   1      28.411629269999999      9.3725002699999997     0.80149060999999999
    89   1      2.0293964600000001             12.88692854     0.80220621000000003
    90   1      6.0883212999999996             12.88743848     0.80138414999999996
    91   1      10.147128609999999             12.88859852     0.80085256000000005
    92   1             14.20571782      12.888558189999999     0.80113791000000001
    93   1             18.26456816      12.888409899999999     0.80109381000000002
    94   1      22.323418490000002      12.888558189999999     0.80113791000000001
    95   1             26.38200771             12.88859852     0.80085256000000005
    96   1      30.440815019999999             12.88743848     0.80138414999999996
    97   1              0.00012365      16.403222639999999     0.80145666999999998
    98   1      4.0586692700000002      16.403222639999999     0.80145666999999998
    99   1      8.1174337899999998      16.403825260000001     0.80097196999999998
   100   1              12.1761021             16.40390721     0.80133072000000005
   101   1             16.23503496      16.403861750000001     0.80140014999999998
   102   1      20.294101359999999      16.403861750000001     0.80140014999999998
   103   1      24.353034220000001             16.40390721     0.80133072000000005
   104   1      28.411702529999999      16.403825260000001     0.80097196999999998
   105   1      2.0293964600000001      19.919205120000001     0.80066369999999998
   106   1              6.08752564             19.91894023     0.80122479000000002
   107   1      10.146078839999999             19.91919038     0.80159137999999996
   108   1      14.204993419999999              19.9192584     0.80178742000000003
   109   1             18.26456816      19.919377350000001     0.80194975999999996
   110   1      22.324142899999998              19.9192584     0.80178742000000003
   111   1      26.383057470000001             19.91919038     0.80159137999999996
   112   1      30.441610669999999             19.91894023     0.80122479000000002
   113   1              0.00142012      23.434536609999999     0.80178442000000005
   114   1      4.0573728100000004      23.434536609999999     0.80178442000000005
   115   1      8.1165862000000004      23.433936769999999     0.80182306000000003
   116   1             12.17555218      23.433996919999998     0.80156656000000004
   117   1             16.23465491      23.434040110000002     0.80170828999999999
   118   1      20.294481409999999      23.434040110000002     0.80170828999999999
   119   1      24.353584130000002      23.433996919999998     0.80156656000000004
   120   1      28.412550110000002      23.433936769999999     0.80182306000000003
   121   1      2.0293964600000001      26.949875330000001              0.80297246
   122   1      6.0858208300000003      26.950066320000001              0.80215291
   123   1             10.14598146      26.949241430000001     0.80165810000000004
   124   1             14.20520604      26.948673230000001     0.80131923999999999
   125   1             18.26456816             26.94858318     0.80108193999999999
   126   1      22.323930279999999      26.948673230000001     0.80131923999999999
   127   1      26.383154860000001      26.949241430000001     0.80165810000000004
   128   1             30.44331549      26.950066320000001              0.80215291
   129   1      32.496613500000002              28.1575585              1.50285494
   130   1              4.09166396   -0.069222249999999999              1.31413947
   131   1              7.98481416      28.161905180000002              1.41297721
   132   1      12.401872320000001   0.0012074200000000001              1.60382544
   133   1      16.340868969999999      28.226246580000002              1.30820187
   134   1      20.398637650000001      27.972422760000001      1.3900797199999999
   135   1             24.41257332    0.087017339999999999              1.35437052
   136   1             28.30849452              0.02712295      1.4282475699999999
   137   1      2.0563701299999999      3.5591263400000002      1.5412981800000001
   138   1      6.1026991199999996              3.63550832      1.6552378800000001
   139   1      10.196474139999999              3.35308355      1.1302643999999999
   140   1      14.265013079999999              3.55061823              1.37565424
   141   1      18.174839519999999      3.7129101599999998              1.54812828
   142   1      22.479078789999999      3.5284064800000001      1.4974002399999999
   143   1      26.454878260000001      3.5352995200000001              1.58127913
   144   1      30.374889849999999      3.5383641699999999              1.43762916
   145   1      32.439855489999999              7.07060917              1.48090415
   146   1      4.1402786000000003      6.9244508800000002      1.4706092500000001
   147   1      8.0746351500000006      6.8460799899999998              1.56875268
   148   1      12.289141839999999      7.0302516099999997      1.5323899400000001
   149   1      16.267721420000001              6.88561025      1.4426669299999999
   150   1      20.270006259999999      7.0206828200000002      1.4770875999999999
   151   1      24.347495949999999      7.0936745700000001      1.3454116700000001
   152   1             28.32874047      7.0410607799999996              1.52283675
   153   1      2.1988089199999998              10.5184769              1.49274873
   154   1              6.18287721      10.483455060000001      1.5402769199999999
   155   1             10.08907331      10.525144709999999              1.32825587
   156   1      14.266747479999999             10.62131108      1.2363342799999999
   157   1      18.252262250000001      10.534665179999999      1.5613093600000001
   158   1             22.33458761             10.59065987              1.47421994
   159   1      26.340060210000001             10.56865816               1.6481355
   160   1      30.405102830000001             10.51599949              1.45400686
   161   1      32.531767260000002             13.96650425              1.54528851
   162   1      4.2058226999999997             14.07119997      1.5470370200000001
   163   1              8.24373252      14.083370739999999      1.2317012300000001
   164   1             12.35477326             14.01391024      1.3986061999999999
   165   1      16.257292339999999             13.93465836      1.2862073000000001
   166   1             20.40728691             13.94049176              1.55886846
   167   1      24.320431960000001      14.135801730000001      1.4330008700000001
   168   1      28.349801859999999             14.03040571      1.4531723299999999
   169   1      2.1371210999999999      17.708203300000001      1.5175632100000001
   170   1      6.1628496500000001      17.527541809999999              1.41926544
   171   1      10.240892390000001             17.46833857              1.60297227
   172   1             14.35356771      17.656026199999999      1.6359553099999999
   173   1      18.332504140000001      17.576090820000001               1.3923941
   174   1      22.368785429999999      17.537153140000001               1.3251903
   175   1      26.276132839999999      17.616729589999998      1.6905861200000001
   176   1      30.511466429999999      17.531499790000002      1.3449600500000001
   177   1              -0.0137772      21.128461099999999              1.26525109
   178   1      4.1811985299999996      21.108204700000002              1.56820106
   179   1      8.1813290799999994             21.02664643               1.6037944
   180   1      12.098500120000001      21.044338310000001              1.36522911
   181   1      16.054766950000001              21.1720158              1.50346593
   182   1             20.29632024      21.053579129999999              1.55055907
   183   1      24.393191519999998      21.124922420000001      1.3848310699999999
   184   1      28.568914710000001             21.09503759               1.5986742
   185   1              2.00197643             24.67166542      1.5476821300000001
   186   1      6.2147344499999999      24.670988560000001               1.4242717
   187   1      9.9929221399999992             24.50728093              1.27530396
   188   1      14.198239640000001             24.60348578      1.3813888400000001
   189   1      18.326321440000001      24.595484630000001      1.2662177299999999
   190   1      22.268580700000001      24.576819189999998              1.26668023
   191   1      26.388349999999999      24.580160119999999      1.3692807300000001
   192   1      30.567357749999999      24.420535600000001      1.3730892699999999
   193   1      1.9149823500000001              1.21384241              2.42974048
   194   1      6.1837743400000003              1.23998695      2.4234224200000001
   195   1             10.22472754               1.2155288      2.6233427599999999
   196   1             14.36361153              1.12934209              2.51140053
   197   1      18.353559059999998      1.2648709499999999      2.4335436700000002
   198   1      22.358920770000001              1.18538722      2.3704789800000001
   199   1      26.266317010000002      1.0636779000000001      2.4739472600000001
   200   1      30.442609640000001              1.25200467               2.4698905
   201   1      32.552964109999998      4.6236591499999999      2.4549421499999999
   202   1      4.0562401299999999      4.6288150999999997      2.3522097799999999
   203   1      8.1885614499999999      4.5361974299999996              2.45034924
   204   1      12.221290189999999      4.6164354899999998      2.4412266300000001
   205   1      16.196858750000001      4.7024081000000004      2.3758971099999999
   206   1      20.376914079999999      4.4256894200000003              2.49637295
   207   1      24.299712339999999      4.9027452599999997      2.3831459499999998
   208   1      28.434406719999998      4.6459366800000002      2.4179987700000001
   209   1              2.12773082      8.1457428099999998      2.4294772199999999
   210   1              6.16666822      8.1302935000000005      2.3155636099999999
   211   1             10.04501447      8.1580005900000003      2.5250811400000002
   212   1      14.211726390000001      8.2944860299999998      2.4209663199999998
   213   1             18.31045658      8.3663754499999996              2.41510801
   214   1             22.36475154      8.1688661499999995      2.3523981200000001
   215   1             26.38039552      8.1718945699999992      2.3820073399999999
   216   1             30.45461899      8.0548169600000001      2.5322258199999998
   217   1             32.66316973             11.65050866      2.4983915400000001
   218   1      4.2204935399999997             11.44084855               2.3453572
   219   1      8.0879547400000007              11.7075797      2.4734344500000001
   220   1             12.16663432      11.767252490000001      2.3388839300000002
   221   1      16.082814169999999      11.745686170000001              2.47063145
   222   1             20.17614528             11.79505634      2.4546843300000001
   223   1             24.43400355             11.73829503              2.40834379
   224   1      28.372444730000002             11.54217221      2.3694305299999998
   225   1      2.0169466200000001             15.17534011      2.3126013300000001
   226   1      6.1535521299999996              15.4259933      2.5450434999999998
   227   1      10.134243250000001             14.99173131      2.4710620200000002
   228   1             14.23169949             15.20218401      2.3164357099999999
   229   1      18.193903880000001      15.248470230000001      2.3514679599999999
   230   1      22.456435200000001             15.36262037      2.2489184999999998
   231   1      26.418829939999998             15.22908477      2.4713071800000002
   232   1      30.285820399999999             15.26729746              2.45543084
   233   1   -0.069732440000000007             18.91285959      2.3286967399999998
   234   1      4.0729508399999999             18.76562745      2.3009014799999998
   235   1      8.1267355099999996             18.75484861      2.4987443900000001
   236   1             12.28848679      18.766783350000001      2.3568385300000001
   237   1             16.11113284      18.813518510000002              2.42367423
   238   1      20.359657639999998      18.639315740000001      2.1936210799999998
   239   1             24.21838893      18.753316300000002      2.3821205299999999
   240   1      28.353190869999999      18.832266050000001      2.3281190700000001
   241   1      2.0625535199999998      22.185057109999999      2.4696763000000002
   242   1      6.1330026599999998             22.35437954      2.4764722300000002
   243   1             10.17846662      22.170770879999999      2.5894844199999998
   244   1             14.25114733             22.47073881      2.3111063999999999
   245   1      18.266443450000001      22.219656919999998              2.35269284
   246   1      22.435377679999998      22.466289570000001      2.4175380999999998
   247   1             26.45106023      22.241663939999999              2.41759105
   248   1             30.83034194      22.150150880000002      2.4869553899999999
   249   1     0.15484998999999999      25.813310139999999              2.47656491
   250   1      4.2539719299999996      25.795582599999999      2.6397275200000001
   251   1      8.2523358400000006             25.81638937      2.3121439399999999
   252   1      12.220575950000001      25.691166070000001              2.50082877
   253   1      16.142228889999998             25.75687954      2.2739464300000001
   254   1      20.486826570000002      25.679279210000001      2.3987284799999999
   255   1             24.23884996             25.88830544      2.2782330000000002
   256   1      28.416672859999998      25.706651440000002      2.4019137499999998
   257   1      32.433498299999997      2.1853390500000001      3.3244228300000001
   258   1      4.0512241099999997      2.2962381399999998      3.2995506899999998
   259   1      8.1816659499999993              2.28969216              3.38885682
   260   1      12.302572319999999      2.2306066699999998      3.3338297200000002
   261   1      16.190489939999999      2.5215784399999999              3.28414633
   262   1      20.270222230000002      2.1767479299999999              3.19832955
   263   1             24.22879593      2.3617746099999999      3.3311740099999998
   264   1      28.460322959999999      2.2915710200000001      3.3591538000000001
   265   1      2.0687145199999999      5.8186602799999996      3.1603788700000002
   266   1      6.2101035800000002      5.7979441400000002              3.22799229
   267   1      10.069897060000001      5.9132080800000004      3.2769642800000001
   268   1      14.338266880000001      5.9571851200000001              3.25097967
   269   1      18.417689280000001      5.7956160299999997              3.26852681
   270   1             22.22095397      5.8031595400000002      3.3001670700000001
   271   1             26.33955065      5.9431793900000001      3.2008504200000001
   272   1      30.558235880000002      5.8594068100000003      3.3476262000000001
   273   1   0.0088837099999999995      9.1817650499999992      3.2173718500000001
   274   1      4.1357130399999997      9.3106316200000006      3.2231339600000002
   275   1      8.0098365000000005      9.4202205499999998      3.4360773899999999
   276   1      12.215748550000001      9.3246002400000005      3.2036999700000002
   277   1             16.14292099      9.4446826799999997      3.1974785799999998
   278   1      20.222807599999999      9.3817657800000003      3.4134834600000001
   279   1      24.461167639999999      9.3919639099999994      3.2907097200000002
   280   1      28.435474459999998      9.3255142200000005      3.2299488799999998
   281   1              2.09470256             12.67623551      3.3111221899999999
   282   1      6.1112406699999999             13.03049672      3.2586905700000002
   283   1      9.9759810800000004      12.834153300000001      3.2086448399999998
   284   1             14.24101125      12.843293859999999      3.2374467899999999
   285   1      18.292969660000001             12.85636747      3.0177060199999999
   286   1      22.295475880000001      12.908871530000001      3.1293726799999999
   287   1      26.371828789999999             12.85496073      3.3114762999999998
   288   1             30.51942631      12.874968819999999      3.2028975000000002
   289   1      32.356258699999998      16.380671549999999      3.3116058499999999
   290   1      4.0707263300000003      16.370142000000001      3.2141620799999999
   291   1      8.2015236199999997              16.4785805      3.3992832599999998
   292   1             12.19781759      16.233206880000001      3.2062660699999999
   293   1             16.37078172      16.383629490000001      3.2338244500000002
   294   1      20.560212709999998      16.619705549999999              3.15583188
   295   1      24.414565410000002      16.500182280000001      3.1820285400000001
   296   1      28.285919570000001      16.384513859999998      3.4947622599999999
   297   1      2.0508221099999999             19.86820951      3.2381432600000002
   298   1              6.02547707      20.022640330000002              3.21207632
   299   1             10.16480649      19.819292829999998      3.3515727200000001
   300   1              14.1928585      20.141493749999999      3.1736029600000002
   301   1      18.389534179999998      19.831841560000001              3.21384684
   302   1      22.205045770000002      19.890584149999999      3.0686336999999999
   303   1      26.267090670000002      19.881755219999999      3.2311411400000001
   304   1      30.426196839999999             19.75880471      3.4360278399999999
   305   1              0.20822615      23.377276930000001                3.319556
   306   1              4.09471059      23.396121390000001      3.3618334299999999
   307   1      8.0436150699999995      23.423446080000002              3.33300843
   308   1             12.10588115      23.410807429999998              3.31630571
   309   1             16.21643332      23.636867649999999      3.2257188299999999
   310   1      20.329774019999999              23.4104852      3.2363123100000002
   311   1      24.502313189999999      23.445104529999998              3.26240138
   312   1             28.42355796             23.42716613      3.2338170499999999
   313   1              1.98498434      26.917073049999999              3.27225886
   314   1      6.3192633000000002      27.064871350000001      3.2786714799999999
   315   1             10.22131355      26.852748049999999      3.3706747899999998
   316   1      14.181310549999999      26.855609359999999      3.2275570500000001
   317   1      18.344416979999998      26.801889979999999              3.23931039
   318   1             22.33072001             26.89815673      3.2859482199999999
   319   1             26.46568147      27.010361450000001              3.18498094
   320   1      30.363917199999999      26.927542089999999      3.3861867299999999
   321   1             -0.11490259             28.23544132      4.1192753399999997
   322   1      4.0445311300000002  -0.0087753599999999994      4.0306721599999999
   323   1      8.2926329800000005      28.010753600000001      3.9580292099999999
   324   1      12.333626929999999      28.209420130000002      4.1550689800000002
   325   1      16.265495080000001    0.015764710000000001      3.9066334899999999
   326   1      20.363935049999998      27.957155270000001              3.94944681
   327   1      24.364473830000001             28.13255822      4.0121262199999999
   328   1      28.330663179999998      28.115740330000001              4.06288699
   329   1              1.99627197      3.4939962200000001      4.0011453399999999
   330   1      5.9800890000000004      3.5880609300000001      4.1522915400000002
   331   1      10.162509979999999      3.2466108600000001      4.0746824400000001
   332   1             14.13709809      3.5926230299999999              4.11323215
   333   1      18.132629600000001      3.5078204500000001      4.0515904200000001
   334   1             22.16293417              3.43234737      4.0864434799999998
   335   1      26.436744229999999      3.5732720100000002      4.2091444500000001
   336   1      30.498439980000001      3.4019336500000001      4.1012981000000002
   337   1     0.22531573999999999      6.8458060500000002      4.3620986500000001
   338   1      4.0278803400000003      6.8891977100000004      4.2706161500000004
   339   1      8.1119483300000006      6.9092181300000002              4.16408193
   340   1      12.430147570000001      7.0938677099999996      4.2087989800000001
   341   1               16.462598      6.9820593899999999      4.2404568899999999
   342   1      20.308179469999999      6.9989971600000001      4.0560554399999997
   343   1      24.319631090000001      7.0055475100000004      3.9823108399999998
   344   1      28.455869329999999      6.9744148399999997      4.0614829099999996
   345   1              1.97781425             10.46582325      4.1661050499999996
   346   1      6.1150635199999996             10.74679693      4.0886699399999999
   347   1      10.273256610000001             10.30275885      3.9562539399999999
   348   1             14.21607096      10.491746210000001      3.9272570099999999
   349   1      18.203655659999999             10.50430873               4.1955779
   350   1      22.319301830000001      10.381695759999999      3.9872903100000001
   351   1      26.469352959999998      10.618019329999999              4.09858221
   352   1      30.502868110000001      10.409872760000001      4.0416878299999999
   353   1      32.476426529999998      14.022704170000001      4.1614789200000004
   354   1      4.1189893499999997             14.05882158      3.8979934599999999
   355   1      8.0710323600000002      14.161236730000001      4.1142082599999998
   356   1             12.13378986             13.92260666      4.2581799399999998
   357   1      16.287678190000001      14.062645209999999      3.9493872900000002
   358   1      20.332626470000001             14.19160445      4.0872658900000003
   359   1             24.36193952             14.05407733      4.1095132000000003
   360   1             28.33752492             14.09393805      4.2014462400000001
   361   1      1.9638172700000001             17.49242104              4.10221093
   362   1      6.2243730700000004      17.636344099999999      4.0935452899999998
   363   1      10.237326830000001      17.656399910000001      4.2786478600000004
   364   1             14.11745376      17.524802260000001      4.1737703899999996
   365   1      18.402971489999999             17.42273952      4.0566771700000004
   366   1              22.4667432             17.48799301      4.0350970200000003
   367   1      26.270106689999999      17.709323260000001      4.0963494999999996
   368   1      30.358232510000001      17.441015149999998      4.0613938200000002
   369   1      32.658379330000002             21.04199543      4.1743948599999996
   370   1      4.0542997500000002      21.223731170000001      4.0534615399999998
   371   1      8.1623880999999994      21.083736030000001      4.4392178099999997
   372   1             12.11029806             20.99732814              4.05558788
   373   1             16.17484842      21.128143569999999      4.1116236099999997
   374   1      20.437142080000001      20.971201140000002      4.0418359099999996
   375   1      24.248608319999999             20.97621595      4.1698134800000002
   376   1      28.483539369999999      21.019726089999999      4.1874488999999997
   377   1      2.1182619800000002      24.398722920000001      4.1385800499999998
   378   1      6.2580498699999998      24.534382619999999      3.9297971600000001
   379   1             10.16291436      24.501532560000001      4.1617027499999999
   380   1             14.27340828             24.65018568      4.2785397300000003
   381   1      18.366901550000001      24.505805580000001      4.0111938299999998
   382   1      22.323016599999999      24.580144829999998      4.2041615400000003
   383   1      26.394963950000001      24.662288700000001      4.2111058899999998
   384   1      30.453289680000001      24.382593069999999      4.0436388900000004
   385   1      2.0637209599999999      1.2114142400000001      5.0006920900000003
   386   1               6.0912435      1.3837149799999999      5.1146606400000003
   387   1      10.272298490000001     0.99191258999999998      4.9564006999999997
   388   1      14.402811850000001              1.29902451      5.1594449999999998
   389   1      18.351013980000001               1.0689651      4.8020293699999996
   390   1             22.22860142      1.0178040900000001      4.9402743300000003
   391   1      26.465405189999998      1.1094263600000001              5.06509257
   392   1      30.407567660000002      1.0942301000000001      5.0801458899999998
   393   1   -0.068116469999999998      4.3311443000000001      5.0687139600000002
   394   1              3.90002139      4.5804800099999996      4.9888171699999999
   395   1      8.0950580300000006      4.6167371299999997      4.9715965300000002
   396   1             12.11826595      4.7394062999999997      4.8272552400000004
   397   1             16.11850446      4.7980589499999997      5.0210654000000003
   398   1             20.10473412      4.4908094199999997              4.97597193
   399   1             24.28980803      4.4835266300000001              4.83201255
   400   1      28.491060300000001      4.6115685500000003              5.01304894
   401   1                2.078862      8.2149864699999995      5.0906811699999999
   402   1      6.0720040700000002      8.2662062200000008      4.9311875799999996
   403   1      10.177006479999999      7.9855302400000001      5.1612351900000002
   404   1             14.34432984      8.2451002500000001      5.0246757799999999
   405   1             18.25883503      8.3130851900000007              4.90841247
   406   1      22.303023960000001      7.9076449100000001      4.8863231100000002
   407   1             26.50636214      8.2590374499999992      4.9946434100000001
   408   1      30.549456320000001      8.1751073499999993              4.96004691
   409   1             -0.10931204      11.546200539999999      4.9990249599999999
   410   1              4.09487165             11.84317061      4.7599753500000004
   411   1      8.1761387400000007             11.78156306      5.0024923100000001
   412   1             12.11089789             11.56132167      4.8273258400000003
   413   1      16.115366030000001             11.59414482      4.9561047699999996
   414   1             20.27399651             11.49360239      5.0367599299999997
   415   1              24.2372063             11.60008749      5.1083647399999998
   416   1      28.440723179999999             11.59062044      5.0111037600000001
   417   1      2.0579506900000002             15.23665929      4.8763202100000003
   418   1              6.12701955      15.223531189999999      5.1455266499999999
   419   1      10.111411520000001             15.29943456              5.03239619
   420   1             14.26044538             15.14384703      4.7080053499999996
   421   1      18.081067260000001             15.20495736      5.0888667700000001
   422   1      22.211735999999998             15.12738242      4.8569990699999996
   423   1      26.249633249999999             15.17806826      5.1729498100000004
   424   1      30.464472369999999             15.20394928      4.7275344500000003
   425   1    -0.12908800000000001             18.70576208      4.9570182699999998
   426   1      4.0582440399999999             18.64248087      4.8166012599999997
   427   1      8.1987754499999994             18.64840105      5.0699338100000002
   428   1             12.27040399      18.691672860000001      5.0720815300000002
   429   1      16.120101089999999      18.614973110000001      4.9953120899999996
   430   1      20.468422400000001      18.738536010000001      5.0704766000000001
   431   1      24.177991290000001             18.70960466              5.02709004
   432   1      28.331789090000001             18.61553112      5.1663959999999998
   433   1      2.1207189400000002      22.180287620000001      4.9668484800000003
   434   1      6.1226919300000002      22.082640009999999      5.0252367500000004
   435   1             10.11454185      22.035765120000001      5.0307381500000004
   436   1      14.205391929999999      22.212423860000001      4.8628611900000003
   437   1      18.234441489999998      22.302163270000001      4.6835620999999996
   438   1      22.317914500000001      22.230490979999999              4.91114315
   439   1             26.40068561      22.042571420000002      5.0042793999999997
   440   1      30.461800350000001             22.28471197      4.8483490800000002
   441   1  -0.0033919100000000002             25.71670688      4.9710459399999998
   442   1              4.34331041              25.8578343      4.8161902599999999
   443   1      8.1289098099999997      25.570092760000001              4.98130937
   444   1             12.29573431             25.79254693      4.8249412200000004
   445   1      16.355396420000002      25.892782780000001              5.03399938
   446   1      20.221396250000002      25.779746400000001      5.0891343300000003
   447   1      24.405673820000001      25.733569280000001      4.7724184899999997
   448   1      28.621160400000001      25.663255119999999      4.8152514599999998
   449   1              0.05027703      2.0368888799999998      5.8768770000000004
   450   1      4.1369769400000003      2.3784259300000001      5.8579512200000003
   451   1      8.2864377400000002              2.15509079      5.9885180499999997
   452   1      12.286432960000001              2.47937333      5.6768036400000002
   453   1      16.243091450000001      2.4174249400000001      5.8274251599999998
   454   1              20.1973108      2.1618428000000001      5.8764192700000004
   455   1      24.324997719999999              2.21462235      5.6264590600000002
   456   1      28.419423429999998      2.3919207999999998      5.8612499700000003
   457   1              2.14959203              5.84602749      5.6765154000000004
   458   1      6.1006299200000003      5.8049555599999998      5.6258397699999998
   459   1             10.17151488      5.8602965899999999      5.6865241299999996
   460   1             14.16619783      6.0479911399999997      5.8078579100000001
   461   1      18.207624630000002              5.78468172      5.6869956300000002
   462   1      22.333326289999999              5.62921665      5.7896483500000002
   463   1      26.314685990000001      5.7271687099999999      5.7931771100000002
   464   1      30.543559399999999      5.6964225800000001              5.77267566
   465   1    0.093717170000000002      9.1356103500000003      5.6661330000000003
   466   1      3.9735003099999999      9.3760930099999999      5.7963852100000004
   467   1      8.0236495399999992              9.27942453      5.9845061900000003
   468   1             12.21592525      9.1544415400000005      5.8442392600000002
   469   1      16.298487600000001      9.3105881200000002      5.7424643299999998
   470   1      20.245569410000002      9.2528885800000005      5.8176408799999999
   471   1             24.22178765      9.1387063299999998      5.7494701800000003
   472   1      28.529365389999999      9.2880556199999997      5.7876337099999997
   473   1      2.0332724600000001      12.858465089999999      5.6741281600000004
   474   1      5.9747317200000003             12.82464895      5.6418328000000004
   475   1      10.242621529999999      12.683637969999999      5.9277735099999997
   476   1      14.008173129999999      12.701832339999999      5.7291917799999998
   477   1      18.212985790000001             12.89893711      5.6952418900000001
   478   1      22.212511630000002      12.748009270000001      5.7134080100000002
   479   1      26.375870290000002             12.74482974      5.8792042899999997
   480   1      30.293676810000001             12.83678797      5.5946393499999996
   481   1   -0.020524489999999999      16.327523379999999      5.6872664400000001
   482   1      4.0563648199999998      16.317016689999999      5.8097199899999996
   483   1      8.0569525500000001      16.358942689999999              5.89372249
   484   1             12.33006937      16.319307640000002               5.9240382
   485   1      16.135721530000001      16.338935679999999      5.8357836799999996
   486   1             20.30528954      16.284563299999999      5.7083852999999998
   487   1             24.35775469      16.263372889999999      5.9775063599999996
   488   1      28.580839229999999      16.350574699999999      5.9078163400000001
   489   1      1.8320254600000001      19.798339160000001      5.7922403400000002
   490   1      5.9206029999999998              19.9824722      5.7262191900000001
   491   1             10.19689567             19.76434214      6.0238482099999997
   492   1      14.233361260000001      19.874086930000001      5.8723397100000003
   493   1             18.21776127             19.96086966      5.6401086400000002
   494   1      22.270061980000001      19.939589430000002      5.7949481499999997
   495   1             26.29142753             19.80504685      5.7910932300000004
   496   1             30.34604667      19.748920389999999      5.8174827599999999
   497   1     0.15924696999999999      23.496714140000002      5.8033086599999999
   498   1      4.2985407799999997      23.571569780000001      5.7651875099999996
   499   1      8.2414558499999995      23.293214509999999      5.8777444299999999
   500   1      12.362335180000001             23.37416472      5.6860872699999998
   501   1      16.257761729999999      23.524329470000001      5.7046926600000001
   502   1      20.304615680000001      23.247918739999999      5.5652840899999996
   503   1      24.334982140000001             23.38212936      5.8088111199999997
   504   1      28.170588389999999      23.336677630000001      5.8813523700000001
   505   1      2.0861192499999999      26.952796509999999      5.6159965400000003
   506   1      6.0274687299999998      27.193551849999999      5.6989105799999997
   507   1             10.28713321             26.87843157      5.8081749900000004
   508   1      14.365047260000001      26.990798649999999      5.9047490199999997
   509   1             18.15111293      26.894573980000001      5.6676191899999999
   510   1      22.342385149999998      26.917483109999999      5.7757724499999998
   511   1      26.304264629999999      26.914741249999999      5.5368278100000001
   512   1      30.538424729999999      26.958099279999999      5.8353667400000004
   513   1    0.082609989999999994      28.049571740000001               6.7809149
   514   1      4.0899753499999996      28.155763539999999      6.8021420600000004
   515   1      8.0737743500000008      27.777230100000001      6.4406006099999997
   516   1             12.22242997     0.10771451999999999      6.5329014499999998
   517   1      16.352178949999999    0.043366540000000002      6.5599130099999998
   518   1      20.222653000000001             28.04679531      6.3913408599999997
   519   1      24.180478369999999      28.115896970000001      6.7362265800000003
   520   1      28.466499089999999      27.936791400000001      6.5835068400000001
   521   1      2.0442096699999999      3.3245629399999999      6.5087940299999998
   522   1      6.3887795599999997               3.3140285      7.0565160699999998
   523   1             10.08961731              3.46071821      6.7758090900000001
   524   1      14.233239859999999      3.4485095299999999      6.7404669100000003
   525   1             18.22823898      3.3800239900000002      6.5921753299999999
   526   1             22.40391541      3.1293035599999999      6.5999243300000003
   527   1      26.437409089999999              3.32215617      6.6357933300000003
   528   1      30.443452789999998      3.3698356700000001      6.8464055300000002
   529   1   0.0046597100000000001      6.8669200799999999      6.9242984500000002
   530   1      3.9061636399999999      6.8910569800000001      6.5100292900000003
   531   1      8.2383541499999993      6.8347736299999999      6.6217636500000001
   532   1      12.055011690000001      6.8996396999999998      6.7019595199999999
   533   1      16.184809560000001      7.0508665099999996      6.8219591099999999
   534   1             20.22301684      6.9187347499999996      6.7127891200000001
   535   1      24.249518859999998      7.0723909000000003      6.5284510300000003
   536   1              28.4914001      6.9000845699999998              6.70036012
   537   1      1.9970830900000001      10.520373530000001      6.6922091799999999
   538   1      6.0700265099999999             10.37154059              6.54257621
   539   1      10.143302759999999             10.31177995              6.75409551
   540   1             14.26929455              10.3207007      6.5598092399999999
   541   1      18.122029940000001      10.600717919999999               6.6532171
   542   1      22.157382080000001             10.40109745      6.6862983399999996
   543   1             26.48403562             10.38582203      6.6884965200000002
   544   1      30.506462070000001      10.611951960000001      6.6291155599999998
   545   1    0.036797490000000002      14.076050459999999      6.7144110399999999
   546   1              3.86318596             14.01016445      6.6449271999999997
   547   1      8.0113319599999997      13.961008189999999              6.77246609
   548   1             12.21515177              14.0286393      6.8182168399999998
   549   1             16.35740848      14.070448689999999      6.6007542399999997
   550   1      20.174082510000002              14.0258029              6.55547843
   551   1             24.27618124              13.7777388      6.5852559399999997
   552   1      28.329721020000001      13.899229050000001      6.7275262400000004
   553   1      2.0000114400000002      17.599467839999999      6.5499607099999997
   554   1      5.9043281199999997             17.49618147      6.6797200500000002
   555   1             10.21111239      17.280374479999999      6.6178660899999997
   556   1      14.172297820000001      17.652312680000001      6.8339337200000001
   557   1             18.25357954             17.50206056               6.7835861
   558   1      22.468768480000001      17.608384189999999      6.5744423300000001
   559   1      26.650534669999999             17.48560934      6.8513629099999998
   560   1             30.56262731      17.384000390000001      6.6544999499999999
   561   1             32.40434303      21.283390310000001      6.8383412200000002
   562   1      3.8902176700000002      21.126197860000001      6.5766711899999999
   563   1      8.1282261899999995      20.819438689999998      6.6799928199999998
   564   1      12.297190929999999      21.194066880000001      6.7150660999999996
   565   1             16.28094858      21.022531879999999      6.6707406000000002
   566   1      20.251090009999999      21.012141889999999      6.5734132000000001
   567   1             24.26586592      20.962125400000001      6.5216565800000001
   568   1      28.282385210000001              21.0187621      6.7908465299999996
   569   1      2.3279711000000001             24.52326588      6.3265829800000004
   570   1      6.4963634600000004              24.7519651      6.6107674000000003
   571   1             10.11776923      24.399211439999998      6.6528490199999997
   572   1      14.196645719999999      24.581680909999999      6.8706017399999997
   573   1      18.327623590000002      24.537895809999998      6.5401151500000001
   574   1      22.210622189999999      24.556755750000001      6.6608369500000002
   575   1      26.276408180000001             24.52150074      6.6829077400000001
   576   1      30.504436640000002             24.68772074              6.68577829
   577   1      2.2783331800000002              1.17127325      7.6954003999999996
   578   1      6.3110436099999996     0.94354833000000005      7.8011299799999998
   579   1      9.9556841200000008              1.18052001      7.5371941500000004
   580   1             14.32157205               1.1629337      7.5284432800000003
   581   1      18.431014390000001      1.0648126499999999      7.4324029600000001
   582   1      22.228566480000001              1.08855364      7.4174524000000002
   583   1      26.259320550000002              1.00505607      7.6663690100000004
   584   1             30.41701621     0.92127999999999999      7.5757955700000004
   585   1      32.602536030000003      4.4425357600000002      7.8884766199999996
   586   1      4.1745868399999999      4.4360064499999998      7.5181159900000001
   587   1      8.1456908400000003      4.6826087100000002      7.6946259399999999
   588   1      18.306365509999999     0.76231349999999998              9.59880055
   589   1             16.24329681      4.5007387999999997      7.6748578800000002
   590   1      20.347315739999999      4.4040103200000003      7.1827405600000001
   591   1             24.37838837      4.3881482500000004      7.4381704600000003
   592   1      28.276631460000001      4.5734247200000002      7.9986966700000002
   593   1              1.94438997      8.1625147299999998      7.4449557200000003
   594   1      5.7509835599999999      8.4057443299999992      7.4725969599999997
   595   1             10.05343137      8.2188649100000006      7.6999060500000001
   596   1             14.07662189      8.1401589100000002      7.5894285300000002
   597   1             18.32905104      8.3039009200000002      7.3076382100000004
   598   1      22.252484089999999      8.0511187900000003      7.2945009699999996
   599   1      26.184426899999998      8.0807394699999993      7.6370622299999997
   600   1      30.525981529999999      8.3044639799999995      7.5406636799999998
   601   1      32.386026409999999             11.59555042      7.3238841800000003
   602   1      4.0164362200000001      11.694996359999999      7.4916887699999997
   603   1      8.2549861399999998              11.6428162      7.7115372500000001
   604   1      12.000987589999999             11.42714833      7.4282313699999998
   605   1      20.694829590000001      6.8806938600000001      9.0285280399999994
   606   1      20.343190459999999      11.727934490000001      7.5685747900000004
   607   1      24.253525589999999      11.363990100000001      7.5936361999999997
   608   1      24.071471259999999      9.0600413999999994      8.1365058900000005
   609   1              2.04462397             15.35428196      7.3553102399999997
   610   1      5.9453877500000001             14.95637492      7.3874455699999997
   611   1      12.467361289999999              16.0446156      8.3449171399999997
   612   1      14.296543639999999             15.16989298      7.0965516800000001
   613   1              18.1671771      15.334162190000001      7.5652707499999998
   614   1              22.4061281             15.37822004      7.3651279000000001
   615   1      26.359167190000001      15.093127300000001      7.6883750900000001
   616   1      30.392704599999998              14.9840971      7.5728251699999998
   617   1    0.023411999999999999      18.430508549999999      7.7092179099999996
   618   1              4.03303849             18.87232268      7.4571194299999997
   619   1      8.0150610800000006             18.66704687      7.8174533799999999
   620   1             12.17017499             18.57789528              7.84638451
   621   1      16.324135810000001      18.908258750000002      7.3645436499999999
   622   1             20.23583597      18.760130090000001      7.4747658799999996
   623   1      24.305230699999999             18.63942321      7.3288786100000003
   624   1             28.63405792      18.655288370000001              7.88682222
   625   1      2.1512884900000002             22.45275711      7.5259444000000002
   626   1      6.1503871800000001      22.266966830000001      7.3857573900000002
   627   1             12.35574536      21.014383469999999      9.2922994299999999
   628   1      14.465273570000001      22.192133689999999      7.7636246699999996
   629   1      18.222661070000001             22.27433139      7.0880191300000002
   630   1      22.403229670000002             22.31049436      7.4962835700000001
   631   1             26.56760001      22.164666130000001      7.5672959999999998
   632   1             30.35685604             22.27914831      7.4528148099999996
   633   1    0.055295450000000003             25.64008102      7.3478654499999996
   634   1      4.1724814400000003      25.653066370000001      7.1735550699999999
   635   1               8.3473378               25.736024      7.9127836499999997
   636   1             12.20412155      25.814388439999998      7.4317512199999998
   637   1      16.238892289999999      25.813436379999999      7.6128204899999998
   638   1      20.203495740000001      25.680745959999999      7.6448170900000001
   639   1      24.400801749999999      25.609990549999999      7.6045991199999996
   640   1      28.489589840000001      25.614242950000001      7.5727798899999996
   641   1      4.1304852700000003      6.8711016799999998      8.9079351599999992
   642   1              2.19522094      3.6045426200000001      8.9464914199999992
   643   1      6.1413917299999996      7.9072745500000003      9.5649596500000005
   644   1             14.28598678             24.63421361      9.3165131900000002
   645   1      10.049711309999999             22.10232212      7.8297983899999997
   646   1      28.270931690000001             25.52870867      10.138482959999999
   647   1      22.113568870000002              5.44261733      7.9973145399999996
   648   1      7.9850997000000001      2.3509206499999999      8.5768245400000005
   649   1      4.0169928500000003      16.348110120000001      8.4400491899999999
   650   1      5.5020834199999999      24.147943819999998      8.7539414400000002
   651   1             20.13715608             23.13451465      8.1158051400000009
   652   1      18.432352389999998              5.91617674      8.6090330099999992
   653   1      22.371803939999999             12.80606143               8.1650931
   654   1      2.6173870300000002               24.374623      8.7219722900000001
   655   1      26.165698989999999      24.426577519999999      9.3422609800000007
   656   1      8.0669969399999992      23.298094110000001      8.4025181900000003
   657   1             10.13496537              10.4163459      8.9216617399999993
   658   1             15.97829012      16.552182290000001              8.29429953
   659   1      28.275101249999999      9.2210695499999993      8.2825860999999996
   660   1             16.26936577      6.7193179299999999      9.1174429900000007
   661   1             24.44598453      27.854351560000001      9.2444348699999992
   662   1      28.499359680000001              2.22223054              8.40757507
   663   1      20.293886050000001             27.82859324      9.1876598699999992
   664   1               1.8462623      12.769494829999999      8.1385951500000004
   665   1             10.19530846      12.944223539999999      8.5611866600000006
   666   1             14.16772679      19.924047789999999      8.4805787800000001
   667   1      5.9880961499999996      17.704520850000002      9.1602816800000006
   668   1             16.10405248      11.776653919999999      7.4351360599999996
   669   1      4.1558013300000001      11.803375669999999      9.8084365200000008
   670   1      28.305649039999999      6.9854820599999998      9.0732490200000004
   671   1               1.8480923      10.634902650000001      9.2198848600000005
   672   1      1.6935970600000001      20.071133039999999      8.3852671099999991
   673   1      2.2556393400000001      26.695770549999999      7.9324908299999999
   674   1              2.04562372      17.354016420000001      9.0212568300000004
   675   1      22.419507939999999      19.925916610000002      8.1083043000000004
   676   1             14.08991018      27.153156719999998      8.3808576000000006
   677   1      20.303716000000001      4.5451920399999999      9.5936457100000005
   678   1      22.261853129999999      17.658927989999999      9.1712132299999993
   679   1      26.314952139999999      3.2476048999999998              9.19516855
   680   1             28.33917697      11.644379880000001      7.4445692399999999
   681   1      2.0899270699999999      5.7553458500000003      8.1446255300000008
   682   1      10.049210159999999             15.06492192      7.6734583000000001
   683   1              6.20657441             26.61233446      8.3238711199999997
   684   1      12.237712699999999      9.2876508999999992      8.5687062800000007
   685   1      24.251224109999999      16.575368279999999      8.4346091800000007
   686   1             18.18037163      13.027466459999999      8.0548541700000005
   687   1             14.24980751             10.46443543      8.9555724899999998
   688   1      22.162601819999999             15.50973063      9.6787163899999999
   689   1             24.39024212      20.848672350000001      8.9869127899999999
   690   1      32.456775960000002             16.01813413      8.1737534899999993
   691   1      30.380766829999999      5.6943670900000001      8.1133960100000007
   692   1              16.3757169      2.2839973699999998      8.6807721999999998
   693   1             16.08915262             14.31101847      9.0499945200000003
   694   1      20.229178009999998      9.3538865300000005      8.2063421400000003
   695   1      22.469013950000001      26.899725870000001      8.2689554399999992
   696   1      3.6356525099999999      14.116173959999999      9.2101560300000003
   697   1      8.3369135300000003      6.7571166299999996      9.2108538899999992
   698   1      18.150314340000001             27.09667116      8.1676301799999997
   699   1      20.352477889999999      2.1505970099999998      8.4374071900000001
   700   1             16.13263822      27.897311460000001      9.0646510100000004
   701   1             14.36789428      3.2633998000000002      9.0896190499999996
   702   1      24.381281250000001      23.250913539999999      8.5159067200000003
   703   1      22.364333800000001      3.4555783099999999      8.9953938099999995
   704   1             26.29713791             19.79832699      8.1593083800000006
   705   1      4.3263305799999996      27.931300449999998      9.3092495300000007
   706   1      4.4491931500000002      2.2111515399999999      8.5651413200000004
   707   1             12.46767695             23.42458332      8.3375319900000004
   708   1      20.258333910000001      16.358188439999999      8.3527970800000002
   709   1      22.162242460000002     0.85498247999999999      9.7600998299999997
   710   1      18.380965079999999      20.191071869999998      8.3149001299999998
   711   1      32.265670100000001      6.9540550699999999      9.2300138199999999
   712   1    0.045852440000000001      23.311582009999999      8.1793632299999999
   713   1      28.171758910000001             -0.20546622      8.9986278100000003
   714   1              4.25889205      21.744817449999999      8.7694437099999991
   715   1              0.11105046      1.9796929599999999      8.5620889600000005
   716   1             10.42161958      19.721407500000002      8.6210390399999994
   717   1      26.376663059999998      22.027359100000002      9.9751164200000009
   718   1             32.52879033      9.2599965500000003      8.4104264400000002
   719   1      30.312900800000001             10.43043432      8.9280781099999995
   720   1      30.244831699999999              3.39678535      9.0764496000000001
   721   1      3.9273764400000002      9.4387374000000008      8.5934902500000003
   722   1             10.31768054             24.44320707      8.8446709200000004
   723   1      7.8089131199999997      9.1944925499999997              8.21979039
   724   1      6.0080965700000002             10.55828681      9.0768544799999997
   725   1      11.967737209999999      6.8604776899999997      9.1893245300000004
   726   1             16.38772157      9.3545050500000002      8.2194944200000002
   727   1             16.44601858      23.611893070000001      8.1877391199999998
   728   1      26.271583110000002      12.531029139999999      8.4803169300000008
   729   1      7.7789194100000003             13.95150947      9.0366839999999993
   730   1              12.3346705      4.5434867800000003      7.4404563399999999
   731   1             14.13404373      5.8070451299999997      8.1835921000000003
   732   1             18.23034779             10.39362611      9.1441763700000003
   733   1      18.335334540000002      17.653353679999999      9.1776199599999995
   734   1      30.479105570000002             24.84555821      9.3554072700000006
   735   1      24.350922180000001              2.07935983      8.4961843100000003
   736   1      8.0579505099999995      16.248962079999998      8.1259561799999993
   737   1      30.642598570000001      19.955815990000001      8.1364425699999998
   738   1      26.091423500000001      9.8733393800000009      9.1338486799999998
   739   1      13.827197290000001      12.980368439999999      8.2244446599999996
   740   1      26.205299870000001      5.5987045000000002      8.3349379700000004
   741   1      24.540097639999999             14.31106949      9.2756801499999995
   742   1      23.931516720000001              6.70407039      9.0665136999999998
   743   1      18.304083989999999      8.1322934799999995      9.5509863599999996
   744   1      30.498247930000002             12.60415607      8.3227697599999999
   745   1      28.318684439999998      16.198914460000001      8.4289503999999997
   746   1      6.0936990099999999             12.58124276      8.1158737399999996
   747   1             10.23808618      17.200463379999999      9.0478421000000004
   748   1      8.0860089599999991             20.96679292      9.0544234600000006
   749   1             20.44402423             14.03728695      8.9899198299999998
   750   1      26.518496339999999             17.73766359      9.3091830600000005
   751   1      28.557052299999999      20.902764049999998      9.3601101700000005
   752   1      5.6787113400000004             15.25594635      9.7395527200000007
   753   1              5.95458102      20.037072179999999      8.1265764100000002
   754   1      8.2922417700000004             28.04864186      9.0097826600000008
   755   1      6.0521772599999997      5.8364178000000004      8.2369860500000005
   756   1      10.435796979999999      27.118775500000002      8.3543236400000005
   757   1              0.25700813             27.64705141      9.0714328599999998
   758   1      26.459095210000001      26.775305199999998      8.2083475900000007
   759   1      28.212931059999999      13.690126510000001      9.1379146000000002
   760   1      28.402671420000001      23.318484720000001      8.5878586299999995
   761   1      18.299093880000001      24.961881200000001      8.8879421599999997
   762   1             22.36222879             10.36997272      9.0764746600000006
   763   1      10.117873080000001              5.71899158      8.1921742700000006
   764   1      12.146419229999999      2.3253420999999999      8.2084919999999997
   765   1      18.311167600000001              3.51075816      8.9057325600000006
   766   1      22.261031679999999      24.399413410000001      9.0541703099999999
   767   1      30.542379440000001      17.204227150000001      8.9054707799999999
   768   1      30.475765639999999      26.790643119999999      8.2593289100000007
   769   2             31.86587733      25.962384440000001      9.4624489300000008
   770   2     0.61621848999999995      24.777948599999998      9.0644621099999991
