N2-dn2-coord-10bar/700K/snapshots/frame-126194/run-000/../data.lammps (written by ASE) 

770 	 atoms 
2  atom types
0.0      32.470343392086264  xlo xhi
0.0      28.120142247150884  ylo yhi
0.0      31.213473999158239  zlo zhi


Atoms 

     1   1      2.0293964600000001      1.1716090800000001    0.023552650000000001
     2   1      6.0880008999999999              1.17168918              0.02556874
     3   1      10.146952280000001              1.17170328    0.025416459999999998
     4   1      14.205754900000001      1.1716496700000001              0.02501565
     5   1             18.26456816              1.17166478              0.02504435
     6   1             22.32338141      1.1716496700000001              0.02501565
     7   1      26.382184030000001              1.17170328    0.025416459999999998
     8   1      30.441135410000001              1.17168918              0.02556874
     9   1  9.1780000000000006e-05      4.6866847900000002    0.025581599999999999
    10   1      4.0587011400000002      4.6866847900000002    0.025581599999999999
    11   1      8.1174961000000003      4.6866290399999997    0.025584639999999999
    12   1             12.17638011      4.6866852999999997              0.02491202
    13   1             16.23517979      4.6866942700000003    0.025006210000000001
    14   1      20.293956519999998      4.6866942700000003    0.025006210000000001
    15   1      24.352756209999999      4.6866852999999997              0.02491202
    16   1      28.411640219999999      4.6866290399999997    0.025584639999999999
    17   1      2.0293964600000001      8.2016395800000002    0.026613040000000001
    18   1      6.0881071599999999      8.2016314300000008              0.02543782
    19   1             10.14701835               8.2017045    0.025156850000000001
    20   1      14.205766049999999      8.2017080900000003    0.024990459999999999
    21   1             18.26456816      8.2017077599999997    0.025091249999999999
    22   1      22.323370260000001      8.2017080900000003    0.024990459999999999
    23   1      26.382117969999999               8.2017045    0.025156850000000001
    24   1      30.441029149999999      8.2016314300000008              0.02543782
    25   1  9.2789999999999998e-05             11.71671873    0.025573410000000001
    26   1              4.05870014             11.71671873    0.025573410000000001
    27   1      8.1176017700000003             11.71668698              0.02497914
    28   1             12.17637068             11.71673069    0.025001590000000001
    29   1      16.235177310000001      11.716730249999999    0.025074039999999999
    30   1      20.293959009999998      11.716730249999999    0.025074039999999999
    31   1      24.352765640000001             11.71673069    0.025001590000000001
    32   1      28.411534549999999             11.71668698              0.02497914
    33   1      2.0293964600000001             15.23167155              0.02525285
    34   1      6.0881728300000004      15.231678799999999    0.025062859999999999
    35   1             10.14698486      15.231762639999999               0.0250786
    36   1             14.20578841             15.23176782    0.025201990000000001
    37   1             18.26456816              15.2317707    0.025149979999999999
    38   1      22.323347900000002             15.23176782    0.025201990000000001
    39   1      26.382151459999999      15.231762639999999               0.0250786
    40   1      30.440963480000001      15.231678799999999    0.025062859999999999
    41   1      32.470327990000001      18.746748629999999    0.024951939999999999
    42   1      4.0588083299999997      18.746748629999999    0.024951939999999999
    43   1      8.1175770200000006      18.746803499999999    0.025222040000000001
    44   1             12.17637459      18.746799750000001    0.025428470000000002
    45   1      16.235159400000001      18.746805200000001    0.025487360000000001
    46   1      20.293976919999999      18.746805200000001    0.025487360000000001
    47   1      24.352761730000001      18.746799750000001    0.025428470000000002
    48   1             28.41155929      18.746803499999999    0.025222040000000001
    49   1      2.0293964600000001      22.261939099999999    0.025844880000000001
    50   1      6.0881419299999999      22.261841799999999    0.025489439999999999
    51   1             10.14692954             22.26176895              0.02551757
    52   1             14.20573559      22.261804690000002    0.025639160000000001
    53   1             18.26456816             22.26178625    0.025640119999999999
    54   1      22.323400729999999      22.261804690000002    0.025639160000000001
    55   1      26.382206780000001             22.26176895              0.02551757
    56   1             30.44099439      22.261841799999999    0.025489439999999999
    57   1  5.6450000000000003e-05      25.776936450000001              0.02613327
    58   1      4.0587364700000004      25.776936450000001              0.02613327
    59   1      8.1175325399999991              25.7767713    0.024734180000000001
    60   1      12.176376469999999      25.776831090000002              0.02545323
    61   1      16.235145939999999      25.776775220000001    0.025273360000000002
    62   1             20.29399038      25.776775220000001    0.025273360000000002
    63   1      24.352759840000001      25.776831090000002              0.02545323
    64   1      28.411603769999999              25.7767713    0.024734180000000001
    65   1  0.00024266000000000001              2.34304215     0.80166565000000001
    66   1      4.0585502699999996              2.34304215     0.80166565000000001
    67   1      8.1157394600000003              2.34454954     0.80169402000000001
    68   1             12.17601256      2.3433829099999999     0.80116898000000003
    69   1      16.235258170000002      2.3433209100000001     0.80090046999999998
    70   1      20.293878150000001      2.3433209100000001     0.80090046999999998
    71   1      24.353123750000002      2.3433829099999999     0.80116898000000003
    72   1      28.413396859999999              2.34454954     0.80169402000000001
    73   1      2.0293964600000001      5.8582218700000004     0.80119762000000005
    74   1      6.0870566899999998      5.8583336700000004              0.80194851
    75   1             10.14649655              5.85853131     0.80121584000000001
    76   1             14.20597894      5.8582938599999999     0.80086840999999998
    77   1             18.26456816      5.8583798500000004               0.8010794
    78   1      22.323157380000001      5.8582938599999999     0.80086840999999998
    79   1             26.38263976              5.85853131     0.80121584000000001
    80   1      30.442079629999999      5.8583336700000004              0.80194851
    81   1  0.00019438999999999999      9.3717771800000005     0.80082061000000004
    82   1      4.0585985400000002      9.3717771800000005     0.80082061000000004
    83   1      8.1175070500000004      9.3725002699999997     0.80149060999999999
    84   1      12.176590020000001      9.3733583399999993     0.80088261999999999
    85   1             16.23512199      9.3733789200000004              0.80106506
    86   1             20.29401433      9.3733789200000004              0.80106506
    87   1      24.352546289999999      9.3733583399999993     0.80088261999999999
    88   1      28.411629269999999      9.3725002699999997     0.80149060999999999
    89   1      2.0293964600000001             12.88692854     0.80220621000000003
    90   1      6.0883212999999996             12.88743848     0.80138414999999996
    91   1      10.147128609999999             12.88859852     0.80085256000000005
    92   1             14.20571782      12.888558189999999     0.80113791000000001
    93   1             18.26456816      12.888409899999999     0.80109381000000002
    94   1      22.323418490000002      12.888558189999999     0.80113791000000001
    95   1             26.38200771             12.88859852     0.80085256000000005
    96   1      30.440815019999999             12.88743848     0.80138414999999996
    97   1              0.00012365      16.403222639999999     0.80145666999999998
    98   1      4.0586692700000002      16.403222639999999     0.80145666999999998
    99   1      8.1174337899999998      16.403825260000001     0.80097196999999998
   100   1              12.1761021             16.40390721     0.80133072000000005
   101   1             16.23503496      16.403861750000001     0.80140014999999998
   102   1      20.294101359999999      16.403861750000001     0.80140014999999998
   103   1      24.353034220000001             16.40390721     0.80133072000000005
   104   1      28.411702529999999      16.403825260000001     0.80097196999999998
   105   1      2.0293964600000001      19.919205120000001     0.80066369999999998
   106   1              6.08752564             19.91894023     0.80122479000000002
   107   1      10.146078839999999             19.91919038     0.80159137999999996
   108   1      14.204993419999999              19.9192584     0.80178742000000003
   109   1             18.26456816      19.919377350000001     0.80194975999999996
   110   1      22.324142899999998              19.9192584     0.80178742000000003
   111   1      26.383057470000001             19.91919038     0.80159137999999996
   112   1      30.441610669999999             19.91894023     0.80122479000000002
   113   1              0.00142012      23.434536609999999     0.80178442000000005
   114   1      4.0573728100000004      23.434536609999999     0.80178442000000005
   115   1      8.1165862000000004      23.433936769999999     0.80182306000000003
   116   1             12.17555218      23.433996919999998     0.80156656000000004
   117   1             16.23465491      23.434040110000002     0.80170828999999999
   118   1      20.294481409999999      23.434040110000002     0.80170828999999999
   119   1      24.353584130000002      23.433996919999998     0.80156656000000004
   120   1      28.412550110000002      23.433936769999999     0.80182306000000003
   121   1      2.0293964600000001      26.949875330000001              0.80297246
   122   1      6.0858208300000003      26.950066320000001              0.80215291
   123   1             10.14598146      26.949241430000001     0.80165810000000004
   124   1             14.20520604      26.948673230000001     0.80131923999999999
   125   1             18.26456816             26.94858318     0.80108193999999999
   126   1      22.323930279999999      26.948673230000001     0.80131923999999999
   127   1      26.383154860000001      26.949241430000001     0.80165810000000004
   128   1             30.44331549      26.950066320000001              0.80215291
   129   1             32.47225701             28.06825319              1.62403553
   130   1      4.0231082599999999             -0.02049776      1.5220638200000001
   131   1      8.1198869699999996  -0.0080354799999999994      1.7200848099999999
   132   1             12.22140081    0.056634070000000002      1.4770802000000001
   133   1      16.386635269999999    0.046672239999999997              1.65123742
   134   1             20.43920915     0.13889847999999999      1.5070886100000001
   135   1      24.361761779999998   0.0038799199999999998      1.4774654599999999
   136   1      28.351221580000001   -0.053497650000000001              1.24997311
   137   1      2.0246830199999999      3.5121380000000002              1.70058613
   138   1      6.0476819400000004      3.5298687399999999              1.53221053
   139   1              10.1596703              3.47431278      1.5019062400000001
   140   1      14.289406079999999      3.6108645400000001              1.29205747
   141   1              18.3021809              3.58402931      1.5959249900000001
   142   1      22.210448060000001      3.5904065699999999              1.37490881
   143   1      26.408348620000002      3.3935597199999998      1.5048009600000001
   144   1      30.415383739999999      3.5152158899999999      1.5208798299999999
   145   1              0.15367686      7.0460204800000001      1.6167380499999999
   146   1      4.2158651100000002      7.0582950799999997      1.3300175000000001
   147   1      8.0302315499999999      7.0466777299999999      1.3674134600000001
   148   1             12.31333577      6.9632100799999996              1.60612445
   149   1      16.391463160000001      7.0881843499999997      1.5294496099999999
   150   1              20.3730835      7.0598276200000001              1.42022227
   151   1      24.402464779999999      7.1671355600000002      1.5347938299999999
   152   1             28.34078023      6.9857650400000004              1.32587159
   153   1              2.12492415      10.476575950000001      1.5793843000000001
   154   1      6.2177522200000004             10.50204772      1.5620607900000001
   155   1              10.1268923             10.46909864               1.5001863
   156   1             14.22887525             10.60803817      1.3718232299999999
   157   1      18.325584549999999             10.65867789      1.5247304100000001
   158   1      22.415335169999999      10.474401800000001      1.4748690200000001
   159   1      26.364427020000001             10.62840192      1.3101744200000001
   160   1      30.432820809999999      10.513596509999999      1.2898707599999999
   161   1  -0.0033148000000000001             14.15625221              1.63198965
   162   1      4.0681920099999997             13.95581625      1.5327995599999999
   163   1      8.0443026700000004             14.14247838              1.56260333
   164   1             12.07471569             14.08905824      1.4079409000000001
   165   1      16.268585779999999             13.97120039      1.4698994599999999
   166   1             20.12054517      14.063312570000001              1.41069259
   167   1      24.366122470000001      14.152368989999999      1.6550367800000001
   168   1      28.351033990000001             14.08649325      1.5468386599999999
   169   1      2.0560845799999998             17.63843125              1.53332691
   170   1              5.98708799             17.56992773      1.5063444100000001
   171   1             10.14920495             17.54858789               1.5788137
   172   1             14.21889002      17.362603870000001      1.6037607599999999
   173   1      18.221371399999999      17.586073420000002      1.4356374599999999
   174   1      22.327632139999999      17.671064319999999      1.5429458899999999
   175   1      26.365654540000001      17.533504180000001              1.40561896
   176   1      30.519577739999999      17.672791570000001      1.4805906200000001
   177   1      32.455859699999998      21.118665069999999              1.59199538
   178   1      4.1714084900000001      21.076326810000001      1.2888356400000001
   179   1      8.1263775099999993      21.063660089999999              1.30921869
   180   1             12.13635625             20.93915307              1.50072432
   181   1             16.23785427             21.06109038      1.4181962299999999
   182   1      20.449823219999999      21.066681549999998              1.61343774
   183   1              24.3794112      21.020850500000002      1.4288018099999999
   184   1      28.374294190000001             21.08903493      1.6400650999999999
   185   1      2.0376341299999998              24.7282023              1.54152998
   186   1      6.1485988100000002      24.734437490000001      1.5802599500000001
   187   1             10.00313549             24.50778889      1.4145109600000001
   188   1             14.10537895      24.522134860000001              1.53261973
   189   1      18.431081639999999      24.647272359999999      1.4670223200000001
   190   1      22.272539630000001             24.55442437      1.5180245299999999
   191   1      26.188332190000001      24.532653400000001              1.39821214
   192   1      30.382405210000002             24.61892598      1.2562176599999999
   193   1              2.10697168      1.2434517700000001      2.6250939799999999
   194   1      6.0314973399999996      1.0678772700000001              2.53155866
   195   1      10.300766339999999              1.24383344      2.4788747199999999
   196   1              14.1198072              1.02600107              2.31287917
   197   1      18.268050299999999              1.12641597      2.3361010200000001
   198   1      22.398546320000001      1.2812833699999999      2.3632948599999999
   199   1      26.486295779999999              1.13492763      2.5047784399999999
   200   1      30.368470899999998              1.22029842      2.4567735000000002
   201   1      32.470163630000002      4.6949908799999998      2.3593289899999998
   202   1      4.1150152200000001      4.7473601900000002      2.4058097599999999
   203   1      8.2850365000000004      4.7189372799999996      2.2587425799999998
   204   1             12.32628895      4.6373286800000004      2.5273703699999999
   205   1      16.139190119999999              4.65509928      2.5813932500000001
   206   1             20.30850147      4.8233403800000003      2.3121601599999999
   207   1      24.090749580000001      4.5538787999999997              2.55900778
   208   1      28.414690310000001      4.7551029500000004      2.3945359499999999
   209   1              2.05738142              8.24332186      2.4013145100000002
   210   1      6.2205041300000001      8.0282436300000004              2.38149451
   211   1      10.152808289999999      8.2790883599999994              2.39052533
   212   1      14.446915580000001      8.2026028499999999              2.29233106
   213   1      18.431123759999998      8.4695246700000002      2.3958167499999998
   214   1      22.347989550000001      8.0419542499999999      2.4560061499999999
   215   1      26.332115569999999      8.1961388700000004      2.4997849900000002
   216   1      30.576473539999999      8.0399564800000007              2.45111641
   217   1    0.017851229999999999      11.685558240000001      2.3480252799999999
   218   1      4.0985692699999996      11.660196640000001      2.5196941599999998
   219   1              8.09979038             11.87525072      2.5318495699999999
   220   1             12.06430946             11.57825375      2.4004244199999998
   221   1             16.31571233             11.53742276      2.3785604500000002
   222   1      20.289826439999999             11.60025435              2.31737511
   223   1      24.480939200000002             11.67022341      2.4141147599999999
   224   1             28.35070893      11.768345869999999      2.4364164700000002
   225   1              1.94382996             15.31443228      2.3183484999999999
   226   1      6.0667870199999996      15.331697569999999              2.40754935
   227   1      10.041739639999999      15.142341829999999              2.42606323
   228   1      14.201517989999999             15.11094668      2.3254342800000001
   229   1      18.245203239999999             15.14943723      2.5197649499999999
   230   1      22.324394890000001      15.230849449999999      2.4645957599999999
   231   1             26.38893109      15.244762550000001      2.4221826599999998
   232   1      30.416452039999999      15.280367030000001      2.5359394599999998
   233   1      32.491344179999999      18.690413209999999      2.3469708499999999
   234   1              4.07867391      18.843597389999999      2.5246072900000001
   235   1      8.0041834299999994             18.65224229      2.3611371299999999
   236   1      12.120553259999999      18.592211649999999      2.6722947700000002
   237   1             16.15344735             18.64076231      2.5688797399999999
   238   1      20.329571770000001      18.743434279999999              2.46943001
   239   1             24.58458057             18.77117685      2.3873900799999999
   240   1      28.420763229999999      18.770722320000001      2.5400673199999999
   241   1              2.10971763      22.322513319999999      2.5695824900000002
   242   1      5.8984419399999997      22.286016159999999      2.4212535100000001
   243   1             10.24596184      22.235333520000001              2.43670952
   244   1              14.0948703      22.111111359999999      2.4226572499999999
   245   1      18.348988970000001      22.146090019999999      2.4413970100000002
   246   1             22.40001393      22.198039009999999      2.3765182299999998
   247   1      26.415039579999998      22.167396969999999      2.4371759200000001
   248   1      30.339022150000002             22.37352018      2.6142176300000002
   249   1   -0.091586039999999994             25.51606949      2.3498443199999999
   250   1      4.0261230000000001             25.80595186              2.59332794
   251   1      8.2791565200000008      25.802277149999998      2.7093896900000001
   252   1             12.16187545             25.76751823      2.4511090100000001
   253   1             16.40863079      25.707758170000002      2.3424616299999999
   254   1             20.35808956      25.870066489999999      2.5982510200000002
   255   1             24.41242763      25.762333680000001      2.4628577900000002
   256   1      28.372796950000001             25.62236107              2.31841293
   257   1   -0.049200460000000001      2.3557092900000001      3.3099160900000002
   258   1      4.2309154299999996              2.45095324      3.5193743300000002
   259   1      7.9633359500000003      2.2999219200000001      3.3744145200000002
   260   1             12.29432755      2.3163256699999999      3.1344752699999998
   261   1      16.238013989999999      2.3175987400000002      3.3213341199999999
   262   1      20.208624589999999      2.4480420399999998      3.2700942899999998
   263   1      24.456625509999999      2.1892993999999999              3.35606151
   264   1      28.476030569999999      2.4727526399999999      3.2978403200000002
   265   1              2.02367644      5.8622056200000001      3.2584928299999998
   266   1      6.1332792899999999      5.8312020100000002      3.0711735500000001
   267   1             10.31458181      5.8444566299999998      3.3470214999999999
   268   1             14.19181923      5.8539270500000002      3.2395510199999999
   269   1             18.24162943      5.9614105100000003      3.2858469299999999
   270   1      22.244444080000001      5.9661957499999998      3.1645613699999999
   271   1             26.28143609      5.8506107600000004              3.16565984
   272   1      30.524312779999999      5.8206541700000001      3.3039486299999998
   273   1   -0.088212399999999996      9.4560562400000006      3.2793826500000001
   274   1      4.1332397900000002      9.3936293699999993      3.3373171400000001
   275   1      8.0478839400000002      9.3783290699999995      3.3415844300000002
   276   1             12.29661937      9.2403689300000007              3.32907493
   277   1             16.32801216      9.3726185500000003      3.1929174100000002
   278   1             20.56650681      9.4025521899999998      3.1710669199999999
   279   1      24.418876940000001      9.3522928800000003      3.2697999000000002
   280   1      28.391159439999999      9.3158695599999994      3.1733468299999998
   281   1      1.8895117100000001             12.86066776      3.3686316700000001
   282   1      5.9705500999999996      12.964044790000001              3.33170207
   283   1      10.124016859999999             12.97353646      3.3012184800000002
   284   1             14.10461025             12.78649149              3.19834065
   285   1      18.180049050000001             12.78287761      3.3327885899999998
   286   1      22.507919080000001             12.75349187      3.1962497299999999
   287   1      26.527152229999999      13.061205810000001      3.3384377600000001
   288   1             30.49201012             12.87681937      3.3056350999999999
   289   1             -0.02534728             16.40044747              3.35944742
   290   1      3.9887019800000001      16.408448069999999              3.39495367
   291   1      8.0840894599999995      16.198712610000001      3.3137401199999998
   292   1      12.239679730000001      16.195421549999999      3.3219532599999999
   293   1      16.165637969999999      16.353865290000002      3.3092882499999998
   294   1             20.25566062      16.336286250000001              3.22462977
   295   1             24.63222747             16.47209256      3.3640881399999998
   296   1      28.225138569999999      16.404928210000001      3.3603581999999999
   297   1      2.1299907600000001      19.999327399999999              3.24306889
   298   1      6.1652667799999996      19.973353020000001      3.2722954500000001
   299   1             10.07644011      19.873516810000002              3.35158851
   300   1      14.274735140000001      19.806780400000001              3.18631785
   301   1      18.344571259999999      19.786301510000001      3.2809304699999999
   302   1      22.391636500000001             19.82855524      3.2234782499999999
   303   1             26.37507961      19.923103019999999      3.5695189100000002
   304   1      30.494719790000001              19.9220167      3.1637105499999998
   305   1   -0.027223879999999999             23.33464335              3.42152616
   306   1      4.0913644800000002             23.49529523              3.01821268
   307   1      8.0756909599999993      23.293079379999998              3.20595169
   308   1             12.03818843      23.377623920000001              3.19258313
   309   1      16.222711499999999      23.425125049999998              3.27146201
   310   1             20.39365278      23.351185910000002              3.24086915
   311   1      24.416700209999998             23.38213382               3.1482435
   312   1      28.321038089999998      23.514076800000002      3.1580671699999998
   313   1              1.99875515      26.943757219999998      3.1440080400000001
   314   1      6.0888342800000004             26.73053397              3.44430836
   315   1      10.133561869999999      27.121044999999999              3.31126568
   316   1             14.31475854      26.818282020000002      3.1059237099999999
   317   1             18.31959058      26.896265799999998      3.2355586500000002
   318   1             22.40075229      26.940759159999999      3.2713674799999999
   319   1      26.407174659999999      26.905794700000001      3.2880063499999999
   320   1      30.390564909999998             26.91414266      3.3016186599999999
   321   1              0.00816477             28.25766234      4.2722601999999998
   322   1      3.9878229300000001    0.026108920000000001      4.1092812700000003
   323   1      8.0369929199999994    -0.17848141000000001      4.2565993000000004
   324   1             12.39986255    0.022606250000000001      4.2081802399999999
   325   1      16.314230009999999      28.060508080000002      4.0752887500000003
   326   1      20.179992519999999     0.16017558000000001      4.0728784500000002
   327   1      24.324627719999999   -0.089713879999999996      4.2703137800000004
   328   1             28.38659582      28.244630749999999      4.0881323500000004
   329   1      2.0626351700000001      3.4455039200000002      4.1992733099999997
   330   1      6.0600288100000004      3.6656697500000002      4.2243187000000004
   331   1             10.04603011              3.44909059      4.2078636999999999
   332   1              14.2424716      3.3907138099999998      4.2626234700000003
   333   1      18.206305910000001      3.5207093700000001      4.2398061699999996
   334   1      22.307094079999999      3.5351905000000001              4.04406175
   335   1             26.52462684              3.52570469      4.1018774799999997
   336   1      30.283848219999999      3.5088815100000001              3.95279706
   337   1              0.20625183              7.18822136      3.9852065799999998
   338   1      3.9389106100000002      7.0079212899999996      4.0163893100000001
   339   1      8.1815664199999993      7.1871710000000002      4.0596386000000004
   340   1      12.252986310000001      6.9670360200000001      4.0462357300000003
   341   1             16.28252887      6.9731099800000003      4.0742730600000003
   342   1      20.133104450000001      7.1066868400000001      4.0076577499999999
   343   1      24.418624220000002      7.0061907100000003      3.9713278700000001
   344   1             28.41277685      6.9989199800000002      3.8769695899999999
   345   1              1.99733549             10.43245866      3.9538236200000001
   346   1      6.2709711400000003              10.5578974      4.2227078999999996
   347   1             10.12516986              10.7632271      4.0397152299999997
   348   1             14.25010202      10.626381029999999      4.1559438699999998
   349   1      18.313074690000001      10.425165120000001      4.2075585799999997
   350   1      22.423021460000001             10.48154712      4.0466441499999997
   351   1             26.27805927             10.54650286      4.1674210399999998
   352   1      30.371400619999999      10.624899940000001      3.7069968800000002
   353   1      32.529297790000001      14.162728449999999      4.1650612000000002
   354   1      4.0414467299999997      14.131554019999999      4.1641124999999999
   355   1      8.0963744200000001             14.23882313      4.0077970900000004
   356   1      12.137338189999999             13.82966064      4.0222415900000001
   357   1             16.29538895             14.03000235      4.0574867100000001
   358   1              20.2189102      14.102981160000001      4.1473228500000001
   359   1      24.515534070000001      14.036745079999999      3.9720996899999998
   360   1             28.37917453             14.15905603      4.1638393899999997
   361   1      2.1084129100000002      17.680276840000001      4.0356458399999999
   362   1              6.16977274      17.551817570000001      3.9688169499999999
   363   1             10.42714404      17.460989439999999      4.3385352399999997
   364   1      14.230448190000001      17.430781060000001      4.0555023800000001
   365   1             18.23214664      17.543791379999998              3.82586263
   366   1             22.63194262      17.608419730000001              3.98790413
   367   1      26.525563250000001             17.64935053      4.2046891200000003
   368   1      30.253528169999999      17.500811030000001      4.2067891199999998
   369   1              0.05446616      20.956653280000001      4.1009896399999999
   370   1      4.0603861700000001      21.180340130000001              4.08087423
   371   1              7.93023582      20.943244270000001      4.0917795000000003
   372   1      12.288356329999999             20.95288532      4.1643950199999997
   373   1      16.357822049999999      21.106301770000002      4.0376923700000003
   374   1              20.3828797             20.96982882      4.1353414099999997
   375   1      24.361798690000001             21.21722686      4.0170413600000003
   376   1      28.474217459999998      21.085922610000001      4.0644157600000002
   377   1              2.00775821      24.516613499999998      4.0878628199999998
   378   1      6.1416867599999998      24.427342320000001      4.1295248300000003
   379   1             10.13506018      24.359628350000001      4.0561340100000001
   380   1             14.29317863             24.49402225      4.1225802299999996
   381   1      18.272596360000001      24.431760539999999      4.2363319400000004
   382   1      22.307727100000001      24.610410300000002      4.1496869299999997
   383   1      26.359804499999999      24.650019060000002              3.87547445
   384   1      30.331403380000001      24.617330200000001      4.1280042300000002
   385   1      1.9387501899999999      1.2017445600000001      5.2773506499999998
   386   1      6.1482376700000003      1.0696312800000001      5.0886912100000004
   387   1             10.29582637     0.98684373000000003      5.0117616800000002
   388   1      14.234900509999999              1.23377333      5.0650122199999998
   389   1      18.214726370000001              1.31356764      4.9090277699999998
   390   1             22.39970009     0.96796811999999999      4.9638506199999997
   391   1      26.313558969999999              1.06368723      4.9653132600000003
   392   1      30.398121969999998              1.16718491      4.9040519199999997
   393   1      32.316468659999998      4.6370180100000002      4.9612270699999996
   394   1      3.7892482699999999      4.8415968700000001      4.9004472799999999
   395   1      8.2148536799999992      4.7690754399999999      4.7773321400000004
   396   1      12.094583030000001      4.9695737700000002      5.0975801499999998
   397   1      16.253285569999999      4.7142253399999996      4.9897467999999998
   398   1             20.30204741      4.7326214499999999      4.7760065300000001
   399   1      24.298091100000001              4.56686456      4.9901665099999999
   400   1      28.518275580000001      4.6718817699999997      4.9548450800000001
   401   1      2.0761782900000001              8.39554987              4.91586766
   402   1      6.1129119799999998      8.2177904900000005              4.90258898
   403   1      10.203663669999999      8.4715971799999998      4.7956491899999998
   404   1             14.26770269      8.2574439700000006      4.8091933100000004
   405   1      18.213314919999998      8.3007192399999994              4.99249733
   406   1      22.472923359999999      8.1604596300000001      4.9194701099999998
   407   1             26.42864904      8.1128640599999997      5.0477074499999999
   408   1      30.480312309999999      8.3403543300000003      4.9954302899999998
   409   1   -0.033035519999999999      11.634686930000001      4.9271071700000002
   410   1      3.9914572700000002      11.755089310000001      4.7710979900000003
   411   1      8.1145663599999995      11.962672449999999      4.9076184899999999
   412   1             12.12515235      11.690328770000001      4.8059862899999999
   413   1      16.277760820000001      11.754065369999999      4.9637327500000001
   414   1      20.254094460000001             11.65695096      4.9128922199999998
   415   1      24.439164510000001              11.6974996      4.8426065200000004
   416   1      28.456779409999999      11.752049830000001      4.9712380100000004
   417   1      2.0887168300000001             15.44811256      5.0146432399999998
   418   1      6.1214017600000004             15.35967645      5.0231671799999997
   419   1             10.17082907      15.277510749999999      4.9319673100000001
   420   1      14.223807989999999             14.91635585      4.9571888800000004
   421   1             18.13555633              15.2180362      4.8504587399999997
   422   1      22.266040950000001      15.244656969999999              4.83654764
   423   1      26.426383210000001      15.296398419999999      5.1028088900000004
   424   1      30.557369699999999             15.27132686      5.0430168399999999
   425   1   -0.039655889999999999      18.851193890000001      4.8369348800000003
   426   1      4.1529478299999996      19.057570500000001      4.9135043600000001
   427   1      8.2288510299999995      18.496709129999999      4.8391263499999999
   428   1      12.373340750000001      18.706653500000002      4.9444936999999998
   429   1      16.181269149999999      18.811273790000001      5.0159993600000004
   430   1      20.292310449999999      18.771875080000001      4.7771086399999998
   431   1             24.55861565      18.614360269999999      5.1236784499999999
   432   1      28.612759329999999      18.751516710000001              5.01551905
   433   1              2.15501114      22.174914909999998      5.1091834599999997
   434   1      6.1734160899999999             22.46242346      5.0213921800000003
   435   1             10.05122313      22.102218669999999              4.79830092
   436   1              14.3337395      22.175073789999999      4.9282950000000003
   437   1      18.164516620000001      22.312010799999999      4.9971804799999999
   438   1      22.488755829999999      22.302384140000001      4.9377543199999998
   439   1      26.389796319999999      22.337238899999999      4.8677151800000003
   440   1      30.326095819999999             22.27769735      5.1973268700000004
   441   1      32.366332280000002             25.78185307      4.8341154499999996
   442   1              3.85325674      25.899622170000001      5.0478166599999996
   443   1      8.1123106400000005             25.65607674      5.2552567100000003
   444   1             12.13309935      25.469569530000001      4.7797388099999996
   445   1             16.26870825      25.673061539999999      4.8568244900000002
   446   1      20.333897350000001      25.699385580000001      5.1031951700000002
   447   1      24.309608560000001             25.73858508      4.8897557000000003
   448   1             28.28890681      25.996179089999998      4.9391556899999998
   449   1   -0.030270479999999999              2.35787959      6.0623375900000003
   450   1      4.1775078399999996              2.52232981              6.04692352
   451   1      8.2263501899999998      2.4511479500000002      5.9154421700000004
   452   1      12.173460370000001      2.4025696399999998      5.7792353199999997
   453   1      16.250778839999999      2.4094332999999999      5.6397558200000004
   454   1      20.311099380000002      2.5600546999999998      5.6696302999999997
   455   1      24.394789679999999              2.35720587      5.8703206300000002
   456   1      28.320600519999999      2.3811876700000001      5.7359294399999996
   457   1              1.99426627      5.8745898299999997      5.9289057400000003
   458   1      6.1076266700000001      5.9674974900000004              5.76182763
   459   1      10.050210330000001      5.9600255500000001      5.8252213299999998
   460   1             14.14942213      5.7089524200000001      5.7838017099999997
   461   1             18.34170932      5.6804644800000004              5.74910649
   462   1      22.264391199999999      5.7638771200000001      5.7410848699999999
   463   1             26.36490976      5.6318029599999999      5.7428030400000001
   464   1      30.476522849999998      5.7126611399999998      5.6050755700000003
   465   1      32.446542960000002      9.3873631999999994      5.6450370999999997
   466   1      4.3349913999999998      9.4007376300000001              5.91225646
   467   1      8.0333650799999994      9.4848686299999994      5.7845977900000003
   468   1      12.298755140000001      9.5237624899999993      5.7824680600000002
   469   1      16.227665680000001      9.4012326099999992      5.6436935100000003
   470   1      20.442179700000001      9.4787243500000002      5.6170973000000002
   471   1             24.44292798      9.4989600599999999      5.6209354999999999
   472   1      28.471500720000002      9.3141271700000008      5.7441019600000001
   473   1      1.9962745200000001      12.898166679999999      5.8905050399999999
   474   1      6.0566258800000004      12.890619859999999      5.9025312200000002
   475   1             10.18750554      13.098584799999999      5.6788458200000003
   476   1             14.25238087      12.674471990000001      5.8972462800000001
   477   1      18.241078869999999             12.82867532      5.8802306199999999
   478   1      22.146937560000001             12.93720691      5.6075893499999996
   479   1      26.386456129999999      12.965328400000001      5.7811609099999997
   480   1      30.616249239999998             12.84934874      5.7127340999999996
   481   1   -0.030651879999999999             16.70588102              6.09021086
   482   1      4.1882361299999999             16.50876499      5.7813116999999998
   483   1      8.1709733500000006      16.353594180000002      5.8376281600000004
   484   1      12.324033439999999      16.400197250000002              5.79469309
   485   1              16.2770929      16.292933340000001      5.8866291100000003
   486   1             20.42521799      16.564682950000002      5.6658483100000003
   487   1      24.563808550000001      16.349019009999999      5.9186818499999996
   488   1      28.481642749999999             16.34783595      5.9371393299999999
   489   1      1.9808467999999999      19.885125639999998      5.7518748799999999
   490   1      6.2630568599999998      19.808858270000002      5.7663307899999996
   491   1             10.11090971             19.85504195               5.8350285
   492   1      14.206831149999999      19.883026879999999      5.8634591299999999
   493   1      18.262508589999999      19.860183859999999              5.79158069
   494   1             22.24965181      19.978269279999999      5.5665759699999997
   495   1      26.506729400000001      20.043113999999999      5.8900104999999998
   496   1             30.46350949      19.810200720000001      5.7195621499999998
   497   1   -0.065742949999999994      23.302410519999999              5.84032486
   498   1              4.16990427             23.52091261      5.6785365800000003
   499   1      8.2888333599999999      23.346235270000001      5.8277673800000001
   500   1             12.07584014      23.199960839999999      5.7105540599999998
   501   1             16.19885889      23.301124489999999      5.7824802100000001
   502   1             20.22166636             23.51705681      5.6822515200000003
   503   1      24.295304380000001      23.652301739999999      5.8297422799999996
   504   1      28.469454630000001      23.602572179999999              5.51015502
   505   1              1.75716093      27.010814150000002      5.6437645400000003
   506   1      6.0456991799999997      27.044052090000001      5.8522400399999999
   507   1             10.28000917             26.80851724      5.8896203600000003
   508   1      14.051056880000001      26.645601330000002      5.6693934300000004
   509   1             18.21048107      26.842420000000001      5.5649788600000001
   510   1      22.193381209999998      26.777796030000001      5.7836045399999998
   511   1      26.414094330000001      26.991349190000001              5.85274304
   512   1      30.483809109999999      27.023586049999999      5.6462668799999998
   513   1             -0.10388586    0.055290369999999998      6.6809546700000002
   514   1      4.1010010799999996   0.0094818100000000002      6.5168706199999997
   515   1      8.2783964999999995    0.071595629999999993      6.7215684400000004
   516   1             12.30288708             28.36088045      6.6174469800000004
   517   1             16.02774114              28.1970904              6.57728571
   518   1              20.2819009              28.0879677      6.6053773700000002
   519   1      24.297439520000001             -0.10028469      6.8319059199999996
   520   1      28.588647120000001    0.017267000000000001      6.7486040899999997
   521   1      1.9708686200000001      3.6012686299999999      6.7189586200000004
   522   1      6.2035480200000004              3.66096384      6.8314403199999996
   523   1      10.305076400000001              3.59579724      6.8559491699999997
   524   1             14.12143901              3.46555744      6.7051773199999998
   525   1      18.300247129999999      3.3514072800000001              6.86807707
   526   1      22.525606610000001      3.3531822199999999      6.5452723099999996
   527   1             26.33574496      3.3581608200000002      6.6660095500000001
   528   1      30.197093729999999      3.5109632999999998      6.5722239599999996
   529   1      32.429851200000002      7.1562804099999999      6.5203213599999996
   530   1      3.9795860300000001      7.0398511700000004      6.7236776100000002
   531   1      8.2045327500000003      7.0831061399999999      6.4858598299999999
   532   1             12.29135969      7.1990094300000003      6.5570465899999997
   533   1             16.09306359      6.8657923299999997      6.7315576799999999
   534   1               20.404605      7.0720282000000001      6.3439553699999998
   535   1      24.436511029999998      6.9918048600000002      6.5416195899999998
   536   1      28.470869130000001      6.9816804799999996      6.4011970500000004
   537   1              1.89361348             10.52023698              6.45818826
   538   1      6.1447598499999998             10.53277973      6.8520928000000003
   539   1      10.101829309999999             10.71682161      6.6046658300000001
   540   1             14.33387928      10.453901500000001      7.0833737899999996
   541   1      18.314687379999999             10.56914946      6.5666407299999996
   542   1             22.31370209             10.41407688      6.5379205100000002
   543   1      26.445214889999999             10.55634169      6.7280997200000003
   544   1      30.439141899999999             10.62520138      6.2731733700000003
   545   1      32.402418760000003      14.058699389999999      6.7076431899999998
   546   1      3.8656722000000001      14.132621220000001      6.8010321200000003
   547   1      7.9821667300000003             14.11475753      6.6235130900000003
   548   1             12.08418453             14.09841563      6.6379845900000003
   549   1      16.207326200000001      14.139798170000001      6.7008144500000002
   550   1      20.277831930000001             14.05162973              6.57811507
   551   1      24.452130279999999      14.056424890000001      6.5706348700000001
   552   1      28.388339380000001      13.989137749999999      6.6639169999999996
   553   1      2.1461507800000001      17.649175240000002      6.4934320200000002
   554   1      6.2664260900000004             17.58850107      6.7350964800000002
   555   1      10.100605180000001      17.707371909999999      6.6962328299999996
   556   1              14.1516641             17.53015778      6.7535972700000002
   557   1      18.239385739999999              17.5053661      6.4432302300000002
   558   1      22.549573280000001             17.74922218      6.5015724600000002
   559   1      26.469172319999998      17.569931990000001      6.8774634499999996
   560   1             30.24239275      17.621668190000001      7.1083488099999999
   561   1    0.069776850000000001      21.016043020000001      6.6026737899999999
   562   1      4.0999846900000003      21.316492350000001      6.5997543500000004
   563   1      8.0362955500000002             21.13122478      6.5429854699999996
   564   1      12.154726780000001             20.96264038      6.5113310100000001
   565   1      16.388137499999999      20.983054930000002      6.7980371999999996
   566   1      20.299797890000001      21.395400339999998      6.5182863299999996
   567   1      24.408727249999998      21.230797169999999      6.5957680500000002
   568   1      28.488099609999999      21.339324179999998               6.6747166
   569   1      2.0661775800000002      24.775610159999999      6.5777918800000004
   570   1      6.1995311400000004      24.616424980000001      6.6111426900000003
   571   1      10.277840530000001             24.48281291      6.6507359099999999
   572   1             14.39706659             24.35790231      6.5406947000000004
   573   1             18.29396229      24.744371879999999               6.5379863
   574   1             22.18868097      24.599408180000001              6.55993607
   575   1      26.431014080000001      24.699030180000001      6.5444246499999998
   576   1             30.41290558      24.570563159999999      6.6525749000000003
   577   1      2.0000010100000001      1.1659056299999999      7.6132422699999998
   578   1      6.1117176400000002              1.33003706      7.6005433800000004
   579   1             10.31575477      1.0234244299999999      7.8886686399999997
   580   1      14.177166850000001      1.0238767600000001              7.50911244
   581   1      18.226220059999999              1.13987255      7.2920870500000001
   582   1      22.299071529999999      1.2592521299999999      7.4942019999999996
   583   1      26.332216039999999      1.0998325499999999      7.4264932300000002
   584   1             30.58522451      1.3137223600000001      7.4355196699999997
   585   1      32.210501200000003      4.7417485700000004      7.5331906000000002
   586   1      3.9576034899999999              4.80274394      7.3223561100000003
   587   1      8.2657522700000001      4.5924231000000004      7.5206815100000002
   588   1             10.25448615              3.45984471      9.2541831200000004
   589   1             16.29397694      4.6032799999999998      7.4269786399999997
   590   1      20.465209389999998      4.7284733599999997      7.3495277699999999
   591   1      24.481829399999999      4.7677161400000001      7.5552297700000004
   592   1      28.489483790000001      4.6899214100000002      7.4839279200000002
   593   1      2.0630288700000001      8.0815481400000007      7.4595525900000004
   594   1      6.0319047599999998      8.1652684099999995      7.4769568299999998
   595   1             10.35571953      8.3690174200000005      7.4786486400000003
   596   1             14.04758869      8.2566673999999995      7.6510834499999998
   597   1             18.36387719      8.1734202899999993      7.3653503499999999
   598   1      22.100878850000001      8.1445333600000005      7.4857418300000003
   599   1      26.318738459999999              8.27420197      7.6998175299999998
   600   1      30.359072170000001      8.1158903599999999      7.5043234500000002
   601   1              32.3554922             11.69825827      7.4023284800000004
   602   1              4.01252356             11.72366559      7.4152610499999998
   603   1      8.2431438499999992      11.770144520000001      7.4704272300000003
   604   1      12.071054090000001             11.72450602      7.5781304599999997
   605   1      20.122732370000001      9.5247408300000007      8.2603138999999999
   606   1             20.13135913      11.868123000000001      7.5144792300000001
   607   1              24.2758346      11.725941150000001      7.3213253500000004
   608   1             24.22037293      9.2380112099999998      8.0897746799999997
   609   1              2.06310474      15.347899679999999      7.7292343199999998
   610   1      6.1941006999999999             15.21119727      7.5338610399999997
   611   1             11.84072772      16.413485600000001      8.3463183900000004
   612   1      13.960349150000001      15.224181099999999      7.6426213399999998
   613   1      18.288982730000001      15.207301230000001      7.5702804199999996
   614   1      22.508127529999999             15.31919003              7.25412634
   615   1      26.351267969999999             15.35464282      7.5601509900000003
   616   1              30.0647229              15.3547502      7.6336594699999996
   617   1     0.24087447000000001      18.845757469999999      7.7247664199999999
   618   1      4.3578853500000001      18.692070139999998      7.3003897100000001
   619   1      8.2043022499999996      18.776731229999999      7.4448858700000002
   620   1             12.04568456      18.799183459999998      7.5624002099999998
   621   1      16.275724820000001      18.368136190000001      7.1927053900000004
   622   1             20.25278162      18.726909129999999      7.5063931500000001
   623   1      24.392477289999999      18.751551660000001              7.48245921
   624   1              28.2598035      18.977418320000002              7.43395516
   625   1      2.1033629199999999      22.300844680000001      7.5175720000000004
   626   1               6.2101628      22.424780630000001      7.5071171799999998
   627   1             12.43496918      20.917837219999999      9.1773017600000006
   628   1             14.20302408      22.029000920000001      7.6417600400000003
   629   1             18.37700431      22.256963500000001      7.6136172699999998
   630   1             22.48526974      22.363677630000002              7.37918904
   631   1      26.571052699999999      22.287763859999998      7.4537105400000003
   632   1      30.611738590000002      22.403829470000002      7.8378854799999997
   633   1    -0.21332224999999999      25.855005550000001      7.3828527299999998
   634   1      4.3039409500000003             25.83338642      7.3370257099999998
   635   1      8.3920288599999999      25.870456999999998      7.5162902200000001
   636   1             12.28135288      25.666693810000002      7.1707914800000001
   637   1      16.176701690000002      25.643861690000001      7.3692111200000001
   638   1      20.212893869999998             25.73104009      7.7524670200000001
   639   1             24.36776527      25.549377790000001      7.3763637500000003
   640   1      28.340155020000001      25.697137470000001      7.4601043899999997
   641   1      3.9833351299999999      6.7667746900000001      9.3153115799999995
   642   1    0.026916200000000001      2.6209275999999999      8.5971253700000005
   643   1      5.8734973899999998      8.2772706100000004              10.0110838
   644   1             12.40889662    -0.24798698999999999      8.8637190700000001
   645   1      9.9178745700000004              22.1972989      7.2742278999999996
   646   1      24.385679360000001              28.0042163      9.2013795700000003
   647   1              22.3596778      5.7755326800000004      8.2654532199999995
   648   1      6.2811714500000004      27.152654439999999      8.3234789800000009
   649   1               4.1476381      16.545805779999998      8.3744942600000005
   650   1      2.5845702899999998      24.634722929999999      8.8929046199999995
   651   1      18.249659260000001             24.66830079      8.9997874600000003
   652   1             14.51182642      5.8968976199999998      8.5328813100000005
   653   1             22.31449065             12.98526521      8.0562193000000004
   654   1      3.9558145300000001              0.01307257      8.9894136899999992
   655   1      22.506552670000001      26.910020809999999      8.1019930000000002
   656   1      32.266852890000003      28.256010230000001      8.9050282500000009
   657   1      10.195566189999999      10.705188720000001      9.1412285999999998
   658   1      13.795186620000001             17.54540952      9.1218461699999995
   659   1              1.57711457      8.1785950700000001             10.00486705
   660   1      14.354283240000001      3.4348207999999998      8.9904597299999995
   661   1              26.3469534      26.914501319999999      8.3135131500000004
   662   1      28.445413389999999      2.3672597999999998      8.1274592600000002
   663   1      20.260837160000001             -0.33781865      9.1141772599999999
   664   1      1.9368577899999999      12.810707409999999      8.2140118599999994
   665   1             10.20647438             12.87028596      8.1692157699999992
   666   1             14.44817696             19.70479014              8.19809169
   667   1      6.3146713300000004      17.703900789999999      9.1460899700000002
   668   1      16.347346680000001             11.71305158      7.5734283600000003
   669   1              3.74645948             14.43801191      9.4564422700000001
   670   1             28.31906996      9.5357417000000009      8.3568973300000007
   671   1              4.15309346             11.86222866      9.6285928300000005
   672   1              2.37096887      19.808342289999999      8.3291643700000009
   673   1      1.9236323200000001      26.879820800000001      8.1061344500000008
   674   1      4.2300470399999996             18.68814149      9.6076112600000005
   675   1      24.416723489999999      16.704699590000001      8.4526881800000009
   676   1      8.3731874200000007             23.61306445      8.3686920800000006
   677   1             22.21188721             10.61277231              8.93355517
   678   1      22.248263290000001      20.017897990000002      7.9351957400000002
   679   1      26.336747540000001              5.91840104      8.3442114800000002
   680   1             28.33892994             11.70614569      7.3881958799999996
   681   1             32.14759943              6.99385265      9.0443538399999994
   682   1      9.7813417999999999      15.158376970000001      7.5599416899999996
   683   1      6.0966370400000001      24.635982720000001      8.9717353899999992
   684   1             14.16312898             12.66002568      8.4368994799999992
   685   1      22.235278619999999             17.75894151      8.6983455200000002
   686   1      20.146793479999999      14.167962409999999      9.1019494200000004
   687   1             17.89554163      13.214756469999999      8.7059122999999996
   688   1      23.997203729999999              14.1724315      9.0929034800000004
   689   1      20.156285610000001      20.911754980000001      9.0060115300000003
   690   1      32.262667329999999      16.313836559999999      8.5025485300000003
   691   1              28.2467021              7.10754017      8.9823369900000003
   692   1              18.1595856      26.942064500000001      8.2622488000000001
   693   1      18.472291080000002      10.716630540000001      9.1157764399999994
   694   1      20.475220629999999      11.903583039999999      9.8566520700000009
   695   1      24.492503339999999              23.4194596      8.2366896700000005
   696   1      1.8918851299999999      17.542550599999998      9.1150354799999995
   697   1      8.1125936200000002              6.94828242      9.0150749999999995
   698   1             16.28726692      23.440446600000001      8.1638541300000007
   699   1      20.243896360000001               2.2493029      8.2645623599999993
   700   1             14.32511279      26.802784070000001      8.2751120599999997
   701   1             12.32710359              2.46413846      8.3891615300000009
   702   1             24.38513154      21.168198199999999      8.8767701199999998
   703   1      22.480951789999999      3.6147043000000001      9.1566872299999993
   704   1      28.493666749999999      20.971261399999999      9.2136626899999996
   705   1              1.79253799      5.8252089600000003      8.3358951700000006
   706   1      4.1782259799999997      2.6868093100000001      8.6630857399999996
   707   1             13.92910856      24.224940069999999      8.9241609900000007
   708   1      18.352115659999999      17.350315859999998      8.8302138699999997
   709   1      24.487013390000001      4.6889531699999996             10.04392865
   710   1      18.081566970000001      19.644481280000001      8.1773497400000004
   711   1      30.323034589999999      5.9847791700000004      8.0298687199999996
   712   1      32.799061309999999      21.214093829999999      9.0801561599999996
   713   1      28.431722100000002              0.20078857      9.0506163700000002
   714   1      4.2464332200000001      21.066043669999999      9.0270943100000007
   715   1      30.322551099999998             26.89955075      8.2373487399999998
   716   1             12.05266237      23.256179960000001      7.9750607999999996
   717   1      26.512491579999999      24.593798469999999      8.8018678999999995
   718   1             30.37881973             10.57315148      8.6983913000000008
   719   1              2.15723266             10.50173363      8.9807451900000004
   720   1             30.30679215      3.6785338599999999      9.0132565499999995
   721   1      4.2500497700000004      9.3650259600000005      8.5434692299999995
   722   1      8.0281754000000003             21.35659592      8.9584832900000002
   723   1              8.35224732      9.1776055799999998      8.2970499899999997
   724   1      6.4426926900000003             10.56384744      9.2664920399999993
   725   1      16.167926510000001      2.3155333900000001      7.9807270099999998
   726   1      12.205104499999999              9.39091159      8.4779766500000004
   727   1      16.042180250000001      18.513035410000001      9.7887438600000003
   728   1              26.2373805             13.06075379      8.4378790400000003
   729   1      7.9161220999999999             14.27087663      9.1930660199999998
   730   1             12.15234289      4.8147111100000002      7.8964770199999998
   731   1             12.46657708      7.0194183499999996      8.7626917899999999
   732   1      16.342087169999999      9.3915361500000003      8.2035051899999996
   733   1      16.135124470000001              16.1428951      8.4410158299999996
   734   1      32.723595320000001      23.653257499999999      8.2642534800000007
   735   1      24.518214669999999      2.2399206999999999      8.4848816199999995
   736   1      8.2712657800000002      16.728151520000001      8.3237170500000008
   737   1      30.456028079999999      20.012274609999999      8.3808293599999999
   738   1      32.427992340000003      9.3774533099999999      8.2609770499999993
   739   1             12.39605896              13.7736199      9.1114894599999996
   740   1             24.39847275      6.8888283399999999      8.9410431700000004
   741   1      24.306867059999998      11.749433399999999      9.6418272700000003
   742   1      26.591603979999999      3.5394196400000002      9.0969182400000008
   743   1      20.245297279999999      7.3601883299999997      8.7299667400000001
   744   1             -0.34801557      13.964951709999999      9.1250492699999999
   745   1      28.116012619999999             16.74844886      8.4028498299999992
   746   1              6.12745959      13.010381239999999      8.4557997199999999
   747   1             10.22746744              17.7975438      9.2151174499999993
   748   1             10.11048495      20.100155019999999      8.2481373100000006
   749   1      20.483801060000001      16.417909290000001      8.0435479500000007
   750   1      30.337266899999999             12.81579923              8.09447209
   751   1      22.399623030000001      24.832331610000001      8.8264975499999991
   752   1      6.0118645300000004      15.107428049999999      9.9730992000000001
   753   1      6.2302059999999999             19.87455975      8.3408096700000005
   754   1      8.2296490200000001      2.2328494999999999      8.2893526099999999
   755   1      6.2421482700000004      5.6655713700000003      8.2366227500000004
   756   1      10.383585630000001      26.327064750000002      8.5386893799999992
   757   1      4.0579942500000001      23.419881549999999              8.12436224
   758   1      26.457279870000001              1.18731086      9.7536961499999997
   759   1      26.510455660000002      19.735479430000002      8.2944637500000002
   760   1             22.44668849      1.3168072099999999      9.9568115000000006
   761   1      16.238743629999998      20.917315680000002      9.0732782000000007
   762   1      26.070159879999999             10.61979769      8.9904048000000003
   763   1      10.184253569999999      5.9592235799999997      8.2461046499999995
   764   1      8.5741668200000003      27.902485540000001      9.0498599300000002
   765   1      18.487623119999999      5.8424896899999998      8.2960331000000007
   766   1      20.346391520000001      23.318698139999999      8.2780135500000007
   767   1      28.537307640000002      23.359544669999998      8.3501646699999998
   768   1             30.55464366             24.54636648      9.0990684399999999
   769   2      22.986626940000001      26.606655759999999      9.8237254299999996
   770   2      21.733375299999999      27.710718400000001             10.22164538
