N2-dn2-coord-10bar/700K/snapshots/frame-160449/run-000/../data.lammps (written by ASE) 

770 	 atoms 
2  atom types
0.0      32.470343392086264  xlo xhi
0.0      28.120142247150884  ylo yhi
0.0      31.213473999158239  zlo zhi


Atoms 

     1   1      2.0293964600000001      1.1716090800000001    0.023552650000000001
     2   1      6.0880008999999999              1.17168918              0.02556874
     3   1      10.146952280000001              1.17170328    0.025416459999999998
     4   1      14.205754900000001      1.1716496700000001              0.02501565
     5   1             18.26456816              1.17166478              0.02504435
     6   1             22.32338141      1.1716496700000001              0.02501565
     7   1      26.382184030000001              1.17170328    0.025416459999999998
     8   1      30.441135410000001              1.17168918              0.02556874
     9   1  9.1780000000000006e-05      4.6866847900000002    0.025581599999999999
    10   1      4.0587011400000002      4.6866847900000002    0.025581599999999999
    11   1      8.1174961000000003      4.6866290399999997    0.025584639999999999
    12   1             12.17638011      4.6866852999999997              0.02491202
    13   1             16.23517979      4.6866942700000003    0.025006210000000001
    14   1      20.293956519999998      4.6866942700000003    0.025006210000000001
    15   1      24.352756209999999      4.6866852999999997              0.02491202
    16   1      28.411640219999999      4.6866290399999997    0.025584639999999999
    17   1      2.0293964600000001      8.2016395800000002    0.026613040000000001
    18   1      6.0881071599999999      8.2016314300000008              0.02543782
    19   1             10.14701835               8.2017045    0.025156850000000001
    20   1      14.205766049999999      8.2017080900000003    0.024990459999999999
    21   1             18.26456816      8.2017077599999997    0.025091249999999999
    22   1      22.323370260000001      8.2017080900000003    0.024990459999999999
    23   1      26.382117969999999               8.2017045    0.025156850000000001
    24   1      30.441029149999999      8.2016314300000008              0.02543782
    25   1  9.2789999999999998e-05             11.71671873    0.025573410000000001
    26   1              4.05870014             11.71671873    0.025573410000000001
    27   1      8.1176017700000003             11.71668698              0.02497914
    28   1             12.17637068             11.71673069    0.025001590000000001
    29   1      16.235177310000001      11.716730249999999    0.025074039999999999
    30   1      20.293959009999998      11.716730249999999    0.025074039999999999
    31   1      24.352765640000001             11.71673069    0.025001590000000001
    32   1      28.411534549999999             11.71668698              0.02497914
    33   1      2.0293964600000001             15.23167155              0.02525285
    34   1      6.0881728300000004      15.231678799999999    0.025062859999999999
    35   1             10.14698486      15.231762639999999               0.0250786
    36   1             14.20578841             15.23176782    0.025201990000000001
    37   1             18.26456816              15.2317707    0.025149979999999999
    38   1      22.323347900000002             15.23176782    0.025201990000000001
    39   1      26.382151459999999      15.231762639999999               0.0250786
    40   1      30.440963480000001      15.231678799999999    0.025062859999999999
    41   1      32.470327990000001      18.746748629999999    0.024951939999999999
    42   1      4.0588083299999997      18.746748629999999    0.024951939999999999
    43   1      8.1175770200000006      18.746803499999999    0.025222040000000001
    44   1             12.17637459      18.746799750000001    0.025428470000000002
    45   1      16.235159400000001      18.746805200000001    0.025487360000000001
    46   1      20.293976919999999      18.746805200000001    0.025487360000000001
    47   1      24.352761730000001      18.746799750000001    0.025428470000000002
    48   1             28.41155929      18.746803499999999    0.025222040000000001
    49   1      2.0293964600000001      22.261939099999999    0.025844880000000001
    50   1      6.0881419299999999      22.261841799999999    0.025489439999999999
    51   1             10.14692954             22.26176895              0.02551757
    52   1             14.20573559      22.261804690000002    0.025639160000000001
    53   1             18.26456816             22.26178625    0.025640119999999999
    54   1      22.323400729999999      22.261804690000002    0.025639160000000001
    55   1      26.382206780000001             22.26176895              0.02551757
    56   1             30.44099439      22.261841799999999    0.025489439999999999
    57   1  5.6450000000000003e-05      25.776936450000001              0.02613327
    58   1      4.0587364700000004      25.776936450000001              0.02613327
    59   1      8.1175325399999991              25.7767713    0.024734180000000001
    60   1      12.176376469999999      25.776831090000002              0.02545323
    61   1      16.235145939999999      25.776775220000001    0.025273360000000002
    62   1             20.29399038      25.776775220000001    0.025273360000000002
    63   1      24.352759840000001      25.776831090000002              0.02545323
    64   1      28.411603769999999              25.7767713    0.024734180000000001
    65   1  0.00024266000000000001              2.34304215     0.80166565000000001
    66   1      4.0585502699999996              2.34304215     0.80166565000000001
    67   1      8.1157394600000003              2.34454954     0.80169402000000001
    68   1             12.17601256      2.3433829099999999     0.80116898000000003
    69   1      16.235258170000002      2.3433209100000001     0.80090046999999998
    70   1      20.293878150000001      2.3433209100000001     0.80090046999999998
    71   1      24.353123750000002      2.3433829099999999     0.80116898000000003
    72   1      28.413396859999999              2.34454954     0.80169402000000001
    73   1      2.0293964600000001      5.8582218700000004     0.80119762000000005
    74   1      6.0870566899999998      5.8583336700000004              0.80194851
    75   1             10.14649655              5.85853131     0.80121584000000001
    76   1             14.20597894      5.8582938599999999     0.80086840999999998
    77   1             18.26456816      5.8583798500000004               0.8010794
    78   1      22.323157380000001      5.8582938599999999     0.80086840999999998
    79   1             26.38263976              5.85853131     0.80121584000000001
    80   1      30.442079629999999      5.8583336700000004              0.80194851
    81   1  0.00019438999999999999      9.3717771800000005     0.80082061000000004
    82   1      4.0585985400000002      9.3717771800000005     0.80082061000000004
    83   1      8.1175070500000004      9.3725002699999997     0.80149060999999999
    84   1      12.176590020000001      9.3733583399999993     0.80088261999999999
    85   1             16.23512199      9.3733789200000004              0.80106506
    86   1             20.29401433      9.3733789200000004              0.80106506
    87   1      24.352546289999999      9.3733583399999993     0.80088261999999999
    88   1      28.411629269999999      9.3725002699999997     0.80149060999999999
    89   1      2.0293964600000001             12.88692854     0.80220621000000003
    90   1      6.0883212999999996             12.88743848     0.80138414999999996
    91   1      10.147128609999999             12.88859852     0.80085256000000005
    92   1             14.20571782      12.888558189999999     0.80113791000000001
    93   1             18.26456816      12.888409899999999     0.80109381000000002
    94   1      22.323418490000002      12.888558189999999     0.80113791000000001
    95   1             26.38200771             12.88859852     0.80085256000000005
    96   1      30.440815019999999             12.88743848     0.80138414999999996
    97   1              0.00012365      16.403222639999999     0.80145666999999998
    98   1      4.0586692700000002      16.403222639999999     0.80145666999999998
    99   1      8.1174337899999998      16.403825260000001     0.80097196999999998
   100   1              12.1761021             16.40390721     0.80133072000000005
   101   1             16.23503496      16.403861750000001     0.80140014999999998
   102   1      20.294101359999999      16.403861750000001     0.80140014999999998
   103   1      24.353034220000001             16.40390721     0.80133072000000005
   104   1      28.411702529999999      16.403825260000001     0.80097196999999998
   105   1      2.0293964600000001      19.919205120000001     0.80066369999999998
   106   1              6.08752564             19.91894023     0.80122479000000002
   107   1      10.146078839999999             19.91919038     0.80159137999999996
   108   1      14.204993419999999              19.9192584     0.80178742000000003
   109   1             18.26456816      19.919377350000001     0.80194975999999996
   110   1      22.324142899999998              19.9192584     0.80178742000000003
   111   1      26.383057470000001             19.91919038     0.80159137999999996
   112   1      30.441610669999999             19.91894023     0.80122479000000002
   113   1              0.00142012      23.434536609999999     0.80178442000000005
   114   1      4.0573728100000004      23.434536609999999     0.80178442000000005
   115   1      8.1165862000000004      23.433936769999999     0.80182306000000003
   116   1             12.17555218      23.433996919999998     0.80156656000000004
   117   1             16.23465491      23.434040110000002     0.80170828999999999
   118   1      20.294481409999999      23.434040110000002     0.80170828999999999
   119   1      24.353584130000002      23.433996919999998     0.80156656000000004
   120   1      28.412550110000002      23.433936769999999     0.80182306000000003
   121   1      2.0293964600000001      26.949875330000001              0.80297246
   122   1      6.0858208300000003      26.950066320000001              0.80215291
   123   1             10.14598146      26.949241430000001     0.80165810000000004
   124   1             14.20520604      26.948673230000001     0.80131923999999999
   125   1             18.26456816             26.94858318     0.80108193999999999
   126   1      22.323930279999999      26.948673230000001     0.80131923999999999
   127   1      26.383154860000001      26.949241430000001     0.80165810000000004
   128   1             30.44331549      26.950066320000001              0.80215291
   129   1      32.339546630000001              0.02914489      1.5973734900000001
   130   1      4.0020486599999998   -0.066472450000000002              1.32336739
   131   1      8.1674843599999996    0.091423829999999998               1.4929971
   132   1             12.24983834              0.11391456              1.38049588
   133   1      16.152070120000001   -0.044301710000000001      1.3499995899999999
   134   1      20.370425470000001   -0.045972880000000001              1.41268365
   135   1             24.37442704             28.11720712      1.5384803600000001
   136   1      28.457308300000001             -0.09031322              1.37365943
   137   1      1.9317967700000001      3.5621498800000002      1.3267953800000001
   138   1      6.0314551200000004      3.5581302699999999      1.4221045999999999
   139   1      10.281920120000001              3.45232004              1.62252508
   140   1             14.28191438      3.4359635700000002              1.50751346
   141   1             18.23472915      3.5240676500000001      1.4182002499999999
   142   1      22.224624460000001      3.4162503200000001              1.32040522
   143   1      26.298643989999999      3.6310679800000001              1.43957304
   144   1      30.632365830000001      3.5932801599999999              1.49595254
   145   1    -0.10865565000000001      7.0316593699999999      1.3758126100000001
   146   1      4.0183121699999997      6.9972073699999999               1.6553285
   147   1      8.2149655700000004      6.9299450299999998               1.4492509
   148   1             12.19521645      7.0859930899999997      1.4365381699999999
   149   1      16.292962790000001      7.1146144299999996      1.5228250400000001
   150   1      20.306396119999999      7.1050312599999996      1.5721778500000001
   151   1      24.250758269999999      6.8948556600000002              1.59759897
   152   1      28.295545059999998      7.1047390999999998               1.4900372
   153   1      2.0882678600000002             10.58383038              1.45787216
   154   1      6.0182825500000003             10.49791579              1.50630201
   155   1      10.062431520000001             10.68350044      1.5109321099999999
   156   1             14.03114293             10.68081872               1.4573307
   157   1      18.326647309999998             10.53189222      1.4916456499999999
   158   1      22.369662309999999      10.696474739999999      1.4189904099999999
   159   1      26.458298259999999      10.564822619999999              1.76657932
   160   1      30.375468309999999      10.537779090000001              1.45220843
   161   1              0.15548085             14.11680335              1.53410545
   162   1                3.956833      13.974675469999999              1.46811425
   163   1      8.1074999699999992             14.03577752      1.5254939599999999
   164   1      12.059304450000001             14.11331193              1.61495429
   165   1      16.265337089999999      14.006145180000001              1.55885557
   166   1      20.341326810000002      14.307516619999999              1.56991474
   167   1             24.34219805             14.05954238      1.4013923500000001
   168   1             28.63835306      14.112340440000001              1.57977828
   169   1      1.8638775599999999      17.508988309999999              1.48955697
   170   1      6.0689221199999999              17.3988826      1.4764911199999999
   171   1             10.13401213      17.525956560000001      1.4028069999999999
   172   1             14.21618511             17.63436926      1.3332751599999999
   173   1      18.197927929999999             17.48774289      1.4216090699999999
   174   1             22.30397554             17.61250442      1.3005489800000001
   175   1      26.415095600000001      17.692641309999999      1.4424132300000001
   176   1      30.318458069999998      17.536407990000001      1.5027631100000001
   177   1               -0.015254      20.941407999999999      1.5283998000000001
   178   1      4.1100538599999998      20.991011140000001      1.5096495400000001
   179   1      8.2533746899999993      21.202927379999998      1.4857542399999999
   180   1             12.28247638      21.148655250000001      1.5991793400000001
   181   1             16.25877242      21.157212810000001      1.4235049500000001
   182   1      20.179706979999999      21.031820920000001      1.5104748400000001
   183   1      24.342313279999999      21.153249160000001              1.44331023
   184   1      28.307101039999999      21.161678949999999      1.6255720199999999
   185   1              1.97896381      24.491451000000001              1.41631766
   186   1      6.0608272200000002      24.638008599999999      1.4143137100000001
   187   1              10.1461006             24.70527208      1.7941514700000001
   188   1      14.158199789999999      24.393164809999998              1.63217283
   189   1      18.445687700000001      24.818495200000001              1.56329897
   190   1      22.445571229999999      24.415039119999999              1.36459241
   191   1      26.330980409999999             24.44405772      1.4644882699999999
   192   1      30.632649359999998      24.475097460000001      1.3542590800000001
   193   1      1.9128010099999999      1.2620280399999999      2.3628721000000001
   194   1      6.0301143499999998              1.23646112      2.3008349199999998
   195   1      10.016988639999999      1.1183920000000001      2.5886451099999999
   196   1      14.331667550000001               1.1184276              2.35062119
   197   1      18.363459590000001      1.0557385500000001      2.4307391900000002
   198   1      22.363471570000002      1.1878143699999999      2.4890564300000002
   199   1             26.46145237              1.06318907      2.3038219799999999
   200   1      30.368988040000001      1.2884635600000001      2.4729646700000001
   201   1     0.16016628999999999              4.64092737              2.40302755
   202   1      4.0055892899999996      4.4817993700000001      2.5293650200000002
   203   1      8.3650385499999995              4.52382448      2.2713016399999999
   204   1             12.33590257      4.8249257800000001      2.5114975500000001
   205   1             16.05907461      4.7408184799999997      2.5256273899999999
   206   1             20.32506592      4.6865296799999996      2.4541065099999999
   207   1      24.304104070000001      4.7470660200000001      2.3523874299999998
   208   1      28.437501390000001      4.7780756000000002      2.4082177499999999
   209   1              1.93764884      8.2378311499999999      2.5134469899999998
   210   1      6.0469139199999997      8.0908289999999994              2.40047283
   211   1             10.18260544      8.2674719400000001      2.3930902299999999
   212   1             14.45606171      8.4192467900000008      2.6382111699999999
   213   1      18.304961250000002      8.2666610800000004      2.5644145800000002
   214   1             22.52875191      8.1405846400000001      2.3499537400000001
   215   1      26.188712339999999      8.1804606500000006      2.4032356400000001
   216   1             30.34156939      8.3160233800000007      2.3475760399999999
   217   1      32.362582250000003             11.77181223      2.3584187299999999
   218   1      4.0358395299999996             11.88331069      2.2888707699999999
   219   1      7.8453310900000002      11.878843120000001      2.3937224700000002
   220   1             12.09150223      11.763268739999999              2.52579844
   221   1             16.24769006             11.67960742      2.5558868299999999
   222   1      20.263733089999999      11.814439459999999      2.3840111899999998
   223   1      24.431999609999998             11.64613319      2.5390266800000001
   224   1             28.32719303             11.71821613              2.38482898
   225   1      2.0084343499999999      15.236384279999999      2.3323137900000002
   226   1      6.0503739699999999             15.15121706      2.5736991499999999
   227   1      10.129922110000001      15.298909480000001      2.5166079300000002
   228   1             14.18569428             15.33085953               2.2305826
   229   1      18.131664610000001      15.386859980000001      2.4056383499999998
   230   1      22.326345119999999      15.277903370000001      2.3576775400000001
   231   1             26.37066381      15.157944759999999      2.3555130200000001
   232   1      30.637393979999999             15.29132426              2.42970452
   233   1              0.16423055      18.774338310000001      2.5367788199999999
   234   1      4.1143516299999998      18.691995810000002      2.2833699200000002
   235   1      7.9705820000000003              18.6400471      2.3773423199999999
   236   1             12.18030454             18.84040847      2.4267257099999999
   237   1      16.277700939999999      18.907687339999999      2.3109186300000002
   238   1      20.121471369999998      18.661134990000001      2.4303391099999998
   239   1             24.22652343      18.809223589999998              2.51354487
   240   1      28.161657930000001             18.73167523      2.5699987900000001
   241   1      2.0398286900000002      22.429399020000002      2.4487222100000001
   242   1      6.3281732899999996             22.20565032      2.5441679100000001
   243   1      10.162039569999999      22.388337960000001      2.3637599499999999
   244   1      14.192629910000001      22.204019769999999      2.4522103400000002
   245   1      18.227414020000001      22.365625189999999      2.4410759799999999
   246   1      22.244136439999998             22.11999033      2.2312169100000001
   247   1      26.371174180000001      22.153518519999999              2.40672401
   248   1      30.497324249999998      22.154201459999999      2.4443824200000002
   249   1    0.095712580000000005             25.76416566      2.3570222099999998
   250   1      3.9943168500000001      25.747989130000001      2.5201390699999999
   251   1      8.2015104000000001      25.769061619999999      2.5022669099999999
   252   1             12.25324546             25.87029995      2.5926328500000002
   253   1      16.173806320000001             25.65290345      2.2541857200000002
   254   1             20.35634061      25.634078479999999      2.4886827899999999
   255   1      24.393406670000001             25.67241825              2.46760008
   256   1      28.259631290000002      25.817723879999999      2.4409592199999999
   257   1              0.04064425      2.4966614599999999      3.2163149299999998
   258   1                4.133019      2.2379907600000002      3.2696302699999999
   259   1      8.0745446800000007      2.2860905800000002      3.3018880799999999
   260   1      12.242291809999999      2.3847087299999998      3.2757592999999998
   261   1      16.356179229999999      2.1859373500000001      3.2616818400000001
   262   1      20.379178289999999      2.4297148599999998      3.2020831599999999
   263   1      24.436616560000001      2.5052626500000001      3.0904554599999998
   264   1             28.41675931      2.4122641499999999              3.23334396
   265   1      2.0801944899999998              5.94346672              3.35020147
   266   1      6.2328011800000001      5.7268329099999997      3.1767280800000002
   267   1      10.289885870000001      5.8871285499999999              3.36891132
   268   1      14.286134260000001      6.1417120000000001              3.26829261
   269   1      18.328453020000001      5.8998815499999999      3.3743051300000002
   270   1      22.157650140000001      5.8134736299999998      3.1346134399999999
   271   1      26.250935299999998      6.0126310199999997              3.20460711
   272   1      30.340080709999999      6.0068833399999999      3.0778546699999998
   273   1      32.437497810000004      9.5864004400000002      3.2229356500000002
   274   1              3.97354567      9.5138949900000007      3.2235321099999998
   275   1      8.0616957199999995      9.3900995100000006      3.2002923600000002
   276   1      12.347515619999999      9.3871563400000007      3.3225018999999998
   277   1      16.435544109999999      9.4563280899999995      3.3984804799999999
   278   1      20.356692379999998      9.4835628700000001      3.1491934100000001
   279   1      24.238600949999999      9.2563040500000007              3.24967234
   280   1      28.357480469999999      9.3816048399999996      3.2269623099999998
   281   1              2.03488801      12.895418619999999              3.25495936
   282   1      5.9947266099999998              12.9520354      3.2897119400000001
   283   1      10.063951879999999      12.879503939999999      3.2243045800000001
   284   1             14.31345117      12.991649880000001      3.3277381400000001
   285   1      18.300803219999999      12.850386670000001      3.2277018800000001
   286   1      22.373240939999999             13.07947759              3.15663574
   287   1      26.263761290000001      12.896599269999999              3.26177246
   288   1      30.475718019999999      13.029769529999999      3.2253825300000001
   289   1              0.21479166      16.419141870000001      3.2976231600000001
   290   1      4.0101466600000002      16.425467170000001      3.1872534899999998
   291   1      8.0756566000000003      16.281618420000001              3.26862655
   292   1             12.02266444             16.53648402      3.3009901099999999
   293   1      16.228480529999999      16.401641290000001      3.1612339399999998
   294   1      20.232111849999999             16.31178006      3.1546172700000001
   295   1      24.414304489999999      16.317609040000001      3.1543046600000002
   296   1      28.317175240000001      16.348811179999998      3.2074695700000002
   297   1      2.0813505999999999      19.984370720000001              3.13475283
   298   1      5.9701122399999997             19.92029969      3.2954256399999999
   299   1              10.1702969              19.9965996      3.2206720299999998
   300   1      14.316952649999999             19.92699704      3.2596064999999999
   301   1      18.189024450000002      19.914951810000002      3.4330549499999998
   302   1      22.058500160000001             19.69638063      3.2757889100000002
   303   1      26.350959320000001      19.815778949999999      3.4132067099999999
   304   1             30.34722335      19.798381079999999      3.2168894400000001
   305   1      32.426193869999999      23.547662989999999      3.2701751799999998
   306   1      4.2504598500000004      23.380551499999999      3.2606044299999999
   307   1      8.1879053499999994      23.380158460000001      3.2959659700000001
   308   1             12.15326993             23.39040765      3.2529211099999999
   309   1      16.143120369999998      23.318256250000001      3.2459858100000001
   310   1      20.211317709999999      23.366896969999999      3.3101132299999998
   311   1      24.219238610000001      23.306562679999999      3.3188655499999999
   312   1      28.456768870000001      23.446479329999999      3.2101640200000001
   313   1      1.9719590499999999      27.008528779999999      3.2923393000000001
   314   1      6.0410966500000001      26.986878220000001      3.3164972000000001
   315   1             10.05723665             26.87793692              3.30114259
   316   1             14.21745438      26.988754270000001      3.3394855300000001
   317   1      18.202951429999999      26.918363500000002      3.3075592199999999
   318   1      22.445935689999999             26.93494411      3.4501745399999999
   319   1      26.480496129999999      26.837268130000002              3.26225268
   320   1             30.38732813             26.85461312      3.1358267199999998
   321   1             32.43190388      28.084884899999999      4.0329210399999997
   322   1      4.0306013800000002      28.122423170000001      3.9609451899999999
   323   1      8.2122226900000008             28.09269278              4.14995095
   324   1      12.136813930000001      28.043090889999998      4.1302673399999996
   325   1      16.234696799999998      28.183718249999998      4.1790051699999999
   326   1      20.293211119999999      27.963697410000002      4.1172786099999996
   327   1             24.42588765      28.144810339999999              3.98740856
   328   1      28.447467920000001    0.040436590000000001              3.95973336
   329   1              2.19660068      3.4202503599999998      3.9629799100000001
   330   1      6.0107117800000003      3.4790847899999999      4.0357735699999999
   331   1             10.19725925      3.6090912300000002      4.1197959500000003
   332   1      14.184960329999999               3.5232492      4.0615990999999996
   333   1      18.248872129999999              3.42430162      4.1628914100000003
   334   1      22.420534490000001      3.5339071899999999      4.2663893499999999
   335   1             26.45873323              3.69265848      3.8839895100000001
   336   1              30.3415073      3.6416642100000001      4.1034080099999999
   337   1      32.292999450000003      6.9734794899999999      4.1153473099999998
   338   1      4.0631677100000001              7.10183228      4.0547310100000002
   339   1      8.0924467900000003      6.9818681600000003              4.09171934
   340   1      12.173660780000001      7.2459607999999998      4.2591967100000003
   341   1      16.358720510000001      7.1324939199999999      4.2499314899999998
   342   1      20.341045189999999      7.2615000299999997              4.08790429
   343   1      24.349872130000001      6.8964368299999999      4.0692017900000002
   344   1      28.367094099999999      6.9540469900000002              3.98268596
   345   1               2.1144387      10.507009330000001              4.06547591
   346   1      6.0053678599999998      10.778802560000001      4.0575976499999999
   347   1      10.062022880000001      10.485656609999999      4.2171989700000001
   348   1             14.27675895      10.740661380000001      4.0218375599999998
   349   1      18.178831290000002      10.585109299999999              4.03748095
   350   1      22.498630510000002      10.897334450000001      4.0532575499999997
   351   1      26.271364859999998             10.42376103      4.2517029700000002
   352   1             30.38249888      10.713565539999999      4.1442028999999998
   353   1      32.646057140000003      14.049965780000001      4.1881589899999998
   354   1      4.0409755699999996      14.025334429999999      4.1258372100000003
   355   1      7.9245661800000002             14.09657618      4.0894958199999998
   356   1              12.1181809             13.91212762      4.0609846100000002
   357   1             16.33863028      14.320231619999999      4.0768292300000004
   358   1             20.11768781             13.90951628      3.9256666199999999
   359   1      24.285523789999999             14.04333561      4.0534329400000004
   360   1      28.503033970000001             14.17514414      4.0158598400000001
   361   1      2.0942945599999998      17.732585029999999      4.0999233500000001
   362   1      6.0351055100000002      17.517319000000001      3.9989538699999998
   363   1      10.043964819999999      17.585424880000001      3.9872133999999999
   364   1      14.065337080000001      17.570967280000001      3.9105730799999998
   365   1      18.177086880000001      17.588148480000001      3.9069056099999999
   366   1      22.167170370000001             17.43721824      4.0933786100000003
   367   1      26.230883550000001      17.543868190000001      4.0415789200000001
   368   1      30.465254259999998             17.57895267      4.1108685600000001
   369   1      32.432667350000003      21.191250329999999      3.8743781500000001
   370   1              3.90781957      21.105343080000001      4.1559103400000001
   371   1      8.0821360700000007      20.812373699999998      4.2568027500000003
   372   1             12.17273836      21.109218259999999      4.0710975100000004
   373   1      16.314295749999999             21.14327012      4.0501104300000002
   374   1      20.206567660000001      21.154852380000001      4.1986575300000002
   375   1             24.19835732             21.22379742      4.1854399899999999
   376   1             28.30305297      20.964885039999999      4.2653369000000003
   377   1      2.3302676600000001      24.579912950000001      4.0430127999999996
   378   1      5.9682082699999999      24.582340139999999      4.1404825000000001
   379   1             10.06135647      24.523461910000002              4.27298417
   380   1      14.076826609999999      24.607185090000002      4.0296263699999999
   381   1             18.09660865      24.541279200000002      4.1259116599999999
   382   1      22.344638010000001      24.397208630000002      4.1080821900000002
   383   1      26.410103970000002      24.538078970000001      4.2453493199999999
   384   1             30.25013315      24.499543750000001      4.3655165900000004
   385   1              1.87824546              1.03109783      4.8279120200000003
   386   1              6.22234336      1.1740925900000001      4.8511726399999997
   387   1      10.097826359999999      1.2010697699999999      4.9657169100000003
   388   1             14.17890519      1.1517590799999999      4.8521877499999997
   389   1      18.330140579999998      1.1811791899999999      4.8895463100000001
   390   1      22.237209499999999      1.2072763799999999      4.9375561699999997
   391   1      26.403029660000001      1.1109488999999999      4.9078840000000001
   392   1             30.47769259      1.2101073200000001      4.8705420999999998
   393   1    -0.21405653999999999      4.6845045799999996      4.8456326499999998
   394   1      4.1927490900000004      4.6248413700000004      4.9504099300000002
   395   1      8.1408607199999992      4.8525359400000001      4.8490880799999996
   396   1      12.342751890000001      4.7296230599999998      4.8941432300000001
   397   1              16.3137677      4.5763220699999998              4.92555283
   398   1      20.386980359999999               4.7679947      4.8426750900000002
   399   1             24.44606091      4.5568764499999999      4.8255188000000002
   400   1      28.340515880000002      4.7769340700000003      4.7743969100000001
   401   1      1.9449424099999999      8.1546113400000007      4.9176699599999996
   402   1      6.1028988799999997              8.26525088      4.9406344600000001
   403   1      10.196448309999999      8.2189172999999993      5.0628188400000003
   404   1             14.11484119      8.3143867300000007      5.0164893499999996
   405   1             18.30275378      8.2674473000000006      4.8008952100000002
   406   1      22.372236999999998      8.1861500399999994      4.8940370199999998
   407   1             26.51324189      8.1385956299999993      4.8489330300000004
   408   1      30.214948700000001      8.2588030700000008      4.9205571199999998
   409   1      32.478800790000001             11.77853182      4.8817554899999998
   410   1      3.9866255700000002      11.629291419999999      4.9984840200000002
   411   1      8.0895939400000003      11.976681709999999      4.7944819000000001
   412   1      12.220649959999999      11.596268179999999              4.82541975
   413   1      16.112725520000001      11.668666030000001      5.0523760900000001
   414   1      20.250348710000001             11.66871538      4.7782894499999999
   415   1             24.42442913      11.874871389999999      4.9454636299999999
   416   1      28.389904040000001      11.618277730000001      4.9614499700000003
   417   1      2.0589188300000001             15.17537995      4.8472761499999999
   418   1      5.9404268599999996             15.16242559      4.9968564799999999
   419   1              9.94893641             15.11765559      5.1026144200000001
   420   1             14.10663752             15.30436708      4.8179112599999998
   421   1      18.303413209999999      15.226304130000001      4.9384454199999999
   422   1      22.268091779999999             15.28229951              4.73982233
   423   1             26.43597986             15.16059007      4.9329367199999998
   424   1      30.532703940000001      15.316624259999999              5.05030029
   425   1              0.10020975      18.826934269999999      4.9653869500000001
   426   1               4.3095583      18.668088139999998      4.9643455899999998
   427   1      8.0613010900000006             18.59985567              4.96638175
   428   1             12.12998026      18.836253429999999      5.0061709299999997
   429   1      16.090580460000002      18.842367230000001      4.7872357799999996
   430   1             20.06419794      18.737560269999999      5.1184698800000001
   431   1      24.234665490000001      18.828119600000001      4.8751043799999998
   432   1      28.448813340000001      18.539377770000002      4.9389016899999998
   433   1      1.9672442800000001             22.32043543              4.95692998
   434   1      6.0189494100000003      22.347174599999999      5.0134903800000004
   435   1             10.24080199      22.206143399999998      4.8641806900000004
   436   1               14.273937      22.137673540000002      4.8391204700000001
   437   1      18.238615630000002             22.28698752      5.1685121299999999
   438   1             22.14363307      22.290575650000001      4.8236095700000003
   439   1      26.250771830000001      22.132413400000001      5.0758682999999998
   440   1             30.40637525      22.283502250000002      5.0195949600000001
   441   1    0.086033620000000005      25.723985819999999      4.8644856699999997
   442   1      4.0979806300000003              25.7416509      5.0588316200000003
   443   1      7.9406245599999998             25.75918794      4.9322467100000003
   444   1      12.079592119999999      25.793534399999999      5.2071157399999999
   445   1      16.145902060000001      25.812291399999999      4.7864189100000001
   446   1      20.228107210000001      25.784134609999999      4.9857807300000001
   447   1      24.153115079999999             25.60981181      4.9699709199999997
   448   1             28.27861381      25.668023850000001      5.1004461699999997
   449   1     0.13315668999999999              2.32940163      5.4936315100000002
   450   1              3.98922423      2.2441950300000002      5.6183641099999999
   451   1      8.0293071299999994      2.3878075700000001      5.7958868099999998
   452   1             12.12288845      2.5009111599999998      5.7030304100000002
   453   1      16.319413870000002      2.3704114000000001      5.7391650600000004
   454   1      20.623094999999999      2.3464139199999998              5.65658409
   455   1             24.41286371      2.2324498799999999      5.5708962399999997
   456   1      28.507114059999999              2.22739924      5.6380488900000003
   457   1               1.9812466      5.6342634399999998      5.8118064699999996
   458   1      6.1583212200000004      5.8428254800000001      5.5836489299999998
   459   1      10.205200980000001      5.9274409099999996      5.9360057700000004
   460   1             14.33404975      5.8577679399999996      5.8472169999999997
   461   1      18.499818959999999      5.7903384999999998      5.7138470400000001
   462   1      22.353461469999999      5.8086644099999996      5.5718868300000004
   463   1             26.46754327      5.7938423300000004      5.7162868299999996
   464   1      30.461840410000001      5.8340267700000004      5.7448906600000003
   465   1      32.436251919999997      9.4171229699999994      5.6702234100000002
   466   1      4.0415809200000004      9.2909781200000001      5.8653230399999998
   467   1      8.0863127499999994      9.4522212000000003      5.7686520300000002
   468   1      12.127112650000001      9.4158015000000006      6.2300038899999999
   469   1      16.157122909999998      9.3551020600000001      5.8924336999999998
   470   1               20.404747      9.3989324100000005      5.7350549400000004
   471   1             24.50476351      9.4468720200000007              5.53885162
   472   1      28.524762339999999      9.4593589999999992      5.8900268699999998
   473   1              1.88641035             12.80667055      5.8029136000000001
   474   1      5.8709619399999999             12.79546558      5.7626746799999999
   475   1             10.04238681      12.815186969999999      5.7520442999999997
   476   1      13.897823600000001             12.96881529      5.7665557500000002
   477   1      18.238281749999999      12.933374730000001      5.7970061800000003
   478   1      22.279330229999999             13.13158643      5.6150181100000003
   479   1      26.526078869999999             12.84549357      5.7638961499999999
   480   1      30.320202389999999             12.95411945      5.7697956799999996
   481   1              0.12615288      16.364260259999998      5.9779848400000004
   482   1      4.0687639500000001      16.363267159999999      5.8334833899999996
   483   1              7.87091414      16.408063070000001      5.7844798800000001
   484   1      12.052412800000001             16.39823934      5.6951927099999997
   485   1      16.207466700000001      16.369350959999998      5.7478612699999996
   486   1      20.419105829999999              16.2368357      5.7968808599999999
   487   1              24.2294749      16.342161709999999      5.6227290200000004
   488   1      28.348408360000001             16.32761824      5.8055989300000004
   489   1              2.03936071             19.89051229      5.7576377699999997
   490   1      5.9117150699999996      19.948541930000001      5.7750397299999996
   491   1             10.15531571      19.821835979999999      5.6843167699999997
   492   1             14.15313128             19.84612147      5.6847700100000003
   493   1      18.114812499999999             19.93307789      5.7749415800000001
   494   1      22.219197470000001      20.130482709999999      5.7555805199999996
   495   1      26.291114839999999             19.86546645              5.78986789
   496   1      30.404693630000001      19.977367959999999      5.7613940000000001
   497   1      32.577165360000002      23.383225450000001      5.7461967700000001
   498   1      4.1013103500000003      23.401611519999999              5.82471988
   499   1      8.1092819600000006      23.519749910000002      5.7993515599999998
   500   1             12.34563131      23.347681000000001      5.7038130300000001
   501   1      16.073660700000001      23.386289730000001      5.7815123599999998
   502   1      20.191522150000001             23.39313628      5.8925100300000004
   503   1      24.191255850000001      23.254549740000002      5.7270553199999998
   504   1      28.284359240000001      23.217652170000001      5.7172301900000004
   505   1              2.04825444      27.053642660000001      5.7787361099999996
   506   1      6.1070309500000004      26.982272900000002      5.7288289199999998
   507   1      10.016225220000001             27.13947619      5.8602748800000004
   508   1      14.171290259999999             26.98300442      5.8364124799999999
   509   1      18.257089050000001      26.897506969999998      5.7029493999999996
   510   1             22.54459769      26.887616640000001      5.7744751000000001
   511   1      26.355980020000001      26.926230539999999              5.84214696
   512   1             30.37652529      26.826726399999998      5.5384733199999996
   513   1      32.532454360000003     0.10900550000000001      6.4904607199999997
   514   1      4.0135527800000004      28.137187839999999      6.5614122400000001
   515   1      8.0375869299999998     0.15077452999999999              6.81499568
   516   1             12.01931001      28.211378750000002      6.6582432000000003
   517   1      16.157029049999998    0.098602480000000006      6.4761382300000001
   518   1      20.469467170000001      28.213541920000001              6.55452002
   519   1      24.288334549999998   -0.065425289999999997      6.5873123199999997
   520   1      28.372091059999999      28.029876349999999              6.56154145
   521   1              1.97425977               3.3962862      6.6117445000000004
   522   1      5.8976111600000003      3.4189833699999999      6.6247178800000004
   523   1             10.17042352      3.4573116499999998      6.6923457800000001
   524   1             14.19999011      3.3877843599999999      6.6573439900000002
   525   1      18.412103890000001      3.4875711800000002      6.3652526700000003
   526   1      22.616620910000002      3.5471823699999998      6.7229806300000003
   527   1             26.19874841      3.4088500700000002      6.4875214799999998
   528   1      30.540351600000001      3.4021585700000001      6.5216772900000004
   529   1   -0.097128140000000002      6.9758202899999997              6.64140905
   530   1      3.9606796000000002      6.8374807400000002      6.5180524100000001
   531   1      8.1201524099999993      7.0183335600000003      6.5432737300000001
   532   1             12.37387764      6.9935488899999996      6.6206327299999996
   533   1      16.379310870000001      6.9107086000000004      6.6188693699999996
   534   1      20.375035230000002      6.9995906400000001      6.6049023699999996
   535   1      24.324234650000001      7.1143292300000001      6.4371937199999998
   536   1             28.40879537      7.1500731200000001      6.5846263699999996
   537   1      2.0384413399999999      10.562480430000001      6.7624517400000004
   538   1      5.9430942299999998      10.447263619999999      6.6472429499999999
   539   1             10.11154571             10.43089091      6.7301191300000003
   540   1      14.028977210000001             10.58696713      6.6027936599999997
   541   1      18.161388169999999      10.676735770000001      6.6184156700000001
   542   1              22.6432118      10.718840739999999      6.6991743899999996
   543   1      26.589722389999999      10.510956220000001      6.6937396900000001
   544   1      30.558328499999998      10.589524040000001              6.55733721
   545   1    -0.12870814999999999      14.055215520000001              6.65624634
   546   1      3.9457409399999999             13.86421625      6.7420078999999999
   547   1      7.8663472800000003      14.103759800000001      6.5865831699999999
   548   1      11.889356380000001             14.31109721      6.5910276200000002
   549   1      16.070129399999999             13.95639643      6.4377128199999998
   550   1             20.20262318             13.95882091      6.7966171299999996
   551   1      24.579832719999999      14.121566789999999      6.4767974199999996
   552   1      28.308402600000001             13.98555799      6.6919630400000001
   553   1      1.9366355500000001      17.702684290000001      6.7513677799999998
   554   1              6.12985705      17.646169180000001      6.7200337899999996
   555   1             10.15995818      17.536588200000001      6.6107765799999996
   556   1             14.13789637      17.595930639999999      6.5230526099999997
   557   1      18.234123459999999      17.383736169999999      6.7397281299999996
   558   1      22.336721799999999      17.818975030000001      7.0873662700000004
   559   1             26.10487367              17.5916055      6.4678990499999998
   560   1             30.31705856      17.621901999999999      6.4845802399999997
   561   1      32.591555239999998      20.971677849999999      6.4869044999999996
   562   1      4.0947247300000003      21.120639189999999              6.61895554
   563   1      8.0628006299999999      21.190818069999999      6.5363328100000002
   564   1      12.280394190000001      21.090218669999999      6.5041677399999998
   565   1      16.237026480000001      21.249872539999998               6.6732917
   566   1             20.18219959      21.045112039999999      6.6509881899999996
   567   1      24.261572470000001              20.9585495      6.6626899399999999
   568   1             28.38445085      21.069018289999999              6.82735235
   569   1      2.0977895000000002             24.58070523      6.7485334000000003
   570   1      6.1843599100000004      24.675401730000001      6.5637816899999999
   571   1      10.207813740000001      24.634916140000001      6.6794639399999998
   572   1             14.00896539      24.713773270000001      7.0229696600000002
   573   1             18.24431487      24.632536930000001      6.6047697899999998
   574   1      22.365311169999998             24.60428258      6.5263228700000004
   575   1             26.29674661      24.576334719999998      6.7202273100000003
   576   1      30.475590660000002      24.516082470000001      6.6421930299999996
   577   1              1.92880494     0.94275799000000005      7.7016895999999999
   578   1      6.0082069499999999      1.4162349599999999      7.4812671699999997
   579   1              10.0982822              1.29483313      7.7024959199999996
   580   1             14.20292618     0.89849833000000001      7.5167030199999996
   581   1             18.60476001      1.2472624699999999      7.3436101499999999
   582   1      22.412920639999999      1.1091641699999999      7.3358380099999998
   583   1      26.537197509999999      1.0609732599999999      7.4248298300000002
   584   1      30.398135700000001      1.1267557100000001      7.1610698199999998
   585   1    0.039739299999999998      4.4823642100000001      7.4080862600000001
   586   1      4.1252732200000004      4.6910304299999996      7.4468702100000002
   587   1      7.9549845499999998              4.60498472      7.3799816800000002
   588   1      22.447704160000001              1.24953012      9.9535185399999992
   589   1      16.401086540000001      4.7330804300000002      7.5601851699999996
   590   1             20.44612287      4.7798804500000003      7.2577144100000002
   591   1      24.533588210000001      4.8668616299999998      7.4106984699999998
   592   1      28.498827599999998      4.5477575200000002      7.1579571499999997
   593   1      2.1682819900000001      8.0938214100000003      7.4005091299999997
   594   1      6.2264349899999996      8.1518166399999998      7.3205095599999996
   595   1             10.37226347      8.1940439299999994      7.3722450000000004
   596   1      14.382211059999999      8.1599351000000002      7.6586566600000001
   597   1      18.531062349999999      8.3175737400000003      7.4478452700000002
   598   1             22.47021324      8.1830868700000003      7.2793950900000004
   599   1      26.569371060000002      8.1484305999999993      7.2955666199999998
   600   1             30.29427359      8.4339364999999997      7.6191975000000003
   601   1             32.27964068      11.668943580000001      7.5434016599999998
   602   1      4.0790479900000003             11.66204651      7.4436152099999999
   603   1      7.8760879600000004             11.75702764      7.3318051799999999
   604   1      12.182789270000001             11.83263914      7.7012606300000002
   605   1      24.467378889999999      6.7785039200000003      9.0251299199999995
   606   1      20.486096839999998      11.666081950000001      7.2999567699999997
   607   1      24.613382730000001             11.69690482      7.4406450700000004
   608   1             26.45892521      7.9969682400000002      9.6765948999999996
   609   1      1.9586563100000001             15.16743917      7.5911258999999998
   610   1      6.0386106799999997             15.01319558      7.5804244599999997
   611   1      9.7724589099999992      17.478978810000001      8.9962558500000007
   612   1      14.140640599999999             15.40841416      7.4280359100000002
   613   1      18.035060210000001      15.093044839999999      7.7857807499999998
   614   1      22.414236290000002      15.303094079999999      7.2216394299999997
   615   1              26.4808211             15.31374078      7.3845748999999996
   616   1      30.678403060000001             15.37934205      7.5644630599999996
   617   1      32.106400860000001      18.812301340000001      7.3207575399999998
   618   1              4.04097858      18.871592110000002      7.5538012600000002
   619   1      7.9052857999999997      18.802990560000001      7.3326006499999998
   620   1             12.00349757      18.705528810000001      7.3779325599999996
   621   1      16.198954690000001      18.752901049999998              7.20894893
   622   1             20.13349496      18.678298850000001      7.6723291600000003
   623   1             24.39553158      18.745001179999999      7.6605945699999998
   624   1              28.4295565             18.54241395              7.47093235
   625   1              2.15938191      22.276292179999999      7.5223615099999996
   626   1      6.3047868600000001             22.35715755      7.6730049100000004
   627   1             11.93425865      13.845845819999999              9.11853318
   628   1             14.05637372      22.145814439999999      7.5459921000000003
   629   1      18.296192959999999      22.420485039999999      7.6390507100000002
   630   1      22.280869989999999             22.39206781      7.3070435800000002
   631   1      26.229762170000001             22.24485606      7.6440950699999997
   632   1      30.622092510000002      22.373743879999999      7.4410625599999998
   633   1             -0.15014933             25.79102022      7.3340612199999997
   634   1      4.1695761200000003      25.731219540000001      7.6149101000000003
   635   1      8.2694584899999999             25.90699158      7.4141414599999997
   636   1      12.031408860000001             25.61947529      7.8714704600000003
   637   1      16.255318540000001             25.83422848      7.3534214499999999
   638   1             20.33605433             25.83084925      7.6903808299999996
   639   1             24.33472896             25.68109527      7.3393849500000004
   640   1      28.335770669999999             25.70019271      7.5033871000000003
   641   1      4.1397468499999999      7.1281248000000001      8.9948713999999992
   642   1      30.173766629999999      1.2323548499999999      9.8159585600000003
   643   1      8.2034322999999993      7.1823509300000001      9.0785207000000003
   644   1      11.999464100000001             20.82259736      9.2451411300000004
   645   1             10.28533953      22.221367269999998      7.3931471499999999
   646   1      28.392834799999999    0.066963449999999994      8.9054169699999992
   647   1      22.506970209999999      3.5930033400000001      9.0903420300000004
   648   1             10.29718456              3.46166141      9.0938084000000003
   649   1      3.8184125299999998      16.546146839999999      8.2684557099999996
   650   1      4.1705215300000003      23.278376590000001      8.4347512400000006
   651   1      18.242244100000001      24.901232610000001      8.9184357100000007
   652   1      20.568049080000002      9.5027003200000006      8.1300382899999999
   653   1      18.397638109999999             12.72318149      8.2865881100000003
   654   1      6.3023823200000004      19.801732350000002      8.4442111000000004
   655   1      28.291330330000001             25.85544981      9.8921742300000002
   656   1      9.9309339699999999             24.71098654      9.1341900500000008
   657   1      9.9294969399999999             12.91474255      8.0955674500000008
   658   1      14.043729689999999      17.548172210000001      8.9286449399999999
   659   1      28.211735770000001      9.5739767600000008      8.4228907199999998
   660   1      16.127657880000001      2.2532851800000002      8.2706822500000001
   661   1      24.508349129999999    0.037178139999999998      9.0052598600000007
   662   1             28.42107172      2.3911883299999999      8.3955675799999998
   663   1             18.23610661             27.34645119      8.2562080600000005
   664   1      1.8592389899999999      12.666366289999999      8.4090083900000003
   665   1             12.27560441      9.4916873299999995      8.4770012000000001
   666   1      12.012796489999999      16.289970719999999      8.2929751599999992
   667   1      8.3363541600000008      21.508029220000001      9.0482357100000002
   668   1      16.006950249999999      11.731262689999999      7.5358901700000001
   669   1      6.1793518399999998      10.652157689999999      9.2536159199999997
   670   1      30.405046160000001      5.7461814000000002      7.9597384399999997
   671   1     0.20827130999999999      9.3151576800000004      8.1661044900000004
   672   1              0.10981876      21.157975919999998      8.7563548499999992
   673   1     0.37070004000000001      23.675680740000001      8.4069408699999997
   674   1      4.3504407499999997             21.00605067      9.0683080799999995
   675   1             20.00596264             16.32124001      8.1389881200000005
   676   1      12.324706340000001      2.4146796699999999      8.3914203399999998
   677   1      20.217850290000001      4.7251255700000003      9.6434048699999995
   678   1      16.309361249999998      16.523555829999999      8.2966380199999996
   679   1      28.752703459999999      4.7485840599999998      9.5510188100000004
   680   1             28.53956745             11.66013747      7.2911655499999997
   681   1      32.472269220000001      2.1838144000000002      8.2885176099999995
   682   1      9.7873787700000001             15.25734525      7.5783145799999998
   683   1      4.2285718699999997   -0.013639699999999999      8.8154719400000001
   684   1      8.4401796999999998      11.782831740000001      9.8069365299999998
   685   1             18.03169291             19.79670295      8.1494309299999994
   686   1             13.92991164             13.10852657      8.3222633600000009
   687   1      16.417034489999999      7.1726890699999997      8.8598873499999993
   688   1      16.334464239999999      13.995082549999999      9.0552482199999993
   689   1      24.580627759999999      21.033569150000002      9.0637479800000005
   690   1      32.313057749999999             13.90892766      9.0171156299999993
   691   1             32.36400399      6.7956557200000001      8.9792576400000002
   692   1             18.43922727              3.66477568      8.8566178400000002
   693   1      14.428828129999999      10.335371869999999      8.9077638100000005
   694   1             22.42451505              7.98606398      9.6238941100000002
   695   1             22.31093173             27.04773746      8.0927495900000004
   696   1               0.1396376      16.388994910000001      8.4632737099999993
   697   1      8.1872089199999998      4.9060245299999998      9.7638812399999999
   698   1             13.88863154      26.611572750000001      8.4022567699999993
   699   1      20.621033820000001      2.5003110500000001      8.1914609899999995
   700   1      10.173238019999999      26.993153280000001      8.2938108699999997
   701   1             20.53880637               28.088151      9.1029573999999993
   702   1      24.401506600000001             23.38870674      8.2661837499999997
   703   1      22.200202310000002      24.636566290000001      8.9395833600000003
   704   1      26.455212079999999             17.69817492      8.8745783199999995
   705   1      1.7914302200000001      3.6055535999999999      9.1230098599999998
   706   1      4.1109497700000004      4.6472876000000003      9.8428762600000006
   707   1      14.224518890000001      19.970387500000001      8.1236025000000005
   708   1      19.953718800000001      21.145954209999999      9.1435277999999993
   709   1             24.95414272             25.69979751      9.9086587099999992
   710   1      20.415529589999998      23.422838129999999      8.4340324599999992
   711   1              2.04721033      5.7809145400000004      8.2783002900000007
   712   1      32.324387600000001      27.883971420000002      9.1504449799999996
   713   1      26.357519450000002      1.1583067600000001      9.7309874399999998
   714   1      2.0071867999999999      19.727564300000001      8.2912536899999996
   715   1      2.1297465799999999      26.767513869999998              8.23049052
   716   1             11.86168707     0.34892795999999998      9.2070580799999995
   717   1      26.653701550000001             24.38073533      9.1260838900000003
   718   1      28.610945099999999      7.4254986599999997      9.2897767499999997
   719   1             30.68454736             10.39756764      8.9801589400000008
   720   1             30.78366986      3.4853270599999999      9.0990622800000001
   721   1      4.0896640299999998      9.5915994900000001      8.6011271100000002
   722   1      6.0518246800000002              3.53181682      9.0724413500000001
   723   1      8.2107145300000006      9.3095168400000006      8.3214428999999992
   724   1      6.0813227100000002      8.2512445200000002      9.6987237000000004
   725   1             10.34063134              8.23427021      9.7764551500000003
   726   1      20.317028539999999              6.95906628      9.1285355799999994
   727   1      16.092055420000001      23.708520180000001      8.2774818000000003
   728   1              22.4901999             12.92881768      7.9862652799999996
   729   1      7.8671849099999998             14.17792788      9.0754267599999991
   730   1      12.184831900000001      4.6877323500000001      7.4428496300000004
   731   1             12.58158441              7.02523433      9.1718539799999999
   732   1             16.39677348      9.4877277299999996      8.3828428499999994
   733   1      22.192183409999998      20.177791429999999      8.3712415199999999
   734   1      30.528053029999999      24.664207789999999      8.9473933799999994
   735   1      24.595376040000001      2.2686966000000002      8.2676281199999995
   736   1      7.7527878899999996             16.58015653      8.2837036600000005
   737   1      30.214540240000002      20.191643930000001      8.3912023399999995
   738   1             24.48246644      8.9395492999999995      8.0367399400000004
   739   1             10.34550447             10.62186663      9.1468700199999997
   740   1      26.741492189999999      5.9944981200000003      8.2341045499999996
   741   1      24.197076750000001             16.39799983      8.1330715900000001
   742   1             26.18578003      3.9532561400000001      9.2019310999999995
   743   1             22.25554193      5.8674863500000001      8.1533988500000003
   744   1      30.165163039999999             12.92600678      8.2554386599999994
   745   1      24.580366659999999               13.906203      8.7645269399999997
   746   1              5.96363837             12.81830982      8.4622280700000001
   747   1             10.02313601      19.810686960000002      8.2209720599999994
   748   1      6.2624018100000001      24.724472169999999      9.0324536799999997
   749   1      22.903048460000001             10.43757184      8.9719221600000001
   750   1      28.567127930000002             15.99703882      8.2215650399999998
   751   1      26.547609009999999             19.90517822      8.3326637300000002
   752   1              3.76869648             13.64710771      9.1414273799999997
   753   1      8.2461196500000007      23.629530519999999      8.0854728700000003
   754   1      8.1465627600000001      2.5212260099999999      8.5227186899999996
   755   1      6.1076295399999996      5.9400142499999999      8.5268072999999998
   756   1      6.2845949499999998             27.15652596      8.0660910799999996
   757   1      3.8300745100000002              2.47907038      8.3940274499999994
   758   1      26.500079060000001      27.024780710000002      8.4681656200000006
   759   1      26.519309490000001      12.737244090000001      8.3353229500000001
   760   1      28.462964240000002      23.105190759999999      8.1841527500000009
   761   1      12.074268119999999      23.301262359999999      8.3707346699999992
   762   1             25.96495058             10.51671436      9.2153569999999991
   763   1      10.227400530000001      5.8291189799999996      8.4081687299999999
   764   1             14.20677699      5.6308760299999996              8.51080316
   765   1      18.354545980000001      5.8427793399999999      8.0536895600000005
   766   1      22.384108049999998      22.275342299999998      9.8749145899999995
   767   1      30.145409390000001      17.658943239999999      8.8739929699999998
   768   1      30.270964150000001      26.897923349999999              8.17685219
   769   2      18.740504340000001     0.70945957000000004      9.0913534299999998
   770   2      17.659196349999998      2.0822928599999999      9.1877897799999992
