N2-dn2-coord-10bar/300K/snapshots/frame-70199/run-000/../data.lammps (written by ASE) 

770 	 atoms 
2  atom types
0.0      32.470343392086264  xlo xhi
0.0      28.120142247150884  ylo yhi
0.0      31.213473999158239  zlo zhi


Atoms 

     1   1      2.0293964600000001      1.1716090800000001    0.023552650000000001
     2   1      6.0880008999999999              1.17168918              0.02556874
     3   1      10.146952280000001              1.17170328    0.025416459999999998
     4   1      14.205754900000001      1.1716496700000001              0.02501565
     5   1             18.26456816              1.17166478              0.02504435
     6   1             22.32338141      1.1716496700000001              0.02501565
     7   1      26.382184030000001              1.17170328    0.025416459999999998
     8   1      30.441135410000001              1.17168918              0.02556874
     9   1  9.1780000000000006e-05      4.6866847900000002    0.025581599999999999
    10   1      4.0587011400000002      4.6866847900000002    0.025581599999999999
    11   1      8.1174961000000003      4.6866290399999997    0.025584639999999999
    12   1             12.17638011      4.6866852999999997              0.02491202
    13   1             16.23517979      4.6866942700000003    0.025006210000000001
    14   1      20.293956519999998      4.6866942700000003    0.025006210000000001
    15   1      24.352756209999999      4.6866852999999997              0.02491202
    16   1      28.411640219999999      4.6866290399999997    0.025584639999999999
    17   1      2.0293964600000001      8.2016395800000002    0.026613040000000001
    18   1      6.0881071599999999      8.2016314300000008              0.02543782
    19   1             10.14701835               8.2017045    0.025156850000000001
    20   1      14.205766049999999      8.2017080900000003    0.024990459999999999
    21   1             18.26456816      8.2017077599999997    0.025091249999999999
    22   1      22.323370260000001      8.2017080900000003    0.024990459999999999
    23   1      26.382117969999999               8.2017045    0.025156850000000001
    24   1      30.441029149999999      8.2016314300000008              0.02543782
    25   1  9.2789999999999998e-05             11.71671873    0.025573410000000001
    26   1              4.05870014             11.71671873    0.025573410000000001
    27   1      8.1176017700000003             11.71668698              0.02497914
    28   1             12.17637068             11.71673069    0.025001590000000001
    29   1      16.235177310000001      11.716730249999999    0.025074039999999999
    30   1      20.293959009999998      11.716730249999999    0.025074039999999999
    31   1      24.352765640000001             11.71673069    0.025001590000000001
    32   1      28.411534549999999             11.71668698              0.02497914
    33   1      2.0293964600000001             15.23167155              0.02525285
    34   1      6.0881728300000004      15.231678799999999    0.025062859999999999
    35   1             10.14698486      15.231762639999999               0.0250786
    36   1             14.20578841             15.23176782    0.025201990000000001
    37   1             18.26456816              15.2317707    0.025149979999999999
    38   1      22.323347900000002             15.23176782    0.025201990000000001
    39   1      26.382151459999999      15.231762639999999               0.0250786
    40   1      30.440963480000001      15.231678799999999    0.025062859999999999
    41   1      32.470327990000001      18.746748629999999    0.024951939999999999
    42   1      4.0588083299999997      18.746748629999999    0.024951939999999999
    43   1      8.1175770200000006      18.746803499999999    0.025222040000000001
    44   1             12.17637459      18.746799750000001    0.025428470000000002
    45   1      16.235159400000001      18.746805200000001    0.025487360000000001
    46   1      20.293976919999999      18.746805200000001    0.025487360000000001
    47   1      24.352761730000001      18.746799750000001    0.025428470000000002
    48   1             28.41155929      18.746803499999999    0.025222040000000001
    49   1      2.0293964600000001      22.261939099999999    0.025844880000000001
    50   1      6.0881419299999999      22.261841799999999    0.025489439999999999
    51   1             10.14692954             22.26176895              0.02551757
    52   1             14.20573559      22.261804690000002    0.025639160000000001
    53   1             18.26456816             22.26178625    0.025640119999999999
    54   1      22.323400729999999      22.261804690000002    0.025639160000000001
    55   1      26.382206780000001             22.26176895              0.02551757
    56   1             30.44099439      22.261841799999999    0.025489439999999999
    57   1  5.6450000000000003e-05      25.776936450000001              0.02613327
    58   1      4.0587364700000004      25.776936450000001              0.02613327
    59   1      8.1175325399999991              25.7767713    0.024734180000000001
    60   1      12.176376469999999      25.776831090000002              0.02545323
    61   1      16.235145939999999      25.776775220000001    0.025273360000000002
    62   1             20.29399038      25.776775220000001    0.025273360000000002
    63   1      24.352759840000001      25.776831090000002              0.02545323
    64   1      28.411603769999999              25.7767713    0.024734180000000001
    65   1  0.00024266000000000001              2.34304215     0.80166565000000001
    66   1      4.0585502699999996              2.34304215     0.80166565000000001
    67   1      8.1157394600000003              2.34454954     0.80169402000000001
    68   1             12.17601256      2.3433829099999999     0.80116898000000003
    69   1      16.235258170000002      2.3433209100000001     0.80090046999999998
    70   1      20.293878150000001      2.3433209100000001     0.80090046999999998
    71   1      24.353123750000002      2.3433829099999999     0.80116898000000003
    72   1      28.413396859999999              2.34454954     0.80169402000000001
    73   1      2.0293964600000001      5.8582218700000004     0.80119762000000005
    74   1      6.0870566899999998      5.8583336700000004              0.80194851
    75   1             10.14649655              5.85853131     0.80121584000000001
    76   1             14.20597894      5.8582938599999999     0.80086840999999998
    77   1             18.26456816      5.8583798500000004               0.8010794
    78   1      22.323157380000001      5.8582938599999999     0.80086840999999998
    79   1             26.38263976              5.85853131     0.80121584000000001
    80   1      30.442079629999999      5.8583336700000004              0.80194851
    81   1  0.00019438999999999999      9.3717771800000005     0.80082061000000004
    82   1      4.0585985400000002      9.3717771800000005     0.80082061000000004
    83   1      8.1175070500000004      9.3725002699999997     0.80149060999999999
    84   1      12.176590020000001      9.3733583399999993     0.80088261999999999
    85   1             16.23512199      9.3733789200000004              0.80106506
    86   1             20.29401433      9.3733789200000004              0.80106506
    87   1      24.352546289999999      9.3733583399999993     0.80088261999999999
    88   1      28.411629269999999      9.3725002699999997     0.80149060999999999
    89   1      2.0293964600000001             12.88692854     0.80220621000000003
    90   1      6.0883212999999996             12.88743848     0.80138414999999996
    91   1      10.147128609999999             12.88859852     0.80085256000000005
    92   1             14.20571782      12.888558189999999     0.80113791000000001
    93   1             18.26456816      12.888409899999999     0.80109381000000002
    94   1      22.323418490000002      12.888558189999999     0.80113791000000001
    95   1             26.38200771             12.88859852     0.80085256000000005
    96   1      30.440815019999999             12.88743848     0.80138414999999996
    97   1              0.00012365      16.403222639999999     0.80145666999999998
    98   1      4.0586692700000002      16.403222639999999     0.80145666999999998
    99   1      8.1174337899999998      16.403825260000001     0.80097196999999998
   100   1              12.1761021             16.40390721     0.80133072000000005
   101   1             16.23503496      16.403861750000001     0.80140014999999998
   102   1      20.294101359999999      16.403861750000001     0.80140014999999998
   103   1      24.353034220000001             16.40390721     0.80133072000000005
   104   1      28.411702529999999      16.403825260000001     0.80097196999999998
   105   1      2.0293964600000001      19.919205120000001     0.80066369999999998
   106   1              6.08752564             19.91894023     0.80122479000000002
   107   1      10.146078839999999             19.91919038     0.80159137999999996
   108   1      14.204993419999999              19.9192584     0.80178742000000003
   109   1             18.26456816      19.919377350000001     0.80194975999999996
   110   1      22.324142899999998              19.9192584     0.80178742000000003
   111   1      26.383057470000001             19.91919038     0.80159137999999996
   112   1      30.441610669999999             19.91894023     0.80122479000000002
   113   1              0.00142012      23.434536609999999     0.80178442000000005
   114   1      4.0573728100000004      23.434536609999999     0.80178442000000005
   115   1      8.1165862000000004      23.433936769999999     0.80182306000000003
   116   1             12.17555218      23.433996919999998     0.80156656000000004
   117   1             16.23465491      23.434040110000002     0.80170828999999999
   118   1      20.294481409999999      23.434040110000002     0.80170828999999999
   119   1      24.353584130000002      23.433996919999998     0.80156656000000004
   120   1      28.412550110000002      23.433936769999999     0.80182306000000003
   121   1      2.0293964600000001      26.949875330000001              0.80297246
   122   1      6.0858208300000003      26.950066320000001              0.80215291
   123   1             10.14598146      26.949241430000001     0.80165810000000004
   124   1             14.20520604      26.948673230000001     0.80131923999999999
   125   1             18.26456816             26.94858318     0.80108193999999999
   126   1      22.323930279999999      26.948673230000001     0.80131923999999999
   127   1      26.383154860000001      26.949241430000001     0.80165810000000004
   128   1             30.44331549      26.950066320000001              0.80215291
   129   1      32.368757129999999             28.12877671      1.5688843699999999
   130   1      4.0234738700000001      28.079574040000001              1.48780534
   131   1      8.1643121799999996      28.087798370000002              1.61504731
   132   1             12.23114721              0.06230405              1.46272366
   133   1      16.213830170000001             28.10528089              1.36085962
   134   1      20.284962190000002      28.288079960000001      1.4467050400000001
   135   1      24.293190320000001             28.11918597      1.3639211600000001
   136   1              28.3321045    0.017373389999999999      1.4954213700000001
   137   1      2.0515868300000002      3.5637490399999998      1.4278368699999999
   138   1              6.03475055      3.5212036599999998      1.5190819600000001
   139   1             10.13683548      3.5356408899999998              1.39456632
   140   1             14.13828131      3.5683471099999999              1.47162043
   141   1      18.232125570000001      3.4935179299999999      1.5190155400000001
   142   1             22.40267364      3.3443022999999998      1.3247154699999999
   143   1             26.31128842      3.5512956899999999              1.44601391
   144   1      30.333190340000002              3.46766109              1.39789827
   145   1    0.034785549999999998      6.9977827499999998              1.44165952
   146   1      3.9983807699999998      7.0844790900000003      1.4851478499999999
   147   1      8.0280866199999998              6.94678868      1.5203100199999999
   148   1              12.0588842      7.0593921499999999      1.4963989499999999
   149   1             16.22295115              7.02061913      1.5616520899999999
   150   1      20.480804989999999      7.0820128599999999              1.41300947
   151   1      24.468591549999999      7.1925820500000004              1.45196445
   152   1             28.42864462      6.9975400499999996      1.5529261400000001
   153   1      2.0298333099999999             10.65390058              1.57998387
   154   1      6.0677097299999998      10.718432419999999      1.5145550000000001
   155   1      10.158926320000001             10.53828128      1.4189013100000001
   156   1             14.19476654              10.6703622      1.4644386199999999
   157   1      18.292839600000001             10.54831134              1.45461996
   158   1      22.340430770000001      10.582612409999999              1.59169446
   159   1      26.472188599999999      10.580076569999999              1.45292387
   160   1             30.47586338      10.580561189999999              1.32073266
   161   1              32.5268345      14.114429619999999              1.52692114
   162   1      4.0810485300000003             13.99659501              1.46078883
   163   1      8.0760590499999996             14.09757875              1.50544034
   164   1             12.18831969      14.087713519999999              1.50257632
   165   1      16.222905820000001             13.94223826              1.35270621
   166   1      20.203363119999999      14.087587490000001      1.4591027599999999
   167   1             24.27712807      13.952328380000001      1.5899985700000001
   168   1      28.356656770000001              14.0953461      1.4701794399999999
   169   1      1.9189277199999999      17.642844920000002      1.5401523399999999
   170   1      5.9605248800000004              17.5246496              1.49831633
   171   1      10.278549269999999             17.54222334              1.82126506
   172   1      14.130388679999999      17.602581900000001      1.4712727999999999
   173   1      18.305087870000001      17.579203769999999              1.54499191
   174   1      22.295170500000001             17.61751327              1.48609364
   175   1      26.385038269999999      17.683845479999999      1.4391746599999999
   176   1             30.42034632      17.544034669999998      1.2069752600000001
   177   1    0.078149369999999996      21.185446519999999      1.5820731400000001
   178   1      4.0756024200000001      21.048559789999999      1.4170618699999999
   179   1      8.0237466000000008             21.04621684      1.5408887499999999
   180   1      12.132671800000001      21.119575940000001              1.48606013
   181   1             16.26081997      21.043712939999999      1.5566080200000001
   182   1      20.332007870000002      21.000051169999999               1.2697303
   183   1      24.346869430000002             21.10648857      1.5730643600000001
   184   1      28.473020439999999      21.044981480000001      1.3330299000000001
   185   1      2.1238080099999999      24.511293469999998      1.3831213099999999
   186   1      6.0962348899999999      24.623788090000001      1.6181517400000001
   187   1      10.116318720000001      24.618763940000001              1.51530214
   188   1      14.250274259999999             24.58007619      1.3639766900000001
   189   1      18.230969529999999      24.620722910000001              1.42045837
   190   1      22.178603110000001      24.574511789999999              1.33392709
   191   1      26.333644169999999             24.55426258      1.4985121100000001
   192   1      30.456751359999998      24.597839539999999              1.40660651
   193   1               1.9990113              1.22662834      2.4235260300000001
   194   1      6.1681029299999999      1.0559153999999999      2.5101911100000001
   195   1      10.129089840000001      1.0572251699999999      2.3823105600000001
   196   1      14.214206580000001              1.19384749      2.4815634900000001
   197   1      18.334616159999999      1.1490991399999999      2.3849663900000002
   198   1             22.28554385      1.1719198500000001      2.4071645099999999
   199   1      26.377853300000002      1.2382793599999999      2.4719193599999998
   200   1             30.37982461      1.1799413700000001      2.4542590799999999
   201   1      32.541459670000002      4.6770211699999997      2.4521270400000001
   202   1      4.0738665799999998      4.6836161000000001      2.4856706499999999
   203   1      8.1088323199999994      4.6880759799999998      2.3738980700000001
   204   1             12.21907824      4.6286248399999996      2.4447178699999998
   205   1      16.177017469999999              4.59133104      2.5208281000000001
   206   1      20.361245140000001      4.5597901600000004               2.3401869
   207   1               24.286223      4.7202681399999999      2.3187308099999999
   208   1             28.34536396              4.72500126      2.3487787899999999
   209   1      2.0910315399999999      8.2708589299999993      2.3789758600000002
   210   1              6.02914393      8.1992518200000006      2.3384036400000001
   211   1      10.006252229999999      8.0992788299999994      2.3116803500000001
   212   1             14.25718857      8.3498028200000007      2.3893227399999999
   213   1      18.337116179999999      8.2085195800000008      2.3502846000000002
   214   1             22.29623389      8.2995241199999992      2.4971685400000001
   215   1             26.47184691      8.2640830899999997              2.36658349
   216   1      30.522563519999999      8.2129493300000007      2.4678505300000002
   217   1  6.8689999999999995e-05             11.75072093              2.40524607
   218   1      4.0835942899999997             11.70614556      2.4240283900000001
   219   1      8.1908155499999999      11.869733760000001      2.3614930300000001
   220   1      12.192948120000001      11.744467909999999              2.42036228
   221   1      16.240006619999999             11.63687386      2.3842049900000002
   222   1      20.348878240000001      11.751565279999999              2.37561665
   223   1      24.366600099999999      11.643913400000001      2.4779606200000002
   224   1      28.464568060000001             11.77928792      2.4779999500000001
   225   1      2.0978919999999999             15.34667514      2.3640866800000002
   226   1      6.1102612399999998      15.136153309999999              2.49131087
   227   1      10.027152490000001             15.29522044      2.3579349700000001
   228   1             14.23066742      15.283034900000001      2.2723427699999998
   229   1      18.261458560000001      15.140771190000001              2.48210898
   230   1             22.39318244      15.294692400000001      2.3805019500000002
   231   1      26.298197170000002             15.24005163      2.4775264899999998
   232   1      30.489219840000001             15.30144292      2.3518423799999999
   233   1      32.406341279999999             18.72116235      2.3630123799999998
   234   1      3.9820407599999998      18.843105869999999      2.3497270299999999
   235   1      8.0504071199999991      18.699606670000001              2.43601549
   236   1      12.187920159999999             18.81496821              2.55487574
   237   1      16.279716279999999             18.78138959      2.3851909500000001
   238   1      20.115982410000001      18.748336049999999      2.4758192499999998
   239   1      24.291011050000002             18.69016972      2.4897553499999998
   240   1      28.350956180000001      18.779123909999999      2.3691094700000002
   241   1              2.13862145      22.271468339999998      2.3616525099999999
   242   1      6.0484633700000003      22.242605350000002      2.4607183500000001
   243   1      10.150122919999999             22.27077083      2.4250761199999999
   244   1      14.252573269999999      22.169584789999998      2.4678226200000002
   245   1      18.314039619999999      22.359553089999999      2.3835817399999999
   246   1             22.34524274      22.278081660000002              2.35116185
   247   1      26.395868029999999      22.205686450000002      2.4823258400000001
   248   1      30.415225849999999      22.226412710000002      2.4320895899999999
   249   1              0.00307822             25.83468968              2.40139704
   250   1      4.1212762100000004      25.740129549999999      2.4056856099999999
   251   1      8.1362903200000005      25.794383379999999      2.4412506199999999
   252   1             12.16790861      25.748768309999999      2.3605674300000001
   253   1      16.207883330000001             25.82971113      2.3838225500000001
   254   1             20.35969901      25.665650490000001      2.4238462300000001
   255   1              24.3517917      25.713850780000001      2.4313980000000002
   256   1      28.337470490000001      25.636119099999998      2.3143250499999999
   257   1      32.350716609999999      2.3257548300000002      3.3480568599999998
   258   1      4.1270285800000002      2.4178586599999998              3.27874782
   259   1      8.1906756200000004              2.32336367              3.39643161
   260   1      12.122750440000001      2.3501545699999999      3.2289340499999999
   261   1      16.201147519999999      2.3460320700000001              3.23087897
   262   1              20.4016397      2.2645538699999999      3.2117283200000002
   263   1             24.32921996      2.3646271699999999      3.2164035800000002
   264   1             28.34126638      2.4449846499999999      3.1971264100000001
   265   1      2.1502667600000001              5.83526889              3.22862779
   266   1      6.1994626300000002      5.8937936999999998      3.2292949700000002
   267   1             10.19897894      5.8573396200000003      3.2945171000000002
   268   1              14.3123305      5.7634895799999999              3.30957218
   269   1      18.296034219999999      5.8519124900000001      3.1300329200000001
   270   1      22.275585100000001      5.8416075899999997              3.21898632
   271   1      26.328819079999999      5.9455436199999996      3.2471514500000001
   272   1      30.493705179999999      5.8337087800000003      3.3083710000000002
   273   1      32.570562700000004      9.4417592399999997      3.2990791599999998
   274   1      4.0728329800000003      9.4891097799999997      3.2450389400000001
   275   1      8.1229148299999991      9.4719932500000006              3.20697046
   276   1      12.167128999999999      9.3684671999999996      3.3129553600000001
   277   1             16.21110827      9.3800910000000002      3.2691029199999999
   278   1      20.311123670000001      9.3713436399999992      3.3507582600000001
   279   1      24.362760349999999      9.3865977300000001      3.3295792500000001
   280   1             28.52132894      9.4100743399999995      3.2399667700000001
   281   1      1.9232471200000001             12.87718383      3.3514937800000002
   282   1      6.1392349099999999      12.923774890000001      3.3268549799999998
   283   1      10.091010539999999             12.93134847      3.2561417499999998
   284   1      14.080969489999999      13.049770880000001      3.2315717899999998
   285   1             18.28885215             12.80544905      3.1311465300000001
   286   1      22.332528870000001             12.97540848      3.2063838200000001
   287   1      26.436862690000002      12.815425960000001      3.1956928800000002
   288   1      30.486671680000001      12.968952030000001      3.1500735199999998
   289   1    0.024563049999999999      16.532459289999998              3.14882858
   290   1      4.0452479800000001      16.541524450000001      3.3473029900000002
   291   1      8.0211720700000004             16.40927383      3.3777713299999998
   292   1             12.22295416      16.486257340000002              3.21831047
   293   1      16.268143999999999      16.442282989999999      3.1932313200000002
   294   1      20.325892629999998      16.367741370000001      3.2271456000000001
   295   1      24.332908979999999      16.447635909999999              3.27403406
   296   1      28.346460530000002             16.41169459              3.23051091
   297   1      1.8336718299999999             19.93300086      3.2413121399999998
   298   1      6.1006557199999998      19.949458719999999      3.2824306700000001
   299   1             10.08347597      20.009804160000002      3.2629877299999999
   300   1             14.24912494             19.82997142      3.2279874400000002
   301   1             18.16534858      19.945759089999999      3.1885716500000001
   302   1      22.286635199999999      19.821246649999999      3.2694303699999998
   303   1      26.364753969999999      19.984913639999998      3.3091429799999998
   304   1      30.386159159999998      19.891002799999999      3.1482913300000002
   305   1      32.446585380000002             23.37182069      3.2171427700000002
   306   1      4.1469578199999999             23.41414361              3.27375901
   307   1      8.1073614000000003      23.410671229999998              3.11215032
   308   1             12.23030056      23.263602970000001      3.3102307899999999
   309   1      16.281119820000001             23.57303611      3.2307318199999999
   310   1      20.306219850000002      23.441848879999998               3.2964696
   311   1      24.304054010000002      23.429077360000001      3.2886703800000001
   312   1      28.392247749999999      23.463227150000002      3.3236408000000002
   313   1      2.0259900399999999      27.007270349999999      3.3017383599999999
   314   1      6.0722540399999998             26.99918267      3.3028411100000001
   315   1      10.239961409999999      26.827679969999998              3.24438695
   316   1              14.1319383      27.004938710000001      3.2131178399999998
   317   1             18.36090939      26.895234720000001      3.1867784700000001
   318   1      22.320526539999999      26.929250580000001      3.3480614800000001
   319   1             26.24074749             26.91657841      3.1840900599999999
   320   1      30.388995730000001      26.967900180000001      3.1606699699999998
   321   1      32.350372620000002             28.08583728      4.0985356199999998
   322   1      4.0816117600000004   -0.045715819999999997      4.0682992799999997
   323   1      8.1868105900000003   -0.049714189999999998      4.1815564900000002
   324   1             12.13109184   -0.066150459999999994      4.0626280699999997
   325   1      16.231557129999999    -0.11968881000000001               4.0737052
   326   1      20.259370879999999      28.167801229999998      4.1862051999999998
   327   1             24.33688029    0.011420120000000001      4.0743005200000004
   328   1      28.273554059999999             28.23544643      4.0888685100000002
   329   1      2.1003300399999998      3.4491021700000002      3.9926087699999999
   330   1      6.2818781899999996              3.51601958      4.0453925000000002
   331   1      10.237430829999999      3.4894924500000002      4.0495274400000003
   332   1             14.17252147      3.4663785200000001      4.0396562300000003
   333   1      18.267007240000002      3.4075218399999998      4.1971244399999996
   334   1      22.445645500000001              3.39861777      4.0910971500000004
   335   1             26.31338693      3.6220930600000001      4.0942392600000002
   336   1      30.458417740000002      3.5859308699999999      4.2439217100000004
   337   1      32.514649480000003      7.1074657600000002      4.0749294100000002
   338   1              4.09980674      7.0738042500000002      3.9393805300000002
   339   1      8.1869665000000005      7.0381445600000001      3.9742229400000002
   340   1             12.34050907      6.9442664399999998      4.1284855900000004
   341   1             16.17430787      6.9844839399999996              4.15311816
   342   1      20.308292430000002      6.9830686599999998      4.0833956100000002
   343   1             24.26013751      6.9944205000000004      4.0271748799999996
   344   1      28.396510419999998      7.0696880000000002      4.0831169699999998
   345   1              2.01673502             10.62459924      4.1642821799999998
   346   1      6.1824936800000003      10.571447129999999      4.1236473199999999
   347   1      10.148808450000001              10.6255769      4.0765780100000004
   348   1             14.17452044             10.59180808              3.99323323
   349   1             18.26464305      10.505672799999999      4.0779297300000001
   350   1      22.342251319999999      10.647850249999999      4.1730956900000002
   351   1             26.49863156      10.550827079999999      4.1102540899999997
   352   1      30.551641759999999             10.55331275      4.0464886800000004
   353   1      32.427659200000001             14.21068936      4.1290462100000003
   354   1      4.0208261500000004      14.086312879999999      4.0098180899999996
   355   1      8.1586987499999992      14.106075560000001      4.1255746699999998
   356   1      12.127868060000001             14.11554999      4.0236626800000002
   357   1      16.286507749999998      13.936489590000001              3.98367651
   358   1      20.273846169999999             14.06842557      4.0511615299999999
   359   1      24.454617599999999              14.0106255      4.0664493300000002
   360   1             28.30339871      14.136043859999999      3.9399892400000001
   361   1      1.9598538599999999      17.638432479999999      4.0283048600000004
   362   1              6.02667207      17.700272850000001      4.1513218399999996
   363   1              10.1118969      17.589765710000002               4.0798451
   364   1      14.231282309999999      17.563695060000001      4.1007884199999998
   365   1      18.390224109999998             17.53291772      4.0703382799999996
   366   1             22.27560115      17.522394899999998      4.1186821599999996
   367   1      26.295059470000002      17.557390000000002      4.0397836600000003
   368   1             30.43574989             17.68438716              3.98091463
   369   1    -0.18949597000000001      21.204505950000001      4.0811472100000001
   370   1      4.0916095800000001      21.111269400000001      4.0088107300000004
   371   1      8.0720190499999998      21.087062830000001      4.0950388799999997
   372   1             12.08991466      21.028637440000001              4.20961008
   373   1      16.145263409999998      21.091965349999999      4.0584840199999999
   374   1             20.27106173      21.024484229999999      4.0683440400000004
   375   1      24.291494119999999      21.101316180000001      4.1069690000000003
   376   1      28.377752529999999      21.098025839999998      4.0032074399999997
   377   1              2.17850587      24.647454400000001              4.09633045
   378   1      6.2215239699999998      24.705609769999999      4.0581817200000003
   379   1             10.17687314             24.47766008      3.9601623799999999
   380   1             14.10570459      24.504112209999999      4.0207636899999999
   381   1      18.301109400000001      24.599190589999999      4.1570916599999999
   382   1      22.314444680000001             24.57930816      4.1155223799999998
   383   1      26.294040720000002      24.639814380000001      4.0417226700000004
   384   1      30.449773839999999      24.665954840000001      3.9674182299999998
   385   1      2.0866062400000001      1.0933746600000001      4.9183959599999998
   386   1      6.1419544100000003              1.19609017      4.9770383000000002
   387   1             10.15047375      1.1590577200000001      5.0676455699999998
   388   1             14.20744462              1.07645788      5.0850492899999997
   389   1      18.210802999999999      1.0403694400000001      5.0070449400000001
   390   1      22.420556860000001      1.0651394300000001      5.0189908000000001
   391   1      26.340841829999999               1.2335095      4.8914549899999997
   392   1      30.301429120000002      1.2497797100000001      4.8703810299999999
   393   1      32.561794849999998      4.6352727600000003      4.9164759599999996
   394   1      4.1956025700000001              4.69126289      4.9294211399999996
   395   1      8.2493887200000007      4.7230892899999999      4.8580442799999997
   396   1              12.1526256      4.5853362200000003      5.0812807400000004
   397   1      16.195931529999999      4.6256111600000001      4.9954591600000002
   398   1      20.302823620000002      4.6865929299999998      4.9396295400000003
   399   1      24.428415179999998      4.7350646000000003      4.9895336300000004
   400   1      28.272037659999999      4.7020033000000003      4.9873424499999999
   401   1      2.1423959899999998      8.1950621199999993      4.8550104599999999
   402   1      6.1360026100000002      8.3249701799999993      4.9769335799999999
   403   1             10.21720741      8.2051397700000006      4.8329328599999997
   404   1      14.253570760000001      8.2135068699999998      4.8473003500000003
   405   1      18.314546020000002      8.2680524900000005      4.8344036900000003
   406   1      22.270210710000001      8.1561934800000007      4.9719513400000004
   407   1             26.35464107      8.2454941999999996      4.8262408800000003
   408   1      30.549918630000001      8.1670370699999992      4.8181174499999999
   409   1      32.462392999999999      11.792847310000001      4.9707112599999999
   410   1      4.0661051700000002              11.8521372      4.9101978600000002
   411   1      8.1114812900000004      11.836626819999999      5.0403958299999996
   412   1             12.08820366             11.81721106              5.01756271
   413   1      16.241038840000002             11.69798241      4.9319959200000003
   414   1      20.382920039999998             11.84193016      4.8349339999999996
   415   1      24.378643109999999      11.762093889999999      4.8406859500000001
   416   1      28.399611669999999      11.812422700000001      4.9261071699999999
   417   1      2.0735121200000002      15.194205670000001      4.9650234700000002
   418   1      6.1300146900000003             15.21320324      4.9297009200000002
   419   1             10.15378585              15.2688509      4.9337785500000004
   420   1             14.32534158             15.23079312      4.8729356599999996
   421   1      18.205012910000001             15.08921945      4.9302023500000001
   422   1      22.396293610000001             15.23044599      4.8678830499999997
   423   1               26.422435             15.24672148      4.9115113800000003
   424   1      30.381697419999998             15.35613176      4.8342905099999998
   425   1      32.432644209999999      18.800080340000001      4.8953285400000004
   426   1      3.8780542100000002      18.734859289999999      4.9926184500000002
   427   1      8.0989111600000001      18.862138359999999      4.9912613500000003
   428   1             12.11198579             18.65135424      4.8542979800000001
   429   1             16.20190384      18.727569840000001      4.7846460799999999
   430   1      20.287753479999999      18.634064299999999      4.9979833899999999
   431   1      24.337836759999998             18.78955144      4.9273656099999998
   432   1             28.39077576      18.700737060000002      4.7861894400000002
   433   1      1.9907667099999999      22.274032479999999      4.8647768899999999
   434   1      6.0259688999999996      22.306024709999999      4.9640020700000003
   435   1             10.15328156             22.19774425      5.0526533200000001
   436   1             14.12967162      22.228088190000001      4.9288044900000001
   437   1      18.165692079999999              22.2712954      4.8577596999999999
   438   1      22.265724070000001             22.36019001      4.9087368700000003
   439   1      26.376457330000001             22.29563465      4.9303897599999997
   440   1      30.322505499999998             22.38902452      4.9962091199999996
   441   1      32.531971030000001      25.771754829999999              4.87744789
   442   1      4.1045832999999998             25.79056254              4.92765275
   443   1      8.2268606900000005             25.82536533      4.8864357099999998
   444   1      12.189928739999999      25.703293110000001      4.8988793299999998
   445   1      16.185990459999999      25.665637090000001      5.0020224999999998
   446   1      20.375607930000001             25.69838442      5.0298288600000003
   447   1      24.331290280000001      25.891635900000001      4.9111249700000004
   448   1      28.321637110000001      25.893564300000001      4.7677634600000003
   449   1      32.436763030000002      2.2687839900000002      5.7932702899999997
   450   1      4.1199916200000004      2.4804106300000002      5.8469666599999996
   451   1      8.2664285599999996              2.34709323      5.8163201400000002
   452   1      12.233791549999999      2.3124903699999999      5.8087301299999998
   453   1      16.307079380000001      2.3124038599999999      5.6915875199999997
   454   1      20.199846449999999      2.3039252800000001               5.7048942
   455   1      24.318529850000001      2.4049831699999999      5.7611876100000003
   456   1      28.305325400000001              2.39361947                5.745539
   457   1      2.0972361799999999      5.8714251700000002      5.6091749000000002
   458   1      6.1893342699999998      5.8481547899999997      5.6846420499999999
   459   1              10.2145218      5.8767379000000002      5.9022806499999998
   460   1      14.233176009999999      5.8631690000000001              5.75080408
   461   1      18.275445349999998      5.9194828900000003      5.6955029000000001
   462   1             22.33422242      5.8423532199999997      5.6974922299999999
   463   1      26.310430920000002      6.0074137900000002      5.6811510800000002
   464   1      30.441005789999998              5.86497549      5.7084906499999999
   465   1              0.11385584      9.3888762900000007      5.7024980300000001
   466   1      4.1232042199999999      9.4311765600000008      5.8598530899999997
   467   1      8.3116049800000003      9.3971406700000006      5.6666620600000002
   468   1             12.26794913      9.3518865899999994      5.6715046999999998
   469   1      16.170203180000001      9.3363244999999999      5.7403640100000004
   470   1             20.22754905      9.3771826100000002              5.69774768
   471   1      24.383735649999998               9.4463317      5.6984948400000004
   472   1             28.40154879      9.2613539399999993      5.7102900300000003
   473   1      1.8943023400000001             12.99246733      5.7509710099999998
   474   1      6.0585078699999997             12.89273919               5.7590154
   475   1              10.0330656               12.982296      5.6174493999999999
   476   1             14.31280716             12.83081378      5.7289481499999999
   477   1      18.275366040000002             12.77075582      5.7164928899999996
   478   1      22.294846849999999              12.9182472      5.6223762900000001
   479   1      26.461706759999998      12.835099319999999      5.7224648699999996
   480   1              30.3589476             13.02847656      5.6112363199999997
   481   1   -0.015678040000000001      16.464719290000001      5.6704146499999997
   482   1      3.9548011700000001             16.38327207      5.8715482799999998
   483   1      8.2129253599999998      16.455834549999999      5.7614058300000002
   484   1             12.19866682             16.30281476      5.7231351799999999
   485   1             16.31851906      16.404207230000001      5.7921088200000002
   486   1             20.32275855      16.280712650000002      5.7215972600000002
   487   1      24.360818470000002             16.26153794      5.7410795600000002
   488   1      28.428172620000002      16.360611129999999              5.66618406
   489   1      1.8230087699999999             19.99595772      5.6937901200000001
   490   1      6.0061372999999998      19.952395750000001      5.7948397299999996
   491   1             10.17011083      19.891691460000001      5.7489598500000003
   492   1      14.005465109999999             19.89070512      5.7530930400000004
   493   1      18.274632409999999      19.810917910000001      5.6017307399999998
   494   1      22.190567359999999      19.887845219999999      5.7721361599999996
   495   1      26.394539420000001      20.038720519999998      5.7022393100000004
   496   1      30.364136269999999      19.880203430000002      5.6909221600000004
   497   1   -0.062873029999999996             23.47003453      5.7329726299999999
   498   1      4.1039376599999997      23.378667929999999              5.70769123
   499   1      8.2166832500000009             23.51985062      5.6075866899999998
   500   1             12.14426572              23.3647101      5.8261528900000004
   501   1             16.25624286      23.329980689999999      5.7967690599999999
   502   1      20.313898170000002      23.396202420000002              5.71275932
   503   1             24.29955884      23.518416200000001      5.7961202600000004
   504   1      28.348126820000001             23.65874792      5.9277971200000001
   505   1      2.1364726900000002              26.8525788      5.7949599300000001
   506   1      6.1228719900000002             26.89505612      5.8175109200000001
   507   1             10.11177298      26.951227379999999      5.7891688300000004
   508   1             14.15802618      26.868780019999999               5.6858711
   509   1             18.21739153      26.930664419999999      5.7223618800000002
   510   1             22.33961768      26.871035559999999      5.8982166500000002
   511   1              26.3321331             27.02562614      5.7178189599999998
   512   1             30.37449591      27.129229330000001      5.7216543499999997
   513   1      32.399643750000003             28.10094767      6.5892345700000003
   514   1      4.1919908000000001      28.204992090000001      6.5777301000000001
   515   1      8.1547563200000006    0.059755540000000003      6.6287665599999999
   516   1             12.25273938             -0.01973418      6.6305135599999998
   517   1      16.265449960000002      28.070085200000001      6.5879385800000003
   518   1      20.325322539999998   -0.067126729999999996      6.6998896300000004
   519   1      24.428880400000001    0.099472939999999996      6.6871068500000002
   520   1      28.367793989999999      28.064230250000001      6.6246270300000001
   521   1              2.07645934      3.4901416900000002      6.5206935699999997
   522   1      6.1772282599999997      3.4824379900000002      6.5957576600000003
   523   1             10.19612538              3.56946377      6.6541627800000001
   524   1      14.270592540000001      3.5543656100000001      6.6208059600000002
   525   1      18.350384030000001      3.5185628599999998      6.5816873300000003
   526   1             22.34863215      3.5133210799999999      6.6382064500000002
   527   1      26.343221880000002      3.6035674100000001      6.6517336900000004
   528   1      30.372638089999999              3.54773176      6.6553490899999996
   529   1             32.52519015      6.9826327499999996      6.4804222200000003
   530   1      4.2389488799999997      6.9387466900000003      6.4297400400000004
   531   1      8.1728661900000006      7.1200230900000001      6.4836724099999996
   532   1             12.21859609      7.0363787599999998      6.6139433900000002
   533   1      16.203492059999999      7.0770825899999998               6.5332656
   534   1             20.34380221      6.9913277100000002      6.5574038000000003
   535   1      24.282429530000002              7.11699225      6.5518320399999999
   536   1      28.436389649999999      6.9601590099999999      6.5341148200000001
   537   1      1.9839149300000001      10.608913080000001      6.5872571400000002
   538   1      6.0641607300000002      10.507869660000001              6.50546647
   539   1             10.31156554      10.658127439999999      6.6375189299999997
   540   1             14.29625976             10.53699898      6.4811044799999999
   541   1      18.256153479999998      10.521402670000001      6.5151554699999998
   542   1             22.19285567             10.61619724      6.6221948800000003
   543   1      26.375773330000001      10.469729320000001      6.5956729100000002
   544   1      30.487569650000001              10.6943801              6.48089373
   545   1   -0.098070749999999998             14.06907043      6.5915103200000003
   546   1      3.9831337100000002      14.087965499999999      6.5444849899999999
   547   1      8.1497839400000007              14.0706115      6.5634872399999997
   548   1      12.192343169999999             13.94878063      6.4779053099999997
   549   1      16.260510579999998             14.12802123      6.5613471600000004
   550   1             20.31312179      13.945473209999999      6.4731473299999998
   551   1      24.354236480000001             14.03973105      6.5727911299999997
   552   1      28.367016639999999      14.190543959999999      6.4702105999999997
   553   1              1.92754165      17.645413059999999      6.5952535299999999
   554   1              6.14667546      17.667159699999999      6.6481951199999996
   555   1             10.14139475             17.44749728      6.6268190999999996
   556   1             14.17697589      17.493529710000001      6.5519826300000004
   557   1             18.36888909              17.5081165      6.5848327400000004
   558   1      22.289778550000001      17.468223330000001              6.55301942
   559   1      26.476962969999999             17.50083893      6.4878963000000001
   560   1      30.363933400000001      17.524464330000001      6.4330860799999998
   561   1             -0.01148503      21.109577089999998      6.5566337099999998
   562   1      3.8706400400000001             21.00795166      6.4384293799999996
   563   1      8.0003166700000001      21.153733249999998      6.4758990399999998
   564   1      12.038106709999999      21.010133830000001      6.6824017700000002
   565   1      16.239211350000001      20.961687749999999      6.4424354900000003
   566   1      20.157481369999999      21.031040170000001      6.4272558599999998
   567   1             24.23459545             21.05832972              6.61077548
   568   1              28.3576297      21.090606359999999      6.5626173400000001
   569   1      2.0605076599999999      24.528115249999999      6.6024462699999997
   570   1      6.1936197699999997      24.585858739999999      6.4976404700000003
   571   1      10.068387530000001      24.596938550000001      6.5809823600000001
   572   1             14.29003926             24.38248604      6.6230663700000001
   573   1      18.241060789999999      24.612907379999999      6.6107678600000002
   574   1             22.31956023             24.54124784      6.6086167900000001
   575   1             26.31927889      24.695663769999999      6.5672025999999999
   576   1             30.48944096             24.64182005      6.5331271700000002
   577   1      2.1417141499999999              1.13257023      7.4662998099999998
   578   1              6.15433143              1.26848406      7.4754487799999998
   579   1      10.154427070000001              1.21972674      7.6918319999999998
   580   1             14.27267629      1.0379042300000001      7.5017129499999999
   581   1      18.235649939999998      1.1565897000000001      7.7369787099999998
   582   1      22.296376949999999      1.2121708099999999      7.4628660399999998
   583   1      26.312614669999999              1.30847121      7.4345961999999997
   584   1             30.43143272      1.1927232999999999      7.5874490300000001
   585   1      32.371907030000003      4.5946002400000001      7.4709972999999996
   586   1      4.1632940200000004      4.7204667300000001      7.4307189600000001
   587   1      8.2531188100000001      4.7867486399999999      7.4828933199999996
   588   1             12.24354265      4.6707769499999996              7.67884615
   589   1      16.309496230000001      4.6764242400000002      7.4808922600000001
   590   1      20.372389160000001              4.75589219      7.3766613699999999
   591   1      24.313286569999999      4.8452010699999999      7.4198559499999996
   592   1      28.310196909999998      4.7349743200000001              7.59617129
   593   1              2.23255457      8.1034091499999992      7.4271817499999999
   594   1      6.0810450200000004      8.2258465600000008      7.5395805899999999
   595   1             10.16740115      8.1545482200000006      7.5291183200000003
   596   1      14.372691189999999      8.1105883999999993      7.4400815199999997
   597   1             18.35902372      8.1653046499999995              7.43378988
   598   1      22.382403270000001      8.1848434799999996      7.4753653199999999
   599   1      26.331510340000001      8.1398119399999995      7.4207721500000003
   600   1      30.397727719999999      8.2878573800000002      7.3904569999999996
   601   1      32.359564079999998              11.7725442      7.5977346099999998
   602   1      4.1591565599999996             11.80635987      7.5528394499999996
   603   1      8.0858009000000006      11.762143480000001      7.6147766700000004
   604   1             12.32909089             11.62224726      7.5717433200000004
   605   1             16.19127267      11.785956349999999      7.4177572700000001
   606   1      20.163204239999999             11.67761213      7.3674485699999996
   607   1      24.374134900000001      11.773763900000001      7.5796258400000003
   608   1      28.408124610000002      11.791552129999999      7.4301641399999996
   609   1              1.94752602             15.34353971      7.4426279900000001
   610   1      6.0735988599999997      15.268848500000001      7.4223325400000002
   611   1             10.24787544             15.18298929      7.3725207399999997
   612   1              14.2023215              15.2517344      7.5658885600000003
   613   1             18.39827301              15.0514867      7.4003905999999997
   614   1      22.277342319999999      15.158898860000001      7.4504387599999999
   615   1      26.287866749999999             15.21350232      7.5416276399999997
   616   1      30.370368280000001      15.278994320000001      7.4660524700000002
   617   1             -0.08608275             18.89289368      7.3183432399999999
   618   1              3.91943295      18.805349199999998      7.6816067200000004
   619   1      8.0592156199999998             18.75927317      7.5729143700000003
   620   1      12.056848459999999      18.667807880000002      7.5065318400000001
   621   1             16.21669374      18.704219389999999      7.4009978900000002
   622   1             20.34840668             18.68335828      7.4844616799999999
   623   1             24.41100527             18.66384081      7.3772276699999999
   624   1             28.38834361              18.7233825      7.4049882199999999
   625   1              1.93982627      22.263467989999999      7.4937616299999998
   626   1      5.9818547500000001             22.07430815      7.4881821999999998
   627   1      9.9978052099999992      22.049368130000001      7.5729752000000001
   628   1      14.125933849999999      22.217393220000002      7.5550065399999999
   629   1      18.237181849999999      22.218838860000002      7.4257229000000002
   630   1             22.12841302      22.092120749999999              7.34361058
   631   1      26.266304689999998      22.308429919999998      7.5239995100000003
   632   1      30.331200259999999      22.246985890000001      7.5675465300000004
   633   1             32.56974228      25.713398529999999      7.5158470299999998
   634   1      4.1090776499999997      25.768099150000001      7.3694517800000003
   635   1      8.1592923699999993      25.867145489999999      7.5046641599999999
   636   1             12.19353085             25.67937495      7.5640760900000004
   637   1      16.372737399999998      25.739962169999998      7.7360938900000003
   638   1      20.281925789999999      25.649719470000001      7.5717572500000001
   639   1             24.37632979             25.85469312      7.6221959699999999
   640   1      28.399631719999999      25.713324180000001      7.5634218000000004
   641   1      32.567324059999997      2.2927719099999999      8.1756907400000003
   642   1      4.0938103200000002      2.4350000399999998      8.2837881099999997
   643   1      8.1528582600000004      2.4688674700000002      8.3450724399999991
   644   1      12.255105329999999      2.2581466400000001      8.1693077800000005
   645   1      16.089527879999999      2.2539944599999999      8.1095220099999992
   646   1      20.267019640000001              2.44263195      8.0995827600000005
   647   1             24.22165163      2.3456346300000002      8.2217158099999992
   648   1             28.47729021              2.31786614              8.24063284
   649   1              1.99369715      5.7420659799999996              8.00120845
   650   1      6.2887841499999997      5.8923881099999997      8.1603203999999998
   651   1             10.39658691      5.9143765899999998      8.4361834699999996
   652   1      14.337862400000001      5.8901740900000004      8.3169812000000007
   653   1             18.28191069      5.8120231899999997      8.2920421199999996
   654   1             22.28478278      5.8392275700000003      8.2227043900000005
   655   1      26.295157339999999      5.9576902199999999      8.3047836900000007
   656   1      30.307690260000001      6.0009967199999998      8.1544821899999995
   657   1     0.17469183999999999      9.3160568500000007              7.96292825
   658   1      4.0827195999999999      9.4100114599999998      8.3413989399999995
   659   1      8.2033462099999994      9.3638271399999997      8.0553961800000007
   660   1      12.252331760000001      9.2963824600000002      8.2391395799999998
   661   1      16.284840670000001      9.4488082500000008      8.0852862699999992
   662   1      20.352118959999999      9.3391646799999997      8.0678716300000008
   663   1             24.24264668              9.42563745      8.0465182899999999
   664   1              28.3619807      9.4433325299999993              8.06648824
   665   1      1.9341793300000001             12.95829889      8.1845951699999997
   666   1      6.1282868199999996               13.076376      8.1322007099999993
   667   1             10.20650039             12.80978648      8.1580109699999994
   668   1      14.180747739999999             12.88373653      8.2556724900000003
   669   1             18.30038794             12.85255559      8.1977770700000008
   670   1      22.325272250000001             12.78896802      8.1233980999999993
   671   1             26.47834611             12.88773735      8.2301927399999997
   672   1      30.360236059999998             13.00655023      8.2759707900000006
   673   1             -0.11925893      16.509744569999999      8.0894167100000001
   674   1      4.0442717699999999      16.412030529999999      8.2634321400000008
   675   1      8.0983154699999993      16.393179549999999      8.2177974700000007
   676   1             12.19510481             16.50516077              8.17073684
   677   1      16.338249919999999      16.355103880000001      8.1762153899999994
   678   1      20.289258910000001             16.25615174      8.0703196300000002
   679   1      24.338059919999999      16.399231759999999      8.1740061599999994
   680   1      28.349984719999998      16.373634639999999      8.1988242499999995
   681   1      1.7715680700000001      19.949438189999999      8.3259220299999992
   682   1              5.99936823             19.85209038      8.3249322699999997
   683   1              9.96536343             19.83632669      8.2314123099999996
   684   1             14.16895319      19.942080369999999      8.1344440999999996
   685   1             18.25476587             19.87399134      7.9895647700000003
   686   1      22.368523020000001      19.892903969999999      8.1994069300000003
   687   1             26.35637084      20.017016850000001               8.0514481
   688   1             30.44444124      19.947968379999999      8.1307138699999992
   689   1    -0.17830011000000001      23.547560659999998      8.2374701300000002
   690   1      4.1293385499999999      23.488812339999999      8.0207567399999995
   691   1      8.0443232600000005      23.453311490000001      7.9751988000000003
   692   1              12.0574437      23.336618770000001      8.2909745200000007
   693   1      16.108500119999999      23.304606369999998      8.0600763999999998
   694   1             20.19934233             23.32909875      8.0530748400000007
   695   1      24.213412170000002      23.512676070000001      8.3660728800000008
   696   1      28.286543040000002             23.42534809      8.1814739200000002
   697   1      2.0174922799999999      26.885732180000002      8.2711918499999992
   698   1      6.1682753899999998      26.999786159999999      8.2147738199999996
   699   1               10.302916             26.99592904      8.1101938899999997
   700   1             14.23930854      26.930039229999998      8.2498565500000005
   701   1      18.360550150000002      26.943480560000001      8.2357891700000003
   702   1      22.340776200000001      26.945041140000001      8.3528615500000001
   703   1      26.403183949999999             27.11170787      8.0566745700000002
   704   1      30.499197980000002      26.954820999999999      8.2362438499999993
   705   1    0.098902980000000001    0.094501429999999997              8.94292804
   706   1      3.9582336900000001    0.091819209999999998      9.0371703700000001
   707   1      8.3748068799999995      28.122676930000001      9.0754880599999996
   708   1             12.20540205    -0.28657727999999999      9.0791944000000004
   709   1             16.31302874      27.915641300000001      9.0212899600000007
   710   1      20.248345969999999     0.20758007000000001      9.0047442699999998
   711   1      24.589914969999999      28.331386269999999      9.0454308399999999
   712   1             28.38395586    0.097288730000000004      8.9497239799999999
   713   1      2.0973269800000001              3.50371934      8.9301593599999993
   714   1      6.2752639300000004      3.7571962499999998      9.0721296299999992
   715   1             10.34539616      3.4124723399999999      8.9790780899999998
   716   1      14.083817290000001      3.3729836299999998      8.9929737999999997
   717   1      18.175077569999999              3.37523113      9.1454429400000006
   718   1      22.340360860000001      3.5102582400000002      8.9413317600000006
   719   1             26.57914693      3.4619084400000002      9.0021406600000002
   720   1      30.535862059999999      3.5160045499999999              8.95367712
   721   1    0.041869360000000001      7.0369853899999999      8.9195153900000008
   722   1      4.1355043499999997      6.9275945099999996      8.8125956100000007
   723   1      8.2308044200000001      7.1227860600000001      8.8209209600000005
   724   1             12.55273086      7.1154013899999997      8.9898920899999997
   725   1      16.286839310000001      7.3110659599999996      8.7962941200000007
   726   1      20.286457819999999      7.1104254400000002      8.7861857699999995
   727   1      24.327982850000001      7.0959121100000004      8.9164481599999998
   728   1      28.441573349999999      7.2827452199999998      8.9633170399999997
   729   1      1.8191546599999999             10.63943729      8.9680499000000005
   730   1      6.2177483799999997             10.63592016      8.9239749499999999
   731   1      10.154667480000001      10.462738440000001      8.9923200399999992
   732   1             14.22373284             10.42789528      8.9997744500000003
   733   1      18.336583409999999      10.546693510000001      9.0413309099999992
   734   1             22.11879296             10.66308933      8.9762487699999998
   735   1      26.361335830000002             10.45192044      8.8999164999999998
   736   1      30.384993489999999             10.63575762      8.7904442899999999
   737   1              0.14114245      14.219822560000001      9.0799303299999998
   738   1      3.9003894899999998             14.08231866               9.0258927
   739   1      8.1877429900000003             14.08864122      8.9765970500000005
   740   1             12.17697536      14.059687050000001      8.9173918099999998
   741   1      16.129429569999999             13.92879012      8.9787323600000004
   742   1             20.40322506      13.861315830000001      8.8595721600000008
   743   1      24.324729210000001             14.06371412      8.9913920399999991
   744   1              28.3207573      14.009976999999999      9.1138710199999995
   745   1              1.96395473             17.53242771      8.9531763499999997
   746   1      6.0511776700000004      17.531884999999999      9.0493548700000002
   747   1             10.12145802      17.487663049999998      8.9552627000000005
   748   1             14.48694472      17.732208700000001      8.9136550400000001
   749   1      18.374788729999999      17.425065069999999      8.8699087399999996
   750   1             22.13690794      17.538335839999998      9.0091975899999994
   751   1      26.312005030000002             17.61954712      8.9207948699999999
   752   1      30.154524169999998      17.628246690000001      8.9085307999999994
   753   1      32.296675499999999      21.328008539999999      9.0507776799999995
   754   1      3.8668608299999998      21.254301380000001      8.8816029899999993
   755   1      7.9228960199999996      21.305824170000001      8.8184090800000003
   756   1      12.033518239999999      21.032909409999998      9.0617928899999995
   757   1      16.078356410000001      20.974832209999999      8.8037375099999995
   758   1      20.281652650000002      20.984880789999998      8.8785128800000006
   759   1             24.36014621      21.027067460000001      9.0148515499999995
   760   1      28.513707929999999      20.925063949999998              8.86013363
   761   1      2.0936145900000001             24.45691858      9.0523036300000008
   762   1      6.0794880300000003      24.620052250000001      8.8402112299999995
   763   1      10.072094010000001      24.813183779999999      8.9327565100000008
   764   1              14.1393662      24.556210159999999      9.0214373400000003
   765   1      18.251735190000002      24.654815379999999      9.0241163499999999
   766   1      22.120131019999999      24.533654729999999      9.0722807400000001
   767   1              26.3795295             24.69636603      8.9504950399999998
   768   1      30.205200380000001      24.557601519999999              8.97726033
   769   2             21.43903074              15.4263481      9.1660213699999993
   770   2      23.123474049999999             15.62651189      9.3568137399999998
