N2-dn2-coord-10bar/700K/snapshots/frame-98256/run-000/../data.lammps (written by ASE) 

770 	 atoms 
2  atom types
0.0      32.470343392086264  xlo xhi
0.0      28.120142247150884  ylo yhi
0.0      31.213473999158239  zlo zhi


Atoms 

     1   1      2.0293964600000001      1.1716090800000001    0.023552650000000001
     2   1      6.0880008999999999              1.17168918              0.02556874
     3   1      10.146952280000001              1.17170328    0.025416459999999998
     4   1      14.205754900000001      1.1716496700000001              0.02501565
     5   1             18.26456816              1.17166478              0.02504435
     6   1             22.32338141      1.1716496700000001              0.02501565
     7   1      26.382184030000001              1.17170328    0.025416459999999998
     8   1      30.441135410000001              1.17168918              0.02556874
     9   1  9.1780000000000006e-05      4.6866847900000002    0.025581599999999999
    10   1      4.0587011400000002      4.6866847900000002    0.025581599999999999
    11   1      8.1174961000000003      4.6866290399999997    0.025584639999999999
    12   1             12.17638011      4.6866852999999997              0.02491202
    13   1             16.23517979      4.6866942700000003    0.025006210000000001
    14   1      20.293956519999998      4.6866942700000003    0.025006210000000001
    15   1      24.352756209999999      4.6866852999999997              0.02491202
    16   1      28.411640219999999      4.6866290399999997    0.025584639999999999
    17   1      2.0293964600000001      8.2016395800000002    0.026613040000000001
    18   1      6.0881071599999999      8.2016314300000008              0.02543782
    19   1             10.14701835               8.2017045    0.025156850000000001
    20   1      14.205766049999999      8.2017080900000003    0.024990459999999999
    21   1             18.26456816      8.2017077599999997    0.025091249999999999
    22   1      22.323370260000001      8.2017080900000003    0.024990459999999999
    23   1      26.382117969999999               8.2017045    0.025156850000000001
    24   1      30.441029149999999      8.2016314300000008              0.02543782
    25   1  9.2789999999999998e-05             11.71671873    0.025573410000000001
    26   1              4.05870014             11.71671873    0.025573410000000001
    27   1      8.1176017700000003             11.71668698              0.02497914
    28   1             12.17637068             11.71673069    0.025001590000000001
    29   1      16.235177310000001      11.716730249999999    0.025074039999999999
    30   1      20.293959009999998      11.716730249999999    0.025074039999999999
    31   1      24.352765640000001             11.71673069    0.025001590000000001
    32   1      28.411534549999999             11.71668698              0.02497914
    33   1      2.0293964600000001             15.23167155              0.02525285
    34   1      6.0881728300000004      15.231678799999999    0.025062859999999999
    35   1             10.14698486      15.231762639999999               0.0250786
    36   1             14.20578841             15.23176782    0.025201990000000001
    37   1             18.26456816              15.2317707    0.025149979999999999
    38   1      22.323347900000002             15.23176782    0.025201990000000001
    39   1      26.382151459999999      15.231762639999999               0.0250786
    40   1      30.440963480000001      15.231678799999999    0.025062859999999999
    41   1      32.470327990000001      18.746748629999999    0.024951939999999999
    42   1      4.0588083299999997      18.746748629999999    0.024951939999999999
    43   1      8.1175770200000006      18.746803499999999    0.025222040000000001
    44   1             12.17637459      18.746799750000001    0.025428470000000002
    45   1      16.235159400000001      18.746805200000001    0.025487360000000001
    46   1      20.293976919999999      18.746805200000001    0.025487360000000001
    47   1      24.352761730000001      18.746799750000001    0.025428470000000002
    48   1             28.41155929      18.746803499999999    0.025222040000000001
    49   1      2.0293964600000001      22.261939099999999    0.025844880000000001
    50   1      6.0881419299999999      22.261841799999999    0.025489439999999999
    51   1             10.14692954             22.26176895              0.02551757
    52   1             14.20573559      22.261804690000002    0.025639160000000001
    53   1             18.26456816             22.26178625    0.025640119999999999
    54   1      22.323400729999999      22.261804690000002    0.025639160000000001
    55   1      26.382206780000001             22.26176895              0.02551757
    56   1             30.44099439      22.261841799999999    0.025489439999999999
    57   1  5.6450000000000003e-05      25.776936450000001              0.02613327
    58   1      4.0587364700000004      25.776936450000001              0.02613327
    59   1      8.1175325399999991              25.7767713    0.024734180000000001
    60   1      12.176376469999999      25.776831090000002              0.02545323
    61   1      16.235145939999999      25.776775220000001    0.025273360000000002
    62   1             20.29399038      25.776775220000001    0.025273360000000002
    63   1      24.352759840000001      25.776831090000002              0.02545323
    64   1      28.411603769999999              25.7767713    0.024734180000000001
    65   1  0.00024266000000000001              2.34304215     0.80166565000000001
    66   1      4.0585502699999996              2.34304215     0.80166565000000001
    67   1      8.1157394600000003              2.34454954     0.80169402000000001
    68   1             12.17601256      2.3433829099999999     0.80116898000000003
    69   1      16.235258170000002      2.3433209100000001     0.80090046999999998
    70   1      20.293878150000001      2.3433209100000001     0.80090046999999998
    71   1      24.353123750000002      2.3433829099999999     0.80116898000000003
    72   1      28.413396859999999              2.34454954     0.80169402000000001
    73   1      2.0293964600000001      5.8582218700000004     0.80119762000000005
    74   1      6.0870566899999998      5.8583336700000004              0.80194851
    75   1             10.14649655              5.85853131     0.80121584000000001
    76   1             14.20597894      5.8582938599999999     0.80086840999999998
    77   1             18.26456816      5.8583798500000004               0.8010794
    78   1      22.323157380000001      5.8582938599999999     0.80086840999999998
    79   1             26.38263976              5.85853131     0.80121584000000001
    80   1      30.442079629999999      5.8583336700000004              0.80194851
    81   1  0.00019438999999999999      9.3717771800000005     0.80082061000000004
    82   1      4.0585985400000002      9.3717771800000005     0.80082061000000004
    83   1      8.1175070500000004      9.3725002699999997     0.80149060999999999
    84   1      12.176590020000001      9.3733583399999993     0.80088261999999999
    85   1             16.23512199      9.3733789200000004              0.80106506
    86   1             20.29401433      9.3733789200000004              0.80106506
    87   1      24.352546289999999      9.3733583399999993     0.80088261999999999
    88   1      28.411629269999999      9.3725002699999997     0.80149060999999999
    89   1      2.0293964600000001             12.88692854     0.80220621000000003
    90   1      6.0883212999999996             12.88743848     0.80138414999999996
    91   1      10.147128609999999             12.88859852     0.80085256000000005
    92   1             14.20571782      12.888558189999999     0.80113791000000001
    93   1             18.26456816      12.888409899999999     0.80109381000000002
    94   1      22.323418490000002      12.888558189999999     0.80113791000000001
    95   1             26.38200771             12.88859852     0.80085256000000005
    96   1      30.440815019999999             12.88743848     0.80138414999999996
    97   1              0.00012365      16.403222639999999     0.80145666999999998
    98   1      4.0586692700000002      16.403222639999999     0.80145666999999998
    99   1      8.1174337899999998      16.403825260000001     0.80097196999999998
   100   1              12.1761021             16.40390721     0.80133072000000005
   101   1             16.23503496      16.403861750000001     0.80140014999999998
   102   1      20.294101359999999      16.403861750000001     0.80140014999999998
   103   1      24.353034220000001             16.40390721     0.80133072000000005
   104   1      28.411702529999999      16.403825260000001     0.80097196999999998
   105   1      2.0293964600000001      19.919205120000001     0.80066369999999998
   106   1              6.08752564             19.91894023     0.80122479000000002
   107   1      10.146078839999999             19.91919038     0.80159137999999996
   108   1      14.204993419999999              19.9192584     0.80178742000000003
   109   1             18.26456816      19.919377350000001     0.80194975999999996
   110   1      22.324142899999998              19.9192584     0.80178742000000003
   111   1      26.383057470000001             19.91919038     0.80159137999999996
   112   1      30.441610669999999             19.91894023     0.80122479000000002
   113   1              0.00142012      23.434536609999999     0.80178442000000005
   114   1      4.0573728100000004      23.434536609999999     0.80178442000000005
   115   1      8.1165862000000004      23.433936769999999     0.80182306000000003
   116   1             12.17555218      23.433996919999998     0.80156656000000004
   117   1             16.23465491      23.434040110000002     0.80170828999999999
   118   1      20.294481409999999      23.434040110000002     0.80170828999999999
   119   1      24.353584130000002      23.433996919999998     0.80156656000000004
   120   1      28.412550110000002      23.433936769999999     0.80182306000000003
   121   1      2.0293964600000001      26.949875330000001              0.80297246
   122   1      6.0858208300000003      26.950066320000001              0.80215291
   123   1             10.14598146      26.949241430000001     0.80165810000000004
   124   1             14.20520604      26.948673230000001     0.80131923999999999
   125   1             18.26456816             26.94858318     0.80108193999999999
   126   1      22.323930279999999      26.948673230000001     0.80131923999999999
   127   1      26.383154860000001      26.949241430000001     0.80165810000000004
   128   1             30.44331549      26.950066320000001              0.80215291
   129   1      32.190093050000002             28.09242193              1.30257347
   130   1      4.2562285600000003              0.04235361              1.38424741
   131   1      8.1941327499999996      28.066606109999999      1.4995343800000001
   132   1             12.12560639              0.04543751      1.1208199000000001
   133   1      16.268952899999999      28.100362539999999              1.44537772
   134   1      20.412762870000002    0.022887270000000001              1.37474582
   135   1      24.390984410000002    0.058021120000000002      1.2948648899999999
   136   1      28.303248140000001               0.1035351      1.4284260799999999
   137   1      1.8759476100000001              3.38048276               1.4085216
   138   1      6.0198133499999997      3.6576273100000001      1.3186171200000001
   139   1             10.19870362      3.5638538099999999      1.6650560000000001
   140   1      13.995324249999999      3.4880123900000002      1.3876329300000001
   141   1             18.30966274      3.3750947500000001               1.3908848
   142   1      22.411670520000001              3.59937789      1.2973779999999999
   143   1      26.346807070000001      3.4234917199999999      1.5060598300000001
   144   1               30.461043      3.5678180300000002      1.4182430800000001
   145   1      32.442231290000002      7.0722721899999996              1.49631632
   146   1      4.0260664999999998      6.7505209300000004      1.5101501500000001
   147   1      8.1116519199999999      6.9612491900000002              1.60264597
   148   1             12.06409435      7.1161813699999996              1.37311589
   149   1             16.29639573      6.9155381800000004              1.38746763
   150   1             20.33849562      7.0000840200000001              1.55932443
   151   1      24.261135750000001      7.2105465400000002      1.3606738300000001
   152   1      28.415024720000002      7.0637443700000002      1.4511065299999999
   153   1      2.0629907200000002             10.55827947              1.41797314
   154   1      6.0434747599999996             10.65332821      1.3844745199999999
   155   1             10.14788233             10.40356032      1.5070522900000001
   156   1             14.21507695             10.59109422      1.3772866500000001
   157   1      18.335362870000001      10.466512160000001              1.58091691
   158   1      22.346300070000002             10.52860325              1.17162195
   159   1             26.41529083      10.741660400000001      1.6202858899999999
   160   1      30.667679509999999             10.43515698      1.2991493300000001
   161   1    0.067595630000000004      14.037905500000001              1.54935212
   162   1               3.9165307      13.991106589999999              1.32244926
   163   1      8.0709602599999997             14.17677874      1.2377343300000001
   164   1      12.315085460000001      14.062181519999999      1.5672995000000001
   165   1      16.229590630000001      13.961529410000001      1.4999438599999999
   166   1             20.09256143      14.028822310000001              1.21890882
   167   1             24.39293473             14.10909433      1.5041614400000001
   168   1      28.454787530000001      14.043653409999999      1.2474088299999999
   169   1      1.9906361800000001             17.60841147      1.5506618599999999
   170   1      6.0304939900000001      17.552578459999999      1.3887493500000001
   171   1             10.18995423             17.39535605      1.5073352499999999
   172   1      14.275896120000001             17.48000236              1.52602708
   173   1      18.273680460000001             17.65588722      1.4825137900000001
   174   1      22.217310179999998      17.575115889999999      1.3087357100000001
   175   1      26.180984930000001      17.640837560000001              1.58926335
   176   1      30.513424319999999      17.483999350000001              1.36222906
   177   1               0.1100738             21.20932152      1.4327281300000001
   178   1      4.0866051600000004      21.048413029999999      1.5400490899999999
   179   1      8.2352440199999997             20.88162758      1.5137842399999999
   180   1      12.109205830000001      20.995318690000001              1.35146565
   181   1      16.236411539999999             21.00976533              1.63100859
   182   1             20.34413262      21.172124190000002      1.4676230299999999
   183   1      24.385309159999998      21.106682339999999      1.4102704800000001
   184   1             28.50726586             21.07143885      1.4602739199999999
   185   1      2.2313420000000002      24.677908110000001      1.3295086700000001
   186   1      6.1092612600000002             24.56088725              1.60872291
   187   1      10.224679350000001      24.656202069999999      1.5049598799999999
   188   1             14.31965898      24.467709240000001      1.5783263700000001
   189   1             18.13223142      24.544069610000001      1.1709687099999999
   190   1             22.26563492             24.61762341      1.7332009799999999
   191   1             26.33969609      24.666072069999998      1.6383204899999999
   192   1             30.35290376      24.562378370000001      1.3124949100000001
   193   1      2.0289139500000002      1.2104276300000001      2.4562094299999999
   194   1      6.0358704200000002     0.98959105000000003      2.5823174299999998
   195   1      10.011613390000001      1.3163196800000001      2.5132693599999998
   196   1             14.00696969              0.91312662      2.5605523099999998
   197   1      18.158666920000002              1.17960179      2.3336251699999999
   198   1      22.330995479999999              1.28727503              2.41024167
   199   1      26.329886770000002              1.15343098      2.3515130399999999
   200   1      30.393671770000001              1.14190525      2.3999190800000001
   201   1      32.335575660000003      4.8002569099999999      2.4686478699999999
   202   1      3.9636781299999999      4.6326873500000003              2.48815557
   203   1      8.1422034300000004      4.5692829399999999      2.3600831499999999
   204   1             12.21114429      4.7866268700000001      2.6392520799999999
   205   1      16.358478529999999      4.5707891700000003              2.55015203
   206   1      20.390717469999998      4.7611639500000003      2.4427069600000002
   207   1      24.520719809999999      4.7878552399999998      2.3000748199999999
   208   1             28.37883042              4.62099949              2.39403444
   209   1              2.20751119      8.0588591199999993      2.5387875700000002
   210   1      6.0818254100000004      8.3770563300000003              2.45242279
   211   1             10.15345516      8.2046104100000008      2.4205877899999999
   212   1             14.00282299      8.1433398399999994              2.33524858
   213   1             18.31251142      8.1700214300000003      2.4440401500000002
   214   1             22.29231377      8.4876132299999991              2.46235369
   215   1      26.477975690000001      8.3944188099999995      2.4500110199999998
   216   1              30.4648097      8.0464687500000007      2.3397730000000001
   217   1      32.427750439999997             11.60441017      2.5050818100000001
   218   1      4.0556661700000003             11.80647817              2.49853645
   219   1      8.0243417200000007             11.87033909      2.2549330799999998
   220   1             12.09774415             11.78122263      2.3423589699999998
   221   1      16.250392949999998      11.623836409999999      2.3293094299999999
   222   1      20.437509169999998             11.73416215      2.6127048300000002
   223   1      24.283261459999999      11.854757899999999      2.3713370399999998
   224   1      28.579516529999999             11.74356485              2.39480804
   225   1              1.99385441             15.43069474      2.5562475400000002
   226   1      5.9483628399999997      14.975784709999999      2.4778093000000001
   227   1             10.28653124      15.313157500000001              2.62305338
   228   1             14.28813437             15.11790607      2.4009107200000002
   229   1      18.302038719999999             15.19441864              2.30467216
   230   1      22.328189250000001              15.2430488      2.4960758900000002
   231   1      26.289503700000001      15.243127039999999      2.4727507399999999
   232   1      30.640126859999999      15.186570550000001      2.3598633100000002
   233   1      32.422127439999997      18.772961209999998      2.3866248699999999
   234   1      4.0309702100000004      18.659215849999999      2.3336055500000001
   235   1      8.3071908499999996      18.696430159999998      2.5906520400000002
   236   1             12.16866615      18.567518880000002              2.46008615
   237   1      16.375261349999999             18.81588782      2.5264639899999999
   238   1      20.400875880000001      18.708589920000001      2.4010063399999999
   239   1      24.442123850000002      18.634989789999999      2.5104724599999999
   240   1      28.263513830000001             18.79016961      2.2344081999999998
   241   1      2.1351515000000001      22.244636910000001      2.5157438499999998
   242   1      6.2446354199999998      21.934685500000001      2.3426992699999998
   243   1             10.09071275      22.150563170000002      2.5846856900000001
   244   1      14.332782229999999      22.236186109999998      2.4532758000000001
   245   1      18.411947179999999      22.375788270000001              2.42223107
   246   1              22.4407867             22.28856493      2.4379902499999999
   247   1      26.379273950000002             22.28350781      2.3847152399999998
   248   1             30.61571979             22.33894888      2.5246871500000001
   249   1    0.044260330000000001             25.65234388      2.4504860499999999
   250   1      4.0890770700000001             25.89657815      2.4734094999999998
   251   1      8.2493426200000002      25.708441730000001      2.4602309400000002
   252   1             12.26962758      25.637098330000001      2.3927354699999999
   253   1      16.319384469999999      25.870565299999999      2.4192221699999998
   254   1      20.230834739999999      25.813672839999999              2.53288431
   255   1      24.304164249999999      25.826777140000001      2.4406477400000002
   256   1      28.283471240000001      25.930533910000001      2.4696180499999998
   257   1    0.094963290000000006      2.4131885500000001      3.1412968800000001
   258   1              3.99814319      2.1801283900000001              3.28593549
   259   1      8.0620328099999998      2.3507359600000002      3.4023844300000001
   260   1             12.18365711      2.5322390000000001      3.4152224800000002
   261   1             16.15351686      2.3876156700000002               3.3164525
   262   1             20.25057215      2.3229085299999999      3.1315032899999999
   263   1      24.325639890000001              2.45734326      3.2633121100000002
   264   1      28.335252229999998      2.2206278799999999      3.3394640799999999
   265   1      2.1327846699999999      5.8365280100000003              3.33266733
   266   1              6.21917163      5.6525895300000002      3.2301751200000002
   267   1             10.05677588              5.94494889              3.21042966
   268   1             14.22835555      5.6684206899999996      3.2169844599999999
   269   1      18.270214230000001      5.7060602500000002      3.2350390099999999
   270   1      22.364895619999999      5.9980310000000001              3.41735393
   271   1      26.607369340000002      5.8171879200000003      3.3786589199999999
   272   1              30.5256133      5.8888051199999998              3.36503051
   273   1     0.24971792000000001      9.2121146199999995      3.1900078999999999
   274   1      4.0594998999999996      9.4937112599999995      3.1996201700000002
   275   1      8.2790163499999991      9.4022404999999996      3.1591899099999998
   276   1      11.991656389999999      9.2932428199999997      3.2651696800000001
   277   1      16.330586440000001      9.2570722599999993      3.2617097300000002
   278   1      20.440891329999999              9.47128923      3.3327181399999999
   279   1      24.500068169999999      9.4771893899999995      3.2430798099999998
   280   1             28.72426505      9.3238894999999999              3.25694602
   281   1               1.9285268             12.97643265      3.2640048500000001
   282   1      6.0499506299999997             12.80147904      3.3862023400000001
   283   1             10.09067799      12.818810770000001      3.2828666000000002
   284   1      14.275073320000001             12.83727113      3.2086281099999998
   285   1      18.327731889999999      12.800150370000001      3.2374242799999999
   286   1      22.402837430000002      13.089753460000001      3.2682349099999999
   287   1             26.37372998             12.86387543      3.2437627400000002
   288   1      30.574898959999999             12.92521816      3.3310241299999999
   289   1      32.361294989999998      16.451459910000001      3.1904984399999998
   290   1      3.9721875799999999      16.543148540000001      3.1352525899999999
   291   1      8.1730332000000008      16.308999629999999      3.3557403799999999
   292   1      12.360430859999999      16.362235200000001      3.3691487699999998
   293   1      16.120338629999999      16.550479630000002      3.2232230500000001
   294   1      20.289653869999999      16.410085349999999      3.1674247699999998
   295   1      24.135291200000001      16.505637589999999      3.3497629899999999
   296   1      28.540184960000001      16.423113579999999      3.0747416799999998
   297   1      2.1301037799999998      19.946623710000001      3.4099789600000001
   298   1      6.1330683700000002      19.697452429999998      3.2945876100000002
   299   1      10.132871639999999      19.811767620000001              3.32796264
   300   1      14.264139849999999      20.103994570000001      3.2651210000000002
   301   1      18.394980619999998      20.092323279999999      3.2697947300000001
   302   1      22.277985309999998             19.87060301      3.2118719200000001
   303   1      26.254739270000002      19.883630149999998      3.4603535299999999
   304   1             30.35220692      19.962206930000001              3.17786854
   305   1     0.16576224000000001      23.458416100000001      3.1657050600000001
   306   1      4.1398597500000003      23.232234850000001      3.1479067600000001
   307   1      8.0314303999999996      23.394665060000001      3.3175534400000002
   308   1      12.154068029999999             23.29332024              3.26596391
   309   1             16.34927484      23.435254260000001      3.1572152299999998
   310   1      20.513031529999999      23.523969000000001              3.22571933
   311   1      24.385870969999999             23.54563593      3.1905029800000002
   312   1             28.41393588      23.435851329999998      3.0752432600000001
   313   1               2.1077949             27.05222887      3.1942787699999999
   314   1      6.3325899300000001      26.862374800000001      3.2708266899999998
   315   1             10.26558945             26.88992412      3.2370851200000001
   316   1      14.154183679999999      26.821636909999999      3.4025857099999999
   317   1      18.123345100000002             27.16582601      3.4017101699999999
   318   1      22.409626630000002             27.16072793      3.1653622800000001
   319   1      26.276392649999998      26.948370369999999      3.1989858899999999
   320   1      30.412894210000001      26.899362849999999      3.0851993599999998
   321   1    0.052954059999999997      28.089279019999999      3.9731784499999998
   322   1      4.2182605300000002      28.079125650000002      4.1159828100000002
   323   1      8.1122987000000002      28.038352509999999              4.24191947
   324   1      12.024165679999999     0.16714250999999999              3.90716324
   325   1              16.1355538    0.055974660000000002      4.1314576199999999
   326   1      20.323453749999999              0.20821017              4.07637874
   327   1      24.503825899999999              0.10129492      4.0435215700000002
   328   1      28.605230460000001             28.10117219      4.1371672899999998
   329   1      2.1705134400000001      3.4846924399999999      4.0849095000000002
   330   1      6.0307301100000004      3.3349256600000001      4.2816854700000002
   331   1               10.143452      3.3814897099999999      4.1187125399999998
   332   1      14.202876120000001              3.43060469              4.43843225
   333   1      18.154277149999999      3.5438011600000001      4.1512365999999998
   334   1      22.248690400000001      3.5066468099999999      3.9518562699999999
   335   1      26.329381250000001      3.5706657000000002      4.2375021300000002
   336   1      30.479632890000001      3.5837435200000001              4.12218967
   337   1              0.18912619      6.9284719199999998      4.1637802600000002
   338   1      4.3506314499999998      7.0052333300000003      4.1311832400000004
   339   1      8.2099327100000004              7.12766989      4.0609765700000002
   340   1      12.110164729999999      7.0789498100000001      4.2235480299999999
   341   1             16.17252277      7.0435959400000003      4.1190499000000003
   342   1      20.305446709999998      7.2423713100000002      4.0871139100000002
   343   1      24.438510489999999      7.1339095300000004      4.0990221599999996
   344   1      28.511139790000001      6.8726020400000003      4.0668552299999998
   345   1      2.1719042599999998             10.37202154      3.9943869200000002
   346   1      6.1393269300000002             10.44848213      3.9591797199999998
   347   1      10.271364719999999             10.74755465              4.19317253
   348   1             14.20655659      10.548586520000001      3.8865883999999999
   349   1      18.523471560000001              10.4948807      4.0891091800000003
   350   1      22.435431260000001             10.60054349      4.1110559499999999
   351   1      26.611582070000001             10.62162607      4.0324299200000002
   352   1      30.655970400000001             10.51525533      4.1502372899999997
   353   1    0.073811329999999994             14.17097161      4.2162566300000002
   354   1      3.8835280399999998             14.08412371      4.0054228500000004
   355   1      8.0539993699999997             14.12386079      4.1108914700000003
   356   1             12.28377725             14.12422757      4.2272413899999997
   357   1      16.404718460000002      14.057385910000001      4.0084889400000003
   358   1             20.36271459             14.17035783      4.1502943099999996
   359   1      24.468086759999998      14.097257539999999      4.2132404599999997
   360   1      28.416458309999999              14.0893955              4.07792785
   361   1      1.9075418399999999      17.600895659999999      4.1969669300000003
   362   1               6.1567121             17.51011497      3.9924398000000001
   363   1      10.256560110000001      17.312556669999999      4.1176800399999998
   364   1             14.22314596      17.538527649999999      4.3278256199999996
   365   1      18.186337470000002             17.79762732              3.93815727
   366   1      22.216173600000001      17.569134930000001      4.1157660900000002
   367   1      26.389310349999999      17.432076980000001      4.1728655200000002
   368   1             30.43728222              17.7267194      3.8353870799999998
   369   1    0.015476169999999999      21.007556019999999      4.0912492199999999
   370   1      4.1913715500000004      20.852991849999999              3.96553186
   371   1      8.0823612699999998      20.986983980000002      4.0074370100000003
   372   1      12.044716129999999              21.1169163      4.1585032899999996
   373   1             16.33650153             21.17821451      4.1894951699999998
   374   1      20.350189459999999             21.19606104      4.0767503100000004
   375   1      24.377053109999999      21.158127969999999      4.0383662500000002
   376   1      28.354800999999998      21.197176249999998      4.0446674399999996
   377   1              2.09403892      24.467037529999999      3.7760338999999998
   378   1      6.0865403699999998      24.635412429999999      4.1624876999999998
   379   1      10.161780800000001      24.574301699999999      4.0998019000000001
   380   1      14.179543089999999      24.433160239999999      4.0850684399999997
   381   1             18.04917661      24.857027739999999              4.00559362
   382   1      22.549275730000002             24.74994543      4.1810758400000001
   383   1      26.434835209999999      24.564864069999999      4.1366912899999999
   384   1      30.583206690000001      24.712089859999999              3.79212112
   385   1      2.0854506700000002      1.2076606599999999      4.9073366600000004
   386   1      6.0443274200000001              1.00941265      5.0913542400000003
   387   1      9.9622191400000002      1.1623853399999999      4.8911390900000002
   388   1             14.26806786      1.0054917699999999      5.1574987700000001
   389   1      18.361708849999999      1.3061471200000001              5.09821495
   390   1      22.285531280000001              1.18720911      4.8914030799999999
   391   1      26.393715069999999              1.11208006      4.8342159899999997
   392   1      30.352074810000001              1.17954761      5.1284260100000001
   393   1              0.10347109      4.6221127299999996      4.9089269900000003
   394   1              4.16888272      4.8209974200000003      4.9450251600000001
   395   1      8.0965295200000007      4.6656155400000001              4.83114416
   396   1             12.18334379      4.7182597800000003              5.11775439
   397   1             16.50003766      4.7899205499999997      5.1724021699999998
   398   1              20.2604808      4.7814700099999996      4.8323034700000003
   399   1      24.250376209999999      4.7753028300000002      4.9752476000000003
   400   1             28.44937187              4.64295115      4.8427319400000002
   401   1              1.98882588      8.1286588099999992      4.9784179999999996
   402   1      6.2152448099999997      8.1193904200000002      4.7403101899999998
   403   1      10.228881019999999      8.3076345099999998      4.9567618199999997
   404   1             14.31023776      8.0788203299999992      4.9324762299999998
   405   1             18.33986492      8.1896139199999993      4.9916874699999996
   406   1      22.444655780000001      8.3066515699999997      4.9908115200000003
   407   1      26.478583180000001      8.1825732599999998      4.9040075400000003
   408   1      30.448716189999999      8.1104519800000006      4.7844417300000002
   409   1     0.10548564000000001      11.688244839999999      5.0081132400000001
   410   1      3.9075019200000001             11.69993612      4.8608214500000004
   411   1      8.1550150699999993      11.877045239999999      4.9763751799999998
   412   1             12.35600535             11.66321524      5.0058481099999996
   413   1             16.27885616             11.78110931      4.7454653100000002
   414   1             20.36179224             11.84731247      5.0884668199999998
   415   1      24.530053899999999      11.758538870000001      4.8197555300000001
   416   1      28.483366019999998             11.76767555      4.8277689300000004
   417   1              1.99751794             15.33401349      4.9699431699999996
   418   1      6.2297677399999998      15.373419220000001      5.0817354100000003
   419   1      10.235151480000001             15.05328609      5.1238008400000004
   420   1      14.256452080000001      15.144004369999999      4.9941041500000001
   421   1      18.134935039999998             15.38281491      4.7885486000000004
   422   1      22.223010970000001             15.27635628      4.8481048500000004
   423   1             26.46894361              15.1766465      4.8955283600000001
   424   1      30.421364959999998             15.32253182              5.03494916
   425   1      32.340220000000002      18.858712990000001      5.0386964000000001
   426   1      3.9904936000000002      18.587754690000001      4.9829008400000001
   427   1      8.1587149700000001      18.761016189999999      4.9076427799999998
   428   1      12.270945940000001             18.74851666      5.0513283700000002
   429   1      16.354993230000002      18.892160329999999      4.9891377600000002
   430   1      20.304070070000002             18.84222059      4.9267572599999996
   431   1             24.35928315      18.726444399999998      4.8694332100000004
   432   1              28.3464165             18.75325612      4.8111272200000004
   433   1      2.2419040699999999      22.226283070000001      4.9499786600000002
   434   1              6.09074238             22.07280987      4.9292520099999999
   435   1             10.15491561      22.211408110000001      5.2231805199999997
   436   1      14.117484490000001      22.358684100000001      5.0629112100000002
   437   1      18.386460599999999      22.270140000000001      4.8190758100000002
   438   1              22.2922881      22.258846510000001      4.8770000199999997
   439   1      26.404032440000002             22.29531927              5.02597323
   440   1      30.452396759999999      22.317801939999999      4.8908661599999999
   441   1     0.21188456999999999             25.69322674      4.8908337199999998
   442   1      4.0907397400000001      25.760301890000001      4.9611473300000002
   443   1      8.0633432999999997      25.610270140000001              4.87593868
   444   1             12.19676424      25.763380250000001               5.0689899
   445   1      16.249553089999999      25.957669070000001      4.9585849900000003
   446   1      20.138270840000001      25.983871780000001      4.8481215899999999
   447   1             24.46704914      25.737724589999999      5.1616243500000003
   448   1             28.52512274      25.726682570000001      4.8553791500000001
   449   1    0.011150429999999999      2.3446040099999998              5.69707192
   450   1              4.18997726      2.4596971299999999               5.6037925
   451   1      8.1458686300000007      2.4150532999999998      5.9558838200000004
   452   1             12.11611761      2.5013167799999998      5.8642470299999996
   453   1      16.072528800000001               2.5008184      6.2598619900000001
   454   1      20.269269829999999              2.56307332      5.7573567900000002
   455   1      24.371751069999998              2.30265035      5.7077198899999999
   456   1      28.165337220000001      2.4051382499999998               5.6988623
   457   1      2.0246341999999999      5.8728933100000003      5.7724241300000001
   458   1      6.2128515000000002      5.8013757200000002      5.8745967500000003
   459   1             10.10612615      5.9155720599999997      5.6996377300000001
   460   1      14.330820750000001      5.8054427799999999      5.9718000800000004
   461   1      18.263861989999999      5.9587619700000003      5.8597351900000003
   462   1      22.257413419999999      5.8965697700000002      5.9254375499999998
   463   1      26.201898029999999              5.84104724      5.8686600599999998
   464   1      30.433498400000001      5.8155545499999999      5.7615134000000001
   465   1      32.394163140000003      9.2372336300000004      5.7265430999999998
   466   1      4.0735651300000004      9.4158185099999994      5.7305514400000002
   467   1      8.2044761699999995      9.2828164799999993      5.5581826899999998
   468   1             12.45371982      9.3213509299999995      5.7586211499999997
   469   1      16.407467260000001              9.31980188      5.6832285300000001
   470   1      20.366456419999999      9.4699416900000006      5.8418722599999997
   471   1      24.455674330000001      9.4857958999999994      5.8345396100000002
   472   1             28.40603514      9.4726785099999997      5.8509056099999999
   473   1      2.2323257999999999      12.952563830000001      5.8751923599999998
   474   1      6.0604164899999997             12.82770045      5.7347460999999997
   475   1      10.253838829999999             12.70188913      6.0023232899999996
   476   1             14.38777178             12.87795465      5.7750378500000004
   477   1      18.453943410000001      13.041450319999999              5.67973471
   478   1             22.50224532      12.932438769999999      5.8419986399999999
   479   1      26.427840830000001              12.7865701      5.7702600300000002
   480   1             30.55569976      12.968715919999999      5.9271450000000003
   481   1    0.059794319999999998      16.353044300000001      5.7067249599999998
   482   1              4.14578413      16.330187609999999      5.7326713099999997
   483   1      8.2573103200000002             16.27753792      5.9610517400000003
   484   1      12.436075860000001             16.46514693      5.8826868799999996
   485   1             15.99652528      16.265130899999999              5.74166928
   486   1      20.024417920000001      16.450623759999999      5.9015836899999998
   487   1             24.26442651      16.431774870000002      5.7370696900000002
   488   1      28.452711539999999      16.612366139999999      5.6766716600000002
   489   1      2.1071467300000002             20.01213237      5.8901651399999997
   490   1      5.9573248400000001             19.70599344      5.9437387700000004
   491   1             10.19112275      19.786573480000001      5.7886288600000002
   492   1             14.16778111      20.000686210000001      5.8397402999999999
   493   1      18.397321850000001      20.027659969999998      5.7847545900000004
   494   1      22.525170370000001      19.868056760000002      5.6721374400000002
   495   1      26.329531889999998      20.066849250000001              5.68791227
   496   1             30.40496375      20.065627769999999      5.7008268900000001
   497   1              0.12402834      23.368653259999999      5.8106178899999996
   498   1              4.14990477             23.42078695      5.8087993999999998
   499   1      8.1080462700000009      23.208860860000001      5.6520557399999998
   500   1             12.23060355             23.40140744      5.8751573700000002
   501   1             16.25293602      23.590788199999999      5.6978873700000001
   502   1      20.281283940000002      23.550625400000001      5.5323618300000001
   503   1      24.283670099999998      23.441616280000002      5.8495657899999998
   504   1      28.350724020000001      23.579336319999999      5.7643653400000003
   505   1      2.2308865899999999             27.13976766      5.6839437899999998
   506   1              6.06746739      26.974940790000002      5.7330340099999999
   507   1             10.09915878      26.903248569999999      5.8302850399999997
   508   1             14.16756839      26.962230590000001      5.9418025600000002
   509   1      18.231191240000001      27.065357599999999      5.9127399199999999
   510   1             22.23740815      26.991973900000001      5.7028525400000003
   511   1      26.460138480000001             27.12379456      5.6452560099999998
   512   1      30.701149940000001      26.978566799999999      5.7655063000000002
   513   1              0.22550387    0.059080229999999997              6.63216918
   514   1              4.15183079    0.051263789999999997      6.6540733599999999
   515   1      7.9565523499999999             27.95684048      6.7891456400000001
   516   1      12.098329400000001    0.057196459999999998      6.5963837400000003
   517   1      16.243894959999999     0.18953887999999999      6.7543826899999999
   518   1      20.350800639999999              0.22635378      6.7101050200000003
   519   1      24.370532900000001      28.103059999999999              6.70044328
   520   1      28.432348940000001    0.037251649999999997      6.6426688199999999
   521   1      2.0462685299999999      3.5533466800000002      6.4481191999999998
   522   1      6.0402258900000003      3.4973263000000001      6.6742749999999997
   523   1      10.195852800000001      3.4749529799999999      6.7731135900000004
   524   1      14.212221449999999      3.4375427799999998      7.1423395999999997
   525   1      18.252795240000001      3.5197567200000002      6.5649278799999999
   526   1      22.273047900000002      3.7859408499999998               6.5682478
   527   1             26.31432152      3.6584690000000002      6.8272654700000004
   528   1      30.332110780000001      3.2817603700000002      6.4783134599999999
   529   1      32.434272999999997      7.1225905100000002      6.5546193500000003
   530   1      4.0372314999999999      7.0615774599999996      6.4851628200000002
   531   1      8.2313931100000008      7.0612871699999999               6.5536284
   532   1              12.1679748      6.8697082399999996      6.5668912800000001
   533   1      16.278361870000001      7.0748025300000004      7.0160367600000004
   534   1      20.291132560000001      7.2860583200000004               6.8882572
   535   1      24.330140719999999      7.3817704600000003      6.4724823799999998
   536   1      28.393150779999999      7.0307301100000004      6.4071907799999996
   537   1      2.0151345699999998      10.468743180000001      6.5288299900000002
   538   1      6.1911974399999998             10.39527288      6.4887397299999998
   539   1             10.19117539             10.32250144      6.7304424799999998
   540   1      14.436593999999999             10.59292986      6.5123095600000003
   541   1      18.357475740000002      10.646819989999999      6.6904762299999998
   542   1      22.428308059999999      10.763418529999999      6.7138221099999997
   543   1      26.421509910000001             10.73790271      6.7769502700000004
   544   1      30.522135760000001      10.467458669999999      6.5976833199999998
   545   1     0.11734136000000001             13.94473808              6.80638085
   546   1      4.2461797399999996             14.15724232      6.5844662899999999
   547   1      8.3340199899999998             13.97172621              6.59184722
   548   1      12.232170869999999      13.825340539999999      6.8740135899999997
   549   1      16.337877330000001      14.081134670000001      6.5405431700000003
   550   1      20.561532159999999      14.160911649999999      6.6954747799999996
   551   1      24.391027780000002             14.11143382      6.7343194799999999
   552   1             28.37961988             14.00720426      6.7155253799999999
   553   1      1.9479423899999999             17.48124696      6.5776604499999998
   554   1      6.1765515300000002             17.43459241      6.7371711200000002
   555   1             10.25907617      17.405873589999999      6.8614194299999998
   556   1             14.52409915             17.65675624      6.8714199499999999
   557   1      18.153064090000001      17.790079970000001      6.3060319700000003
   558   1      22.234145359999999      17.377601370000001      6.6515388199999999
   559   1      26.317553849999999      17.488874030000002      6.5975590100000003
   560   1             30.63228294      17.751843399999998      6.3885882000000001
   561   1      32.446434590000003      21.144815869999999      6.6327277200000001
   562   1      3.9946090500000002      21.179627279999998      6.6675777500000004
   563   1      8.2806141600000007      20.883209140000002      6.6932360600000003
   564   1      12.160913280000001      21.096805710000002               6.7737121
   565   1             16.30732368             21.18784363      6.6389793600000004
   566   1      20.402922050000001      21.346296070000001      6.6410360800000001
   567   1      24.200125459999999      21.146832400000001      6.5551103800000003
   568   1      28.282170350000001      21.249870080000001      6.6168091200000001
   569   1               2.0288024      24.568634490000001      6.5164552899999997
   570   1      6.1082751399999999             24.51821799      6.7481174499999996
   571   1             10.02241519      24.558321119999999      6.7924962899999999
   572   1      14.367378090000001             24.85542693              6.71776924
   573   1      18.319254959999999      24.858156409999999      6.4538763799999996
   574   1             22.27546005             24.79914621      6.6416064600000002
   575   1             26.26681503             24.76192601      6.6465587599999996
   576   1      30.605298550000001      24.528954349999999      6.3351576100000004
   577   1      1.9534425600000001      1.1810866499999999      7.4199709599999997
   578   1      6.0519819300000002      1.1652912200000001      7.7537391800000002
   579   1             10.13708258              1.19421227      7.4324989400000003
   580   1             13.99463076                1.222709              7.99568938
   581   1      18.037819450000001              1.34921545      7.6941241800000002
   582   1      22.349860060000001      1.4415784599999999      7.4311616599999999
   583   1      26.253675810000001      1.2377666700000001      7.3353920700000002
   584   1      30.317423130000002              1.27163896      7.6686787000000001
   585   1      32.422631549999998      4.9107095799999998      7.6431093800000003
   586   1      4.0587634499999998      4.7165769400000004      7.4720050799999997
   587   1      8.1572602399999994      4.9088574899999999      7.5679802799999996
   588   1             12.24633244      4.6977480800000002      7.6760839599999997
   589   1      16.513023489999998      4.6870974399999996              7.69164212
   590   1      20.185601729999998      4.6938769899999997      7.5967897899999999
   591   1      24.174587039999999              5.17585622      7.6233935300000004
   592   1      28.342501680000002      4.7281162400000003      7.5743872699999999
   593   1      1.9569168699999999      8.0957946799999991      7.4086871600000004
   594   1      5.9616420999999997      8.1411368300000007      7.2407353399999996
   595   1             10.22875822      8.1274444799999994      7.6694332799999998
   596   1             14.20327382      8.1991613099999991      7.5752765499999999
   597   1             18.42108563      8.3191642699999999              7.64581965
   598   1      22.670150209999999      8.3965926999999994      7.5381029599999998
   599   1      26.374987430000001      8.3068699299999995      7.4078020999999996
   600   1      30.369877899999999      8.1882705900000001      7.6046770099999996
   601   1              0.13945732             11.67009249      7.5064025799999996
   602   1      4.1849924600000001      11.851729779999999      7.5444537900000004
   603   1      8.3127210999999992      11.755705900000001      7.6640687200000004
   604   1             12.29722643             11.44460819      7.4877774800000001
   605   1      22.414975810000001      10.756350100000001      9.0683570899999992
   606   1      20.329709080000001             11.76341517      7.5118196700000004
   607   1      24.375812440000001             11.83257375      7.6901298300000001
   608   1      28.304127619999999      6.8719280100000004      8.9392008500000006
   609   1      2.1189768899999999      15.401020559999999      7.7178998300000003
   610   1      6.2033389699999999             15.17519255      7.6843418899999998
   611   1      10.254727450000001      14.939414169999999              7.65425149
   612   1      14.340681010000001              15.2476574      7.5386730899999996
   613   1      18.148463329999998             15.51015748      7.3339959099999996
   614   1      22.306470019999999      15.250987350000001      7.5469732599999997
   615   1      26.373972030000001             15.30066265      7.7120848200000003
   616   1      30.509073430000001      15.102577200000001      7.6583464399999999
   617   1      32.398728660000003      18.758804619999999      7.7156479600000001
   618   1              3.80127031             18.81683877      7.6329211499999996
   619   1      8.3327952700000001      18.712363010000001      7.2932391900000004
   620   1             12.33252169      18.692975789999998      7.7225198900000001
   621   1             16.27661805      18.921974779999999      8.0001335400000002
   622   1             20.10482086      18.824489289999999      7.3806615000000004
   623   1      24.176387940000001      18.725713979999998              7.49421246
   624   1      28.359511099999999      18.883530090000001      7.3128947999999996
   625   1      2.1243048400000002      22.292426800000001      7.3819478600000004
   626   1      6.2724795599999998      21.848448210000001      7.5480885100000004
   627   1             12.43417243             21.22189371      9.2842567900000006
   628   1      14.392693169999999      22.414137440000001      7.5621998799999997
   629   1             18.24056671             22.38555041      7.2859319200000003
   630   1      22.375827569999998      22.447453249999999      7.5610521999999998
   631   1             26.35832005             22.34266886      7.4800795400000002
   632   1             30.51385269             22.32870046      7.2654648499999999
   633   1      32.455915689999998      25.712642559999999      7.5387452899999996
   634   1              3.75912164      25.853959010000001      7.5248426100000003
   635   1      8.0419187799999996      25.682238290000001      7.4950254799999998
   636   1      12.054389329999999             25.84453778      7.6498110700000002
   637   1      16.322091069999999      25.997540959999998      7.5012691199999999
   638   1      20.230061689999999      26.032668439999998      7.4253539200000001
   639   1      24.435781670000001      25.739491350000002      7.6319724500000001
   640   1             28.49848355             25.82672831      7.3474031499999999
   641   1      4.0233050400000003      7.0845008299999996      9.1484655799999999
   642   1      1.9040663600000001      8.1308165199999998              9.63318078
   643   1             11.93929327      2.3387416399999998      8.3373825499999992
   644   1      15.977560860000001              0.05090894      8.9800387500000003
   645   1      10.269925239999999             22.50496944      7.7660215600000004
   646   1      26.508866359999999             24.79829101      9.1391295600000007
   647   1      22.489631939999999      3.8011302100000002      8.8680625899999992
   648   1             32.39061324      2.5069016899999998      8.2179041000000002
   649   1      30.710028900000001             12.70401272      8.3798111899999999
   650   1      1.8285907800000001      24.743792079999999      8.9462043900000001
   651   1             16.15980922      23.572291249999999      8.1188729800000008
   652   1             12.22007554      6.8332576400000002      8.9866436099999998
   653   1      22.284219060000002              13.0865291      8.3087218499999995
   654   1      3.7547151200000002     0.38613657000000001      9.1550945299999995
   655   1      22.076563320000002      27.285187319999999      8.2894069300000002
   656   1      4.0180351200000004      4.8849461099999996      9.7674528400000007
   657   1      8.0778911400000002      9.3764127899999998              8.21614076
   658   1             16.32247044             16.33716793      8.3347706400000003
   659   1      5.9626835700000003             10.40381771      8.9634614599999995
   660   1      10.109380290000001      5.8862769100000003      8.4121863599999998
   661   1      26.533502720000001      26.922471680000001      8.1564105199999997
   662   1      23.873103059999998      7.4035534600000004      9.0099899099999998
   663   1      18.431139170000002              3.38164606              9.04936747
   664   1      4.1299288000000001             14.08478006      8.9747114499999991
   665   1             10.35002289             10.19519629      8.9594676700000004
   666   1             14.24191852      20.226301450000001      8.2778146199999991
   667   1             12.24077818      16.496184750000001      8.4507245900000001
   668   1             16.39130179             11.84240099      7.5064779699999997
   669   1      30.205426020000001             10.12701335      9.1782324200000005
   670   1      26.099941279999999      6.1688604700000003      8.0997665600000008
   671   1      2.0476421299999998             17.78408443      8.9675266100000002
   672   1      2.0257559299999999      13.127979659999999      8.2330107699999999
   673   1      2.0984333300000002              3.62486606      9.0273444200000004
   674   1      32.278299789999998      16.499583179999998      8.2692361000000005
   675   1      24.358798480000001      16.394326329999998      8.1615445500000003
   676   1      12.365604660000001      23.410561999999999      8.4577381599999999
   677   1      21.952410669999999      6.1834334100000001      8.3663749700000007
   678   1      24.249097819999999      18.668280029999998      9.7712490899999995
   679   1      24.626940050000002      9.6591515099999992      8.4518022800000008
   680   1             28.64892906             11.66884393      7.4665346499999998
   681   1              0.01449575      4.5694564900000003      9.8924409000000004
   682   1      8.2862484599999995             16.52872314      8.4113149800000002
   683   1      8.0049510999999995      23.450949019999999      8.0543498000000007
   684   1             10.47719231      12.613901439999999      8.7429723500000005
   685   1             22.50626007             20.06819921      8.3485902999999997
   686   1      22.278869459999999             17.60777461      8.9489436199999997
   687   1      28.171407420000001      9.4730333299999998      8.2740890199999999
   688   1             28.65553877             14.23745108      9.2174649399999993
   689   1             20.33202022             21.51393977      9.0337663599999996
   690   1      4.1616825899999998             21.08570967      9.0332975399999995
   691   1      32.282656150000001      7.0919688799999996      9.3707043199999998
   692   1             22.33807775      24.574610069999999      9.0146691299999997
   693   1      18.517374719999999             10.61598888      8.8707246200000007
   694   1      20.189856890000001             16.41922448      8.2578049100000008
   695   1      24.315097349999998      23.491359119999998      8.3663605899999993
   696   1             28.46489712      20.822080339999999      8.8958595200000001
   697   1      3.9800973700000002      2.5456635300000001      8.0844456299999994
   698   1      16.283595040000002      21.098705679999998      9.0813550900000006
   699   1      18.318066529999999      24.679296449999999      8.9794091500000004
   700   1             18.13861885      27.096246950000001      8.2860081000000001
   701   1      12.037762280000001    0.055777170000000001      9.0854490299999995
   702   1             28.51228751      23.523973900000001      8.0499530099999994
   703   1      20.282305019999999      2.2184092199999998      8.1047326099999992
   704   1      30.737709410000001      24.831539790000001      8.9142377199999991
   705   1              2.03149047              5.93027236      8.5259574800000006
   706   1      7.9649303900000001             28.05665514      9.1613925999999992
   707   1              14.3764486      5.3036485999999998      8.6646048800000006
   708   1              20.3815627      19.289389870000001      9.6676723100000004
   709   1      24.150045850000001     0.42424952999999999      9.0889303600000009
   710   1      18.451195949999999             20.19468419      8.3000265500000001
   711   1      30.395031700000001      3.7382396400000002      8.7733590800000005
   712   1      32.459646679999999             23.10462308      8.5339558499999999
   713   1     0.19761580000000001    0.035827539999999998      9.0699374299999995
   714   1              30.2754668      22.655898010000001      9.6168946200000001
   715   1             30.56188848             27.09624707      8.3972572900000007
   716   1      14.090702540000001      26.840293920000001      8.3375097199999999
   717   1      26.843219019999999             22.48965518      9.7546310599999995
   718   1      26.333245510000001      4.0469864800000002      9.2177680899999999
   719   1              2.20641102      10.465156329999999      9.1245984500000006
   720   1      30.257267379999998      5.9762642000000001      8.2865618899999998
   721   1              4.00507525      9.3194529300000006      8.0431246600000001
   722   1      10.303535800000001             19.81713603      8.3363809599999996
   723   1      5.8339418299999997      5.8265966499999999              8.40151337
   724   1      6.3559748999999996      8.0453901099999996      9.6584956999999996
   725   1      16.281950980000001      7.4576945800000001      9.2276769699999992
   726   1             16.17373602      9.5057406499999999      8.2895524199999997
   727   1      18.344912279999999             17.87385501      9.0968989800000006
   728   1      32.458303780000001      14.210458259999999      9.0642328200000009
   729   1      8.3081634300000005             14.17475881      9.0055160000000001
   730   1      8.1602438900000003      2.5238674099999998      8.2774703800000005
   731   1             12.47814513      9.1956314500000005      8.3510357299999995
   732   1             14.23044851      10.670921939999999      9.0501195600000006
   733   1      18.298505160000001             13.17825637      8.0770557400000005
   734   1      2.0281802299999998      27.138762660000001      8.2598396600000008
   735   1             24.47007185      2.6342621500000001      8.0610474100000005
   736   1      8.2544004599999994             11.42056878      9.9642942300000001
   737   1      30.562598569999999      20.237801220000001      8.0643835100000008
   738   1  -0.0023743000000000002      9.4013683300000004      8.3050317299999996
   739   1      16.013669310000001      14.160725830000001      9.0564469699999997
   740   1      20.627731990000001      9.3929334000000004      8.2681885099999999
   741   1      24.462894559999999      14.125942179999999      8.9781551000000004
   742   1             28.20233498      2.4222359500000001      8.1990238299999998
   743   1      18.270401339999999      5.9317487699999996      8.5180799599999997
   744   1      30.204965229999999             18.12501692      8.9811829799999998
   745   1      2.0067883900000001      20.129880889999999      8.3309632600000008
   746   1      6.2355778099999997             12.77967174      8.2248197300000001
   747   1             14.14306711             12.81027503      8.2256634599999998
   748   1      7.8772642499999996             20.55638437      8.9683512899999993
   749   1             26.57609703      17.650558849999999      9.0269006399999991
   750   1      28.724835509999998      16.525067740000001      8.0505191099999998
   751   1             24.63717012      21.463905029999999      9.2401911299999995
   752   1              4.14654861      16.738344300000001      8.3754022799999994
   753   1      5.9818618299999997      19.345524380000001              8.43220071
   754   1             10.13967094      27.001093310000002              8.24716703
   755   1      5.9742425499999996              3.44812539      9.1636805300000006
   756   1              10.2532467      24.630419750000001      9.0598434799999996
   757   1      4.2327956000000002             23.55198627      8.2320870900000003
   758   1      26.428650149999999      1.0606336700000001      9.6248045500000003
   759   1      26.315705909999998      19.920775920000001      8.3531685299999996
   760   1      28.543596220000001      25.778811510000001      9.6015162200000006
   761   1      14.263782580000001      17.635372100000001      9.3298717999999994
   762   1             26.41152465             12.65264917      8.3020121600000003
   763   1      8.2199975100000007      7.0560472299999999      9.1649561100000003
   764   1      5.8715399599999998             26.91417852      8.2909802700000004
   765   1      16.157640539999999              2.57461195      8.7389525399999997
   766   1             20.18222252      23.691228559999999      8.0469045300000008
   767   1      28.476221769999999      28.068789989999999      8.9749486600000008
   768   1      32.228380219999998      20.762794530000001      9.4741674400000004
   769   2             29.58720426      24.305938390000001              10.2127696
   770   2      27.880945709999999      24.128746530000001             10.37674361
