N2-dn2-coord-10bar/300K/snapshots/frame-70243/run-000/../data.lammps (written by ASE) 

770 	 atoms 
2  atom types
0.0      32.470343392086264  xlo xhi
0.0      28.120142247150884  ylo yhi
0.0      31.213473999158239  zlo zhi


Atoms 

     1   1      2.0293964600000001      1.1716090800000001    0.023552650000000001
     2   1      6.0880008999999999              1.17168918              0.02556874
     3   1      10.146952280000001              1.17170328    0.025416459999999998
     4   1      14.205754900000001      1.1716496700000001              0.02501565
     5   1             18.26456816              1.17166478              0.02504435
     6   1             22.32338141      1.1716496700000001              0.02501565
     7   1      26.382184030000001              1.17170328    0.025416459999999998
     8   1      30.441135410000001              1.17168918              0.02556874
     9   1  9.1780000000000006e-05      4.6866847900000002    0.025581599999999999
    10   1      4.0587011400000002      4.6866847900000002    0.025581599999999999
    11   1      8.1174961000000003      4.6866290399999997    0.025584639999999999
    12   1             12.17638011      4.6866852999999997              0.02491202
    13   1             16.23517979      4.6866942700000003    0.025006210000000001
    14   1      20.293956519999998      4.6866942700000003    0.025006210000000001
    15   1      24.352756209999999      4.6866852999999997              0.02491202
    16   1      28.411640219999999      4.6866290399999997    0.025584639999999999
    17   1      2.0293964600000001      8.2016395800000002    0.026613040000000001
    18   1      6.0881071599999999      8.2016314300000008              0.02543782
    19   1             10.14701835               8.2017045    0.025156850000000001
    20   1      14.205766049999999      8.2017080900000003    0.024990459999999999
    21   1             18.26456816      8.2017077599999997    0.025091249999999999
    22   1      22.323370260000001      8.2017080900000003    0.024990459999999999
    23   1      26.382117969999999               8.2017045    0.025156850000000001
    24   1      30.441029149999999      8.2016314300000008              0.02543782
    25   1  9.2789999999999998e-05             11.71671873    0.025573410000000001
    26   1              4.05870014             11.71671873    0.025573410000000001
    27   1      8.1176017700000003             11.71668698              0.02497914
    28   1             12.17637068             11.71673069    0.025001590000000001
    29   1      16.235177310000001      11.716730249999999    0.025074039999999999
    30   1      20.293959009999998      11.716730249999999    0.025074039999999999
    31   1      24.352765640000001             11.71673069    0.025001590000000001
    32   1      28.411534549999999             11.71668698              0.02497914
    33   1      2.0293964600000001             15.23167155              0.02525285
    34   1      6.0881728300000004      15.231678799999999    0.025062859999999999
    35   1             10.14698486      15.231762639999999               0.0250786
    36   1             14.20578841             15.23176782    0.025201990000000001
    37   1             18.26456816              15.2317707    0.025149979999999999
    38   1      22.323347900000002             15.23176782    0.025201990000000001
    39   1      26.382151459999999      15.231762639999999               0.0250786
    40   1      30.440963480000001      15.231678799999999    0.025062859999999999
    41   1      32.470327990000001      18.746748629999999    0.024951939999999999
    42   1      4.0588083299999997      18.746748629999999    0.024951939999999999
    43   1      8.1175770200000006      18.746803499999999    0.025222040000000001
    44   1             12.17637459      18.746799750000001    0.025428470000000002
    45   1      16.235159400000001      18.746805200000001    0.025487360000000001
    46   1      20.293976919999999      18.746805200000001    0.025487360000000001
    47   1      24.352761730000001      18.746799750000001    0.025428470000000002
    48   1             28.41155929      18.746803499999999    0.025222040000000001
    49   1      2.0293964600000001      22.261939099999999    0.025844880000000001
    50   1      6.0881419299999999      22.261841799999999    0.025489439999999999
    51   1             10.14692954             22.26176895              0.02551757
    52   1             14.20573559      22.261804690000002    0.025639160000000001
    53   1             18.26456816             22.26178625    0.025640119999999999
    54   1      22.323400729999999      22.261804690000002    0.025639160000000001
    55   1      26.382206780000001             22.26176895              0.02551757
    56   1             30.44099439      22.261841799999999    0.025489439999999999
    57   1  5.6450000000000003e-05      25.776936450000001              0.02613327
    58   1      4.0587364700000004      25.776936450000001              0.02613327
    59   1      8.1175325399999991              25.7767713    0.024734180000000001
    60   1      12.176376469999999      25.776831090000002              0.02545323
    61   1      16.235145939999999      25.776775220000001    0.025273360000000002
    62   1             20.29399038      25.776775220000001    0.025273360000000002
    63   1      24.352759840000001      25.776831090000002              0.02545323
    64   1      28.411603769999999              25.7767713    0.024734180000000001
    65   1  0.00024266000000000001              2.34304215     0.80166565000000001
    66   1      4.0585502699999996              2.34304215     0.80166565000000001
    67   1      8.1157394600000003              2.34454954     0.80169402000000001
    68   1             12.17601256      2.3433829099999999     0.80116898000000003
    69   1      16.235258170000002      2.3433209100000001     0.80090046999999998
    70   1      20.293878150000001      2.3433209100000001     0.80090046999999998
    71   1      24.353123750000002      2.3433829099999999     0.80116898000000003
    72   1      28.413396859999999              2.34454954     0.80169402000000001
    73   1      2.0293964600000001      5.8582218700000004     0.80119762000000005
    74   1      6.0870566899999998      5.8583336700000004              0.80194851
    75   1             10.14649655              5.85853131     0.80121584000000001
    76   1             14.20597894      5.8582938599999999     0.80086840999999998
    77   1             18.26456816      5.8583798500000004               0.8010794
    78   1      22.323157380000001      5.8582938599999999     0.80086840999999998
    79   1             26.38263976              5.85853131     0.80121584000000001
    80   1      30.442079629999999      5.8583336700000004              0.80194851
    81   1  0.00019438999999999999      9.3717771800000005     0.80082061000000004
    82   1      4.0585985400000002      9.3717771800000005     0.80082061000000004
    83   1      8.1175070500000004      9.3725002699999997     0.80149060999999999
    84   1      12.176590020000001      9.3733583399999993     0.80088261999999999
    85   1             16.23512199      9.3733789200000004              0.80106506
    86   1             20.29401433      9.3733789200000004              0.80106506
    87   1      24.352546289999999      9.3733583399999993     0.80088261999999999
    88   1      28.411629269999999      9.3725002699999997     0.80149060999999999
    89   1      2.0293964600000001             12.88692854     0.80220621000000003
    90   1      6.0883212999999996             12.88743848     0.80138414999999996
    91   1      10.147128609999999             12.88859852     0.80085256000000005
    92   1             14.20571782      12.888558189999999     0.80113791000000001
    93   1             18.26456816      12.888409899999999     0.80109381000000002
    94   1      22.323418490000002      12.888558189999999     0.80113791000000001
    95   1             26.38200771             12.88859852     0.80085256000000005
    96   1      30.440815019999999             12.88743848     0.80138414999999996
    97   1              0.00012365      16.403222639999999     0.80145666999999998
    98   1      4.0586692700000002      16.403222639999999     0.80145666999999998
    99   1      8.1174337899999998      16.403825260000001     0.80097196999999998
   100   1              12.1761021             16.40390721     0.80133072000000005
   101   1             16.23503496      16.403861750000001     0.80140014999999998
   102   1      20.294101359999999      16.403861750000001     0.80140014999999998
   103   1      24.353034220000001             16.40390721     0.80133072000000005
   104   1      28.411702529999999      16.403825260000001     0.80097196999999998
   105   1      2.0293964600000001      19.919205120000001     0.80066369999999998
   106   1              6.08752564             19.91894023     0.80122479000000002
   107   1      10.146078839999999             19.91919038     0.80159137999999996
   108   1      14.204993419999999              19.9192584     0.80178742000000003
   109   1             18.26456816      19.919377350000001     0.80194975999999996
   110   1      22.324142899999998              19.9192584     0.80178742000000003
   111   1      26.383057470000001             19.91919038     0.80159137999999996
   112   1      30.441610669999999             19.91894023     0.80122479000000002
   113   1              0.00142012      23.434536609999999     0.80178442000000005
   114   1      4.0573728100000004      23.434536609999999     0.80178442000000005
   115   1      8.1165862000000004      23.433936769999999     0.80182306000000003
   116   1             12.17555218      23.433996919999998     0.80156656000000004
   117   1             16.23465491      23.434040110000002     0.80170828999999999
   118   1      20.294481409999999      23.434040110000002     0.80170828999999999
   119   1      24.353584130000002      23.433996919999998     0.80156656000000004
   120   1      28.412550110000002      23.433936769999999     0.80182306000000003
   121   1      2.0293964600000001      26.949875330000001              0.80297246
   122   1      6.0858208300000003      26.950066320000001              0.80215291
   123   1             10.14598146      26.949241430000001     0.80165810000000004
   124   1             14.20520604      26.948673230000001     0.80131923999999999
   125   1             18.26456816             26.94858318     0.80108193999999999
   126   1      22.323930279999999      26.948673230000001     0.80131923999999999
   127   1      26.383154860000001      26.949241430000001     0.80165810000000004
   128   1             30.44331549      26.950066320000001              0.80215291
   129   1  0.00053733999999999997      28.117458500000001              1.53794645
   130   1              4.07921493    0.097222000000000003      1.3886633500000001
   131   1      8.1148424099999996             28.15679927      1.4061843599999999
   132   1             12.17191468    0.031779250000000002              1.53701629
   133   1      16.284046790000001   -0.036082599999999999               1.4274392
   134   1      20.343809759999999               28.114411              1.33067398
   135   1      24.409064010000002      28.038978579999998              1.47158725
   136   1             28.45597076   -0.083350350000000004              1.62196874
   137   1              1.90839618      3.5113602300000002              1.43043258
   138   1      6.0580285399999996              3.62515812               1.4831881
   139   1      10.169871000000001      3.5285021799999998              1.41997839
   140   1      14.224380330000001      3.5082975200000002              1.34022109
   141   1      18.309319779999999      3.5241606999999999              1.53741455
   142   1             22.26145421      3.6037529500000001      1.3482819699999999
   143   1             26.35760938      3.4880165700000001              1.56482622
   144   1      30.407842890000001      3.5052276400000002               1.5385248
   145   1      32.546193219999999      7.0365522699999996      1.5142359000000001
   146   1      4.0614349299999999      7.0601533400000003              1.67183689
   147   1      8.1304468700000001      7.0944636499999998              1.45298536
   148   1      12.183433880000001      7.0438719399999998      1.3378480399999999
   149   1             16.19894236      7.0294475299999997              1.51283586
   150   1      20.267725429999999      7.0148617499999997              1.48560103
   151   1      24.380163289999999      7.0786409099999998      1.4874022200000001
   152   1      28.419129559999998      7.0160827000000001              1.52771637
   153   1              1.99333279             10.55878208      1.4991480100000001
   154   1      6.0831436600000002      10.528267980000001      1.4661237499999999
   155   1      10.089713379999999      10.639155450000001      1.5201044399999999
   156   1             14.31229402             10.48954225              1.52177034
   157   1             18.32352289      10.568111419999999              1.46123384
   158   1             22.30325539             10.46291319               1.4052327
   159   1      26.370875300000002             10.47074366      1.5184643200000001
   160   1              30.4120439             10.54774838      1.4781569699999999
   161   1   -0.073913950000000006             14.03109523      1.4384958299999999
   162   1      4.0606956199999997      13.973765909999999              1.58935943
   163   1      8.2304587199999997      14.064885200000001              1.45154787
   164   1             12.30335296      14.136890770000001      1.5372531599999999
   165   1             16.20225619      14.012562470000001      1.4886910099999999
   166   1      20.344976849999998      14.021898930000001              1.52220149
   167   1      24.411221050000002             14.10552665      1.4125209400000001
   168   1      28.478308129999998      14.040559829999999              1.50850525
   169   1      2.0060743799999998      17.596819029999999              1.33240275
   170   1      6.1669876300000004      17.602000289999999              1.54695261
   171   1      10.086750370000001             17.60290135              1.48297217
   172   1             14.23232443      17.460582309999999              1.43850524
   173   1      18.237457500000001             17.60504109      1.4694664399999999
   174   1      22.268724250000002             17.53727057      1.4560928500000001
   175   1      26.399834340000002      17.662845350000001      1.4329665700000001
   176   1      30.566463150000001      17.534402450000002               1.5669213
   177   1             32.43067164             21.03049219              1.41369246
   178   1      4.1353916899999996      21.143780249999999              1.44736197
   179   1      8.0421361099999995      21.067638039999999              1.44818889
   180   1              12.2411899             21.09040306      1.5722492800000001
   181   1      16.214838839999999      21.056646740000001      1.4194127700000001
   182   1      20.261620600000001      21.134314310000001      1.5067093199999999
   183   1      24.446163760000001      21.131108449999999               1.5298965
   184   1      28.444119359999998      21.101202529999998      1.2851037300000001
   185   1      2.0346750899999999             24.64645732              1.45579828
   186   1      6.0873424700000003      24.709002120000001              1.45248567
   187   1             10.22366802      24.653039199999998              1.32132618
   188   1             14.17633081      24.697481140000001              1.38635671
   189   1      18.237061019999999      24.674562340000001      1.4758598300000001
   190   1      22.345289869999998             24.54190088              1.52686145
   191   1      26.327695760000001      24.547676160000002              1.53891435
   192   1             30.48214437             24.55651349      1.3674827000000001
   193   1      2.0142594100000002              1.10877767              2.34964817
   194   1      6.1324426599999997               1.2790724      2.3584756200000001
   195   1             10.16170938               1.1134879      2.4841570100000001
   196   1      14.167140509999999      1.2474319199999999      2.2919505299999998
   197   1             18.29842682      1.1549896900000001      2.4148980799999999
   198   1      22.356438310000001      1.0853219999999999              2.41250594
   199   1      26.441881630000001      1.1887133400000001      2.4401090299999999
   200   1             30.43973617              1.20175539      2.5324984000000001
   201   1      32.500763169999999      4.6053244099999997      2.4678213200000001
   202   1      4.0301774300000002      4.6603110699999997      2.4283471200000002
   203   1      8.1530573400000002      4.9146709299999998              2.30816394
   204   1             12.08710415      4.7272421800000002      2.3854435199999999
   205   1      16.294003379999999               4.6504436              2.43550457
   206   1              20.3450165      4.7427203799999997      2.4618162699999999
   207   1      24.289730420000001      4.6547011400000002      2.4620624900000001
   208   1      28.406624740000002      4.6599003699999999      2.3809070800000001
   209   1      2.0413573500000002      8.1983534900000006      2.4986625999999998
   210   1      6.0540378300000004      8.1872243499999993      2.3944389799999999
   211   1             10.24217211      8.1214906199999994      2.4267348800000001
   212   1      14.181698369999999      8.1489657100000006      2.4101539299999999
   213   1      18.217580699999999      8.1437057999999993      2.4589302599999998
   214   1             22.40547256              8.14600306              2.44143379
   215   1      26.407678610000001      8.1827303100000002      2.4258576600000001
   216   1      30.379913770000002              8.07124767      2.3654700800000001
   217   1      32.381409079999997             11.63327838               2.4425089
   218   1      4.0593290399999997             11.69953868      2.4531540600000001
   219   1      8.1966059100000006             11.68133183      2.4428144600000001
   220   1      12.144118840000001      11.643857069999999      2.3676421300000001
   221   1      16.413218319999999             11.61285148      2.3165144400000002
   222   1             20.36901718      11.616359539999999      2.4451488399999999
   223   1             24.46839761      11.731038679999999      2.3630930000000001
   224   1      28.410064089999999             11.64291497              2.40716412
   225   1               2.0607183             15.31150382      2.4686933500000001
   226   1      6.1926628399999997      15.166267550000001      2.4361345700000001
   227   1             10.25109863      15.299671869999999      2.4009714799999999
   228   1             14.33446417             15.18469458      2.4662873900000002
   229   1      18.301812330000001             15.14467516      2.4147878600000001
   230   1      22.216142179999999             15.19513985      2.4374125499999999
   231   1      26.450818300000002              15.3066175      2.3992296400000002
   232   1             30.37493757             15.13988883              2.49499863
   233   1      32.504867240000003      18.755890900000001      2.4384384300000002
   234   1      4.0700286300000004      18.654662739999999      2.5168505900000002
   235   1      8.0532382400000007      18.799673940000002              2.47707108
   236   1             12.21943237      18.741479640000001      2.4502755999999999
   237   1      16.257698950000002             18.73603344      2.4053893300000002
   238   1      20.247000289999999             18.75552476      2.4418353100000001
   239   1             24.21317775             18.74631346              2.34906229
   240   1      28.422369939999999      18.700929510000002              2.48883221
   241   1      2.1081563800000001      22.326968109999999      2.2754337200000001
   242   1      6.0906290700000003      22.282460199999999      2.4373275400000001
   243   1             10.11866859             22.15979243              2.36706978
   244   1             14.25048982      22.285240550000001      2.4154705999999999
   245   1      18.258795809999999      22.259663320000001      2.4914239399999998
   246   1      22.379386419999999             22.21169716      2.3863305399999999
   247   1      26.387290350000001      22.276410080000002      2.4165071500000002
   248   1      30.534425519999999      22.297805870000001      2.3956887600000001
   249   1   -0.059053210000000002      25.895739259999999      2.4476532199999999
   250   1      4.0945227199999996      25.852557180000002      2.4305557200000001
   251   1      8.1730729100000001      25.822618389999999      2.4067751199999998
   252   1      12.221699770000001             25.85083994      2.3854040900000002
   253   1      16.120210889999999             25.70818706      2.4192678700000001
   254   1             20.24059394      25.820725679999999      2.5006780700000002
   255   1             24.31052747      25.730717219999999      2.3967374100000001
   256   1      28.389998250000001      25.726737050000001      2.4654484399999999
   257   1    0.073533749999999995      2.4371019899999999      3.2365842300000001
   258   1      4.0198007599999999               2.3380063      3.2556632699999999
   259   1      8.1709920300000007      2.3931926400000001      3.1142621899999998
   260   1      12.229885060000001      2.3333692199999998      3.2809312500000001
   261   1      16.325466349999999      2.3629535399999999              3.22692355
   262   1             20.31827346      2.3455205399999999      3.3781004299999999
   263   1      24.288691870000001      2.3162514000000001      3.2663710899999998
   264   1      28.451379289999998      2.2799727700000001              3.27847205
   265   1      2.0475406700000001      5.8359925400000003      3.2381530000000001
   266   1      6.1046365500000004      5.8591481200000004      3.3557948999999998
   267   1             10.09796098      5.9548955299999999      3.2592378000000002
   268   1             14.17469541      5.8575462900000002      3.1447851400000002
   269   1      18.325647539999999      5.8964342600000004      3.2840277499999999
   270   1             22.39769338      5.8994396399999998      3.2725777100000002
   271   1             26.43449025      5.8652447099999998      3.3256943300000001
   272   1      30.483933019999998      5.8234888800000002      3.2482997400000002
   273   1      32.513961639999998      9.3663389600000002              3.28884372
   274   1      4.0308513799999997      9.2811669299999995      3.3025741200000001
   275   1      8.1111106599999996      9.4092361800000006      3.2173292299999998
   276   1      12.167814570000001      9.3880237300000005               3.3395465
   277   1             16.25113086      9.3132989300000002      3.2019991499999998
   278   1      20.455040709999999      9.1505507799999997      3.3400472400000001
   279   1      24.425210069999999      9.3284067000000004               3.1838981
   280   1      28.462055929999998      9.2902707200000005      3.1745872300000002
   281   1      2.0258842100000001      12.909468540000001      3.4032027500000002
   282   1      6.1240421600000001      12.755710000000001      3.2734698799999999
   283   1      10.114894019999999      12.819707709999999              3.29913744
   284   1      14.182748119999999      12.713729710000001      3.3350847099999998
   285   1             18.34139785             12.81886605              3.42458163
   286   1             22.36159185             12.83500231      3.2378053900000001
   287   1      26.376693979999999             12.97132906      3.2259440100000001
   288   1      30.449075650000001             12.82398579      3.2455579700000001
   289   1             32.37897959             16.45918679              3.29728917
   290   1      4.2006548199999996             16.36968186      3.2258488999999999
   291   1      8.0929745000000004      16.482421200000001      3.2016652799999998
   292   1             12.24243712      16.461077320000001              3.22772177
   293   1      16.313462869999999      16.477241469999999      3.2624232499999999
   294   1      20.200864330000002             16.41065721              3.21038925
   295   1      24.300930080000001      16.205834060000001      3.1823909700000002
   296   1      28.423950080000001      16.314942510000002      3.2379212399999999
   297   1      2.1191038400000002             19.88227066      3.2066165500000001
   298   1              5.93358835      19.936258859999999      3.2717627500000002
   299   1             10.19286492      19.846948470000001      3.2269456600000002
   300   1             14.24078089      19.946123360000001      3.1276757000000002
   301   1      18.358745429999999             19.94180283      3.2704354100000002
   302   1             22.26359171             19.99806615      3.2763451099999998
   303   1             26.38162736      19.909362659999999      3.2525168799999999
   304   1      30.564498759999999      19.977815639999999      3.1972425800000002
   305   1     0.13799586999999999      23.476202310000001      3.1957753900000001
   306   1      4.1410270499999999      23.474658900000001      3.1882702100000002
   307   1      8.1644585700000007             23.41036312      3.2446604899999998
   308   1      12.252240990000001      23.405009790000001      3.2159194900000001
   309   1             16.03750282      23.467171889999999      3.1909022399999998
   310   1      20.377874070000001             23.41576538      3.2376523499999998
   311   1      24.329241490000001      23.354011499999999      3.2606334499999998
   312   1      28.394555279999999             23.33099236      3.2866542399999998
   313   1               2.0471735      26.902203650000001      3.2306638699999999
   314   1      6.1199917900000003      26.966638289999999      3.3228085100000002
   315   1             10.22502403      26.861635750000001      3.2718731999999999
   316   1             14.27794389      27.056763459999999      3.1705026100000002
   317   1      18.265174399999999              26.9954146      3.3265677500000002
   318   1      22.329193709999998      26.891185159999999      3.3255762199999999
   319   1      26.322326700000001      26.997896390000001      3.2329941199999999
   320   1      30.502239100000001      27.083785240000001      3.2627999299999999
   321   1     0.13207339000000001  -0.0077665199999999998      4.0588999599999998
   322   1      3.9758314299999999    -0.15585800999999999      4.0525598699999996
   323   1      8.0805295400000006             28.11367065              3.96096425
   324   1             12.18447973   -0.061573780000000002              4.14053352
   325   1              16.1495374      28.308013299999999      4.0988131799999996
   326   1             20.32872149    0.079761280000000004      4.1493294599999997
   327   1      24.417559440000002             -0.02324526      3.9680483899999999
   328   1      28.508824099999998    0.041060960000000001      4.0388511200000003
   329   1      2.1172556600000001      3.4938202700000001              4.00679593
   330   1      6.1005712499999998      3.4850262399999998      3.9179001100000002
   331   1      10.094255950000001      3.6116211800000002      4.0011238799999997
   332   1      14.327722100000001      3.4265325999999998      4.0938438399999999
   333   1      18.339039039999999      3.5079451000000001      4.1015033499999998
   334   1      22.282646069999998              3.52570943      4.1572616299999998
   335   1      26.271444679999998      3.4025906799999999      4.2008652900000003
   336   1      30.431863979999999      3.5783722099999999      4.0626116200000002
   337   1    0.024563270000000002      7.0335385199999996              4.10135322
   338   1      3.9602551099999999      6.9817065200000004      4.1482423300000004
   339   1      8.1799935999999995      7.0970228300000002      4.0740787699999998
   340   1              12.1807862      6.9496379599999996      4.0675931900000002
   341   1      16.294469150000001      7.0533511999999998      4.1147550400000004
   342   1             20.32247834      7.0166043299999998      4.0838463100000002
   343   1      24.401503049999999      7.0750526499999999      4.1622560000000002
   344   1      28.428096239999999              7.03300225      4.0719603900000001
   345   1      2.0895728500000001             10.41167072      4.1887911899999999
   346   1      6.1368944399999998      10.480820619999999      4.1402755000000004
   347   1             10.09733548             10.47348468      4.1437726000000001
   348   1             14.19764049      10.467845759999999      4.1939471599999996
   349   1      18.341205609999999              10.3961387      4.1038719199999996
   350   1      22.472742490000002             10.49603035      4.0636668499999997
   351   1             26.26119843             10.55242009      3.9901174799999999
   352   1      30.455921159999999      10.493006319999999      4.0411589599999997
   353   1      32.522023939999997             14.09600644      4.0929006599999997
   354   1      4.2872332699999998      14.037576749999999      4.1157494699999999
   355   1      8.1437169300000001             14.11971642      4.0272845999999998
   356   1      12.282706640000001             14.06946314      4.0794580099999997
   357   1      16.190660529999999             14.02346758      4.0597244400000001
   358   1      20.306906229999999              13.9742224      4.2068067500000002
   359   1      24.282078500000001             14.06604323      3.9803948299999998
   360   1             28.45653038             13.89795408      4.2445463700000001
   361   1      2.1172769300000001             17.59709234      4.0809327900000003
   362   1      6.0866934500000003      17.551758840000002      4.1013252600000003
   363   1             10.10302701      17.608963379999999      4.1898931299999997
   364   1             14.24618635      17.660566169999999      3.9870558800000002
   365   1             18.29771246      17.537605920000001      4.0260572699999999
   366   1      22.298685689999999      17.632851339999998              3.85949564
   367   1      26.496035030000002      17.386454140000001      4.0506752300000004
   368   1      30.431754049999999             17.64859676      4.1296485799999996
   369   1      32.450096029999997      21.132528140000002              4.13070834
   370   1              3.98677656             21.13734651              4.07413618
   371   1              8.07568397             21.02142169      4.0088094300000003
   372   1             12.09983355      21.172900080000002              4.08212668
   373   1      16.272385809999999      21.206783380000001      4.0316527100000004
   374   1             20.21369889      21.114675420000001      4.0629725099999998
   375   1      24.409266890000001      20.942620680000001      4.1453236100000002
   376   1      28.549304960000001             20.90546909              4.01970122
   377   1      2.0356861400000001      24.587996499999999      4.0951123999999997
   378   1      6.1564853099999999      24.670832350000001      4.0432368700000003
   379   1             10.08461533             24.47472758      3.9845666899999999
   380   1      14.140325089999999             24.71649579      4.0692325900000004
   381   1      18.167157830000001      24.598823660000001      4.0935503300000002
   382   1             22.33579284      24.616360010000001      4.1578983999999997
   383   1      26.411524589999999             24.64025724      4.0767145500000002
   384   1             30.50328901      24.580236060000001      3.9699865499999998
   385   1      2.1923530499999999      1.2171241699999999              4.95526365
   386   1      6.1016484000000002              1.21706458              4.87772805
   387   1             10.18991471              1.14880914      4.9061979200000003
   388   1             14.17887311      1.2548102800000001      4.9743044999999997
   389   1      18.215161810000001              1.15397163      4.8521702199999996
   390   1             22.39596358              1.11449734      4.8810160500000004
   391   1      26.371478629999999      1.0603825600000001      4.9787740400000002
   392   1      30.488053130000001              1.20581633      4.9040216499999998
   393   1              0.01620628              4.60624798      4.9204594699999999
   394   1      4.0549520499999998      4.6508355100000003      4.9550186500000004
   395   1              8.11240688      4.7157967599999999      4.8075330699999999
   396   1             12.09201577      4.6696346899999996               4.9059187
   397   1             16.26999537      4.6767243399999998      4.9058992200000002
   398   1              20.3905262      4.7777177999999996      4.9982725800000001
   399   1              24.3738147      4.6658614399999996      4.9855703499999997
   400   1      28.324483529999998      4.6318962399999997      4.9458669200000003
   401   1      2.1910733100000002      8.1933826500000002      4.9687321100000004
   402   1      6.0945869000000004      8.1591124300000004      4.9095410900000003
   403   1             10.30317945      8.2555778699999998      4.9784311299999997
   404   1             14.38710685      8.1440325700000002      4.8912711800000004
   405   1      18.301069300000002      8.1778498000000006      4.9147056899999999
   406   1      22.382978420000001      8.2596128400000008              4.93324126
   407   1      26.385041139999998      8.1636580500000004      4.9276745200000001
   408   1      30.497210840000001              8.13948407      4.8820889799999998
   409   1     0.10655149999999999              11.6709733      4.9520199800000002
   410   1              4.08823325      11.674671930000001      4.8692099300000002
   411   1      8.2081060000000008      11.756935650000001      4.8678209099999998
   412   1      12.162356819999999      11.692438859999999              4.94435453
   413   1             16.20848685             11.75197271      4.8433627599999998
   414   1             20.35648437             11.61504849      4.8688847199999996
   415   1             24.39387988      11.778672200000001      4.8368054999999996
   416   1             28.33014309      11.654851750000001      4.8522131100000001
   417   1              2.12604382             15.25503469              4.92508882
   418   1      6.1948734500000002             15.20869165              5.00982153
   419   1      10.093336150000001      15.257903600000001      4.8996656200000004
   420   1      14.212685929999999             15.18035018      5.0086482800000001
   421   1             18.15194009      15.212842520000001      4.9836461700000001
   422   1             22.24824267             15.29911938      4.8634728000000003
   423   1      26.278960399999999             15.13383031      4.9143634799999996
   424   1             30.47879889             15.17695402      4.9096901199999996
   425   1    0.048106639999999999      18.709870800000001      4.9936876100000003
   426   1      4.0878575599999998      18.875549370000002      4.9607198199999996
   427   1      8.1515125000000008      18.661410230000001      5.0355852600000004
   428   1             12.13669526             18.82638743      4.9239495900000003
   429   1      16.238368149999999      18.784752220000001      4.7940071700000004
   430   1              20.3055916             18.75479683      4.9188015600000004
   431   1      24.282451250000001             18.66221196      4.8204968099999999
   432   1      28.395206649999999             18.65979196      4.9669626200000003
   433   1              1.99606818      22.272051739999998      4.7869245899999999
   434   1      6.0469196399999996      22.169123819999999      4.8376661900000002
   435   1      10.094722000000001      22.230933100000001              4.93353457
   436   1             14.11523261      22.199768760000001      4.8487242699999999
   437   1      18.207681139999998      22.285154940000002      5.0359524899999997
   438   1             22.33742509      22.241278730000001      4.9639767099999998
   439   1             26.46253162             22.12972087      4.9216337799999996
   440   1             30.46705609      22.273206519999999      4.8843941800000001
   441   1      32.536931350000003      25.848012109999999      4.9600708400000002
   442   1      4.1352518399999996      25.731079309999998      4.8956625699999998
   443   1      8.1705805500000004      25.819234850000001      4.9122589400000001
   444   1             12.14427843              25.7102407      4.9334268899999998
   445   1      16.178396240000001      25.772123730000001      4.8308380099999999
   446   1      20.274845620000001             25.74033506      4.9077756600000004
   447   1             24.34076503      25.748651630000001      4.8980222800000002
   448   1             28.42018028      25.709020410000001              4.84037834
   449   1     0.12880361000000001              2.36498366              5.81373564
   450   1      4.1342560099999996      2.4438835999999999      5.6891991700000002
   451   1      8.1923780900000001      2.2951994500000001      5.5635256699999998
   452   1      12.118196709999999      2.3345877100000001      5.8023718799999999
   453   1      16.321919900000001      2.3928529799999998      5.7559130999999999
   454   1      20.332827510000001      2.2955795499999998      5.8170721199999997
   455   1      24.347480229999999      2.3139482299999998      5.8350681499999997
   456   1      28.512853249999999              2.28264339      5.7723016200000004
   457   1      2.0222663999999999              5.90096781      5.7853437000000003
   458   1      6.1290293499999997      5.8755297100000003      5.6738205500000003
   459   1             10.09112275      5.9087756599999999      5.6684849000000002
   460   1      14.232732329999999      5.7624939099999999      5.6420494699999999
   461   1      18.332008030000001              5.80635426      5.7417874099999997
   462   1      22.442935389999999      5.9213720900000002      5.8072130800000004
   463   1             26.44986054      5.8302010099999997      5.7228238600000001
   464   1             30.46940949      5.7316585099999999      5.7877960399999999
   465   1             32.57965995      9.3302445200000008      5.7245784000000004
   466   1      4.0767172699999996      9.3912294000000003      5.8115740000000002
   467   1      8.1918348200000004      9.4125345500000002      5.8266877199999998
   468   1             12.34661728      9.3654231600000006      5.7523784300000003
   469   1      16.377923840000001      9.3954008800000004      5.7325459900000002
   470   1      20.476899800000002      9.2994432699999994      5.8376060699999996
   471   1             24.41005831      9.3923779300000003      5.7895680299999999
   472   1             28.45343132      9.3904264299999998      5.6450689199999999
   473   1      2.0630063600000002             12.94875289      5.8801714699999996
   474   1              6.11962195      12.751187359999999      5.7500164099999997
   475   1      10.150792040000001             12.95706062      5.8451123100000002
   476   1      14.194397309999999             12.80952574      5.7752817600000004
   477   1             18.20724817             12.88866151      5.8031331799999997
   478   1      22.265757239999999             12.91005219      5.6880142500000002
   479   1             26.30810185             12.91068407      5.6950284099999999
   480   1             30.46715622             12.81423234      5.6380028500000003
   481   1      32.509297119999999              16.4225189              5.77737999
   482   1      4.0512033499999998      16.472139070000001      5.7776951399999996
   483   1      8.1386123999999995      16.385980310000001      5.7566536299999997
   484   1             12.11789065      16.421047269999999      5.6550744999999996
   485   1      16.198878239999999      16.503826289999999      5.6303242200000003
   486   1             20.27367508      16.476445569999999              5.85394521
   487   1      24.399869169999999             16.39631382              5.67197073
   488   1      28.468653669999998      16.402637739999999      5.7014977699999996
   489   1              2.06252792      19.943577829999999      5.6324828699999996
   490   1      6.0965729700000004      19.952516639999999      5.7834705499999997
   491   1             10.02001866             19.93866637      5.8376886199999998
   492   1      14.147038820000001             19.86073669      5.5542469900000002
   493   1      18.256242230000002             20.00345703      5.8176208200000001
   494   1             22.23267237      19.860225230000001      5.7129338199999999
   495   1             26.40523116             19.82810301      5.6217915400000003
   496   1             30.50813097             19.77262503      5.8004038700000002
   497   1      32.438984490000003      23.541602489999999      5.7332957899999997
   498   1      4.0769776799999997      23.384994460000001      5.7412248999999997
   499   1      8.1010230500000002      23.378004130000001      5.8639203499999999
   500   1             12.12664451      23.347504709999999      5.7312625099999996
   501   1      16.171416959999998             23.35741324      5.5974510799999999
   502   1             20.29619039      23.445419869999998      5.6886623099999998
   503   1      24.402305340000002      23.309485280000001      5.7425507900000001
   504   1      28.367513760000001             23.43531162      5.7072285699999998
   505   1              2.11733437             26.90616005              5.60675671
   506   1      6.0552335499999996      26.897954330000001              5.75568861
   507   1      10.231398329999999             26.96944289      5.7206217199999996
   508   1             14.20647941             27.06559678      5.6618174300000002
   509   1             18.32116633      26.890889000000001      5.7722598200000004
   510   1      22.201442610000001             26.91277887              5.74627686
   511   1             26.39628561      26.886617390000001      5.7103076399999999
   512   1      30.476720719999999             26.99137348      5.7253253600000003
   513   1      32.604676060000003     0.14106205999999999      6.5753265399999998
   514   1      4.1128557499999996   -0.078224420000000003      6.6088066100000002
   515   1              8.14014171             28.07863459      6.5138241299999997
   516   1             12.21511402    0.035057419999999999      6.6752200899999998
   517   1      16.282585699999998    0.027443189999999999      6.6178121299999999
   518   1             20.25300537   -0.072583759999999997              6.64055806
   519   1      24.212864310000001   -0.023768339999999999      6.5181637800000001
   520   1             28.35412758      28.115766820000001      6.5286499899999999
   521   1              2.11883182               3.5116456               6.5214102
   522   1      6.1529901300000001              3.54831115      6.5601289899999999
   523   1             10.07854152      3.4540980100000001      6.4988262900000002
   524   1             14.21814767              3.56178325      6.6344784499999996
   525   1      18.314462200000001      3.4966523600000001              6.60301165
   526   1      22.344265960000001      3.5256780399999998      6.5721697099999998
   527   1      26.346572129999998              3.43368356      6.6725934599999999
   528   1      30.530796680000002               3.4296224      6.5703069699999999
   529   1             32.50784986      6.9153905900000003      6.5538047800000001
   530   1      4.2046206399999999      7.0442787400000002      6.6774460900000001
   531   1      8.2807132400000008      7.1347630100000003      6.5898182900000002
   532   1      12.237165750000001      6.9696535500000003      6.4477446399999998
   533   1      16.221740239999999      6.9231891699999997      6.6184791499999998
   534   1      20.275538560000001      7.0028157499999999      6.6074291499999998
   535   1      24.469521780000001      7.0495753299999997              6.63623355
   536   1      28.441101379999999      6.9509358099999998      6.5516155899999999
   537   1      2.0677336999999998             10.50928148      6.6370391099999999
   538   1      6.0931549699999996             10.45288955              6.65764435
   539   1      10.280910739999999      10.574816500000001              6.67144666
   540   1      14.223695879999999             10.58644215      6.7009197399999998
   541   1      18.299836769999999      10.533711820000001      6.6302399000000003
   542   1             22.42121569             10.55200144      6.5740288600000003
   543   1      26.512780469999999              10.5784711              6.51584568
   544   1      30.494139430000001      10.596007549999999      6.5292592699999998
   545   1      32.397408650000003      14.156898549999999      6.5840817500000002
   546   1      4.1798148199999998      14.150825620000001      6.5444999399999997
   547   1      8.1466846700000008      14.053880850000001      6.5652866400000001
   548   1             12.25014651      14.038055160000001      6.5339237299999997
   549   1             16.15145781             14.07920255      6.5343245899999998
   550   1      20.299208669999999             14.09900079      6.7008762300000004
   551   1      24.354810749999999      14.075758929999999      6.4734514799999996
   552   1             28.35716918             14.01996069      6.5608397900000002
   553   1      1.9909727699999999      17.679525770000001      6.5976685399999999
   554   1      6.0647417700000004      17.555685539999999      6.6410842299999997
   555   1      10.127681409999999      17.531510350000001      6.5415967799999999
   556   1      14.229483159999999      17.624708859999998              6.55733122
   557   1      18.189286899999999             17.66500241      6.4621236499999997
   558   1             22.33081408      17.681767829999998      6.4700878700000004
   559   1      26.289110050000001      17.442006800000001              6.55015869
   560   1      30.453607309999999      17.503385770000001      6.7289152699999999
   561   1   -0.056873380000000001      21.183063400000002      6.4768988800000002
   562   1              3.98888526      21.115856350000001      6.6593605199999999
   563   1      8.0305975299999997             21.10027539      6.6569928999999997
   564   1      12.181553989999999      21.084265169999998      6.5897114999999999
   565   1      16.142560209999999      21.137231069999999      6.6092472000000004
   566   1             20.27215653      21.058936360000001      6.6964619699999997
   567   1             24.32377357      20.954031990000001      6.5277518600000004
   568   1      28.473391410000001      21.113046369999999      6.5857025499999997
   569   1      2.0603329800000001      24.573977500000002              6.59898659
   570   1      6.0802894399999996      24.526285680000001      6.5793400899999996
   571   1             10.13463741      24.669384480000002      6.6377387199999998
   572   1               14.184638             24.61506627      6.4784422399999997
   573   1      18.324247400000001      24.547746490000002      6.5108824500000004
   574   1             22.33131728             24.61544713      6.6258412099999999
   575   1             26.36798932             24.55044693      6.5301321200000002
   576   1      30.347071660000001      24.612148059999999              6.49432761
   577   1      2.0239883500000002      1.1551345799999999      7.7332458600000002
   578   1      6.1792538300000004              1.14002129      7.5082527199999998
   579   1      10.129353529999999      1.1041522100000001              7.41340383
   580   1             14.28596274      1.2148334000000001      7.4599729799999999
   581   1      18.208861290000002              1.09728713              7.56530404
   582   1      22.194459760000001      1.1524173099999999      7.4716178500000003
   583   1             26.38485034      1.0930119899999999              7.49927893
   584   1      30.412717480000001      1.1435285500000001      7.5162364300000002
   585   1    0.088894840000000003      4.4922816000000001      7.6079218300000004
   586   1      4.0692428500000002      4.7312083100000004      7.4100728900000004
   587   1      8.2525069500000008      4.7294176099999996      7.4098839400000003
   588   1      12.082005150000001      4.7191531299999996      7.3979580499999997
   589   1      16.273331779999999      4.6777437300000004      7.5586990500000004
   590   1      20.298722690000002      4.6324436999999996      7.6419989199999998
   591   1      24.392558059999999      4.7341245199999999      7.5921237899999996
   592   1      28.517735909999999      4.6263970199999997              7.43902135
   593   1      2.0982142700000002      8.1627481599999996              7.45166985
   594   1      6.2007128900000001      8.2474836200000006      7.6349903799999996
   595   1             10.28220606      8.1695477800000003      7.5340136700000002
   596   1      14.289856889999999      8.1578151600000002      7.3948280100000003
   597   1      18.228281819999999      8.1627393599999998      7.4532393700000004
   598   1             22.33783395      8.2619905399999993      7.5599268799999999
   599   1      26.471545370000001      8.1478274800000001      7.5362152399999998
   600   1      30.525993440000001      8.1329746200000006      7.3354252999999998
   601   1    0.041158779999999999             11.71567127      7.3835612800000003
   602   1      4.0844165099999996             11.68343044      7.6432520100000003
   603   1      8.1030238099999998      11.756819220000001      7.5733346600000004
   604   1      12.050528359999999      11.978494080000001              7.61839172
   605   1      16.187017650000001             11.76546819      7.5541770399999999
   606   1      20.291066529999998             11.63652619      7.5450797400000003
   607   1             24.47085551             11.71967493      7.5463253999999997
   608   1      28.387808249999999             11.71876078      7.4172668000000002
   609   1      2.0911462300000001             15.32651263      7.5511876300000003
   610   1      6.1122293799999996             15.22291924      7.6240386000000004
   611   1             10.06007456      15.317110019999999      7.5545378699999999
   612   1             14.09046727      15.186957960000001      7.5285864299999998
   613   1      18.158152879999999             15.30499212              7.56212237
   614   1      22.306059909999998      15.206529250000001      7.4467076099999998
   615   1             26.40892036             15.17803874      7.4756709199999998
   616   1      30.333872299999999             15.14503824      7.6658346000000002
   617   1      32.489214959999998      18.785565200000001      7.6323502200000002
   618   1      4.0398256200000002      18.862447410000001      7.6336875300000004
   619   1      8.0164060900000003              18.7707546      7.5352009999999998
   620   1               12.144299      18.794500410000001              7.63067735
   621   1      16.235484809999999      18.806540819999999      7.2909876799999997
   622   1      20.225116060000001             18.76929749      7.5124630400000001
   623   1      24.290998030000001      18.778974460000001      7.4831633200000001
   624   1      28.389706889999999      18.616581889999999      7.6083156699999996
   625   1              1.94021979      22.275811449999999      7.4143622799999997
   626   1      6.0978396200000002              22.2723315      7.4428042599999999
   627   1      10.100421620000001      22.320084900000001      7.5664354100000004
   628   1      14.097496850000001             22.29345605      7.6034087599999998
   629   1      18.309912090000001      22.373005809999999      7.5614180299999996
   630   1      22.329735400000001      22.272849050000001              7.45334612
   631   1      26.337551019999999             22.27987989      7.3913328900000002
   632   1      30.343501029999999      22.259525750000002      7.5112674000000004
   633   1      32.467256910000003      25.814380809999999      7.4275314000000003
   634   1      4.1071410100000003             25.72015038      7.3197433500000004
   635   1      8.1480261600000006      25.816403090000001      7.5683082800000001
   636   1             12.25869795      25.791643369999999      7.4962797099999996
   637   1      16.235988240000001      25.724506399999999      7.4513863599999999
   638   1      20.186272580000001             25.75093498      7.5559839000000002
   639   1      24.276793300000001      25.722201760000001      7.4534349000000004
   640   1      28.295969410000001      25.747625589999998      7.2330634900000002
   641   1      32.495508299999997      2.1866625000000002      8.3407394000000004
   642   1      4.0648362499999999      2.3360995400000002      8.0577247500000002
   643   1      8.2243723699999993      2.3761288299999999      8.0970251599999994
   644   1             12.16567208      2.5292650700000001      8.2040514600000005
   645   1      16.249686109999999      2.3419694600000001      8.1994281000000004
   646   1      20.239045829999998      2.2803083800000001      8.1769971600000009
   647   1      24.398355039999998      2.4126243600000001      8.3534848200000003
   648   1      28.385666879999999      2.3065467800000001      8.1125353400000009
   649   1      2.1239526400000002      5.8568965000000004      8.2333096599999998
   650   1      6.1005475699999998      5.8316001200000001      8.0420489699999997
   651   1             10.18023852      5.8690516500000003      8.1067279299999999
   652   1      14.172247280000001      5.9351216300000003      8.1412312999999994
   653   1      18.313064700000002      5.8957898899999996      8.2627509400000001
   654   1      22.297519919999999      5.7871274000000001      8.3528091300000007
   655   1      26.556748150000001      5.9041818599999996      8.2119120700000003
   656   1      30.568386759999999      5.8453728700000003      8.1080583399999995
   657   1      32.464302590000003      9.3602193200000006      8.1129306400000001
   658   1      4.0442696400000004      9.2575603799999993      8.4106377600000002
   659   1      8.2829335900000007      9.3561216900000002      8.2781201400000004
   660   1             12.29759005      9.4585182700000008      8.1675601800000006
   661   1      16.218435790000001      9.4270398899999996      8.1217619299999999
   662   1             20.27063892      9.2815175300000003      8.2609319499999998
   663   1      24.380586869999998      9.2922668099999992      8.1242945300000002
   664   1      28.468119089999998      9.3802568100000006      8.0236266599999997
   665   1      2.0686587300000001             13.00467111      8.1769239500000008
   666   1      6.0283769700000001             12.93561047      8.2312282900000007
   667   1      9.9632564699999993      12.952403459999999      8.2104858600000004
   668   1      14.125403410000001      12.950166810000001      8.1635664699999992
   669   1             18.30105403      13.024825140000001      8.2345898700000006
   670   1      22.345217030000001      12.825767859999999      8.0235500500000008
   671   1      26.462134840000001      12.942836010000001      8.2012536399999991
   672   1      30.497233170000001             12.68372377              8.14566576
   673   1   -0.079878119999999997      16.467135129999999      8.1847871600000008
   674   1      4.1311428299999999      16.531658279999998      8.2630923900000006
   675   1      8.1513539700000006              16.3897546      8.3093828700000003
   676   1      12.059631810000001      16.471823879999999      7.9796379200000001
   677   1      16.133087140000001      16.490953650000002      8.1143320200000009
   678   1             20.23194745      16.557713079999999      8.2808558699999999
   679   1      24.493426289999999             16.38474205      8.1733515800000003
   680   1      28.318091989999999             16.23690719      8.0985337499999996
   681   1              1.89923642      20.002337799999999      8.0645776399999995
   682   1      6.1195031000000002      20.014401759999998      8.2369339099999994
   683   1      10.073566659999999      19.959968329999999      8.2044995299999997
   684   1      14.239151919999999      19.831506829999999      8.1955101100000007
   685   1      18.269550169999999      19.955417050000001      8.0805544499999993
   686   1      22.275033270000002      19.798192289999999      8.2297388199999997
   687   1      26.321774399999999             20.00607596      8.0333656100000006
   688   1             30.37899445             19.90684345      8.2943819699999999
   689   1      32.508934519999997      23.494919320000001      8.2349742500000005
   690   1      3.9582061300000002      23.264121540000001      8.1741448699999992
   691   1      8.0220321499999994      23.396364439999999      8.1422607300000003
   692   1              12.1480072      23.488507259999999      8.2333890600000004
   693   1      16.177780299999998      23.417978560000002      8.2241684399999997
   694   1      20.370533089999999             23.37392942      8.2006210700000004
   695   1             24.29072816              23.5051019      8.2174995299999996
   696   1      28.449375710000002      23.503270959999998      8.0957409600000005
   697   1      1.9756211400000001      26.912247579999999      8.2059907699999997
   698   1      6.0991603699999999      26.877188449999998      8.1312754100000006
   699   1             10.23868294             26.97893243      8.2702919099999992
   700   1             14.35633312      26.960392330000001              8.04427235
   701   1      18.152230299999999      26.851103370000001      8.1794662500000008
   702   1      22.247446270000001      27.042245489999999      8.2782632500000002
   703   1      26.256244590000001             26.83770857      8.1198792900000001
   704   1      30.224086329999999      26.945739119999999      8.1095473400000007
   705   1      32.339315650000003    -0.21578979000000001      8.9285114199999995
   706   1      4.0954667000000002             28.15979815      9.0265029299999995
   707   1      8.1309801700000008     0.16104147999999999      9.0013606199999998
   708   1      12.386809080000001      28.263691489999999      9.0808859300000009
   709   1      16.084965709999999             28.10148358      9.0315793000000006
   710   1      20.195417190000001              0.14753015      8.9447208200000006
   711   1      24.477989470000001      28.190917710000001      9.1182979399999997
   712   1      28.168963160000001    0.078021809999999997      8.9232693600000008
   713   1      2.1896131699999999              3.38519054      9.0247142100000008
   714   1      6.2089365900000004      3.5436694800000001      8.9715884300000006
   715   1      10.040848309999999      3.5770701599999999      8.9489708100000005
   716   1      14.383039350000001      3.7398527399999999      8.9294968299999997
   717   1      18.260438409999999      3.4616680199999998      8.9810784800000008
   718   1             22.19622837              3.51566125      9.0902727999999993
   719   1             26.61789782      3.6739493599999999      9.0116075500000008
   720   1      30.341279100000001               3.5107819      8.9181538400000004
   721   1      32.630064009999998              7.20196098      9.0165225099999997
   722   1      4.1407715999999999      6.7856378099999999      9.0093362500000005
   723   1      8.1594670899999997      6.9474658600000003      8.9414846499999996
   724   1      12.140612089999999      7.0636555799999998      8.8795348900000004
   725   1      16.237281769999999               6.9866902      8.9587964600000003
   726   1             20.16426371      7.0311580400000002      9.0061450099999991
   727   1      24.378586039999998      7.0829964600000004      8.9221126300000009
   728   1      28.638393189999999      7.1476739299999998              8.96076798
   729   1      1.9331509499999999             10.75486531      8.9446566199999999
   730   1      6.1398853600000001             10.69787603      9.0208344599999997
   731   1      10.349182799999999      10.501042480000001      9.0572718999999999
   732   1      14.364281310000001      10.724279709999999      9.0846928499999997
   733   1      18.255290519999999      10.562077650000001      8.9158172499999999
   734   1      22.271549650000001             10.47885226      8.9713037399999997
   735   1      26.440006969999999      10.574193449999999      8.8118285499999995
   736   1             30.47243744             10.27592581               8.9577095
   737   1    0.074672489999999994             14.14859916      8.9500397700000001
   738   1      4.1849505300000001      14.027821940000001      9.0157944099999998
   739   1              7.94922314      14.054292029999999      8.9864113400000001
   740   1             12.18158436      14.327823889999999      8.9921042900000003
   741   1      16.204503110000001      14.111292450000001      8.9223812099999993
   742   1      20.557646479999999             14.06765416      9.0471518100000008
   743   1      24.281762839999999             14.06977827      8.8098708099999996
   744   1      28.348356240000001             14.03091611      9.0293401099999997
   745   1              2.00329968             17.78268164      8.9534520799999999
   746   1      6.2415989099999996      17.670420419999999      9.1141594999999995
   747   1      10.251015819999999             17.81160934      8.9412944900000006
   748   1             13.95823051      17.434652209999999      9.0485257099999998
   749   1             18.12645564      17.672057599999999      8.8547475799999997
   750   1      22.393574610000002      17.584976950000001              9.03280599
   751   1      26.476984049999999      17.685764859999999      8.9970334199999993
   752   1      30.295198460000002              17.5401591      9.1219355199999992
   753   1             32.41189112      21.121114259999999      8.8844591299999998
   754   1      4.1528515700000002      20.966141010000001      9.0837046400000006
   755   1      7.9666294200000003      21.185680260000002      9.0419858000000009
   756   1      12.141356139999999      20.785910040000001      9.0738913300000004
   757   1      16.143268330000001      21.124511779999999      8.9008088599999997
   758   1      20.248189050000001      21.087100400000001      8.9939359400000001
   759   1             24.26468573             20.97375662      8.9237588100000007
   760   1             28.09962762      21.231582660000001      8.9672947500000006
   761   1              2.12241795      24.565823259999998      9.0560579000000008
   762   1      6.0686457300000001      24.658802860000002      9.0453599699999998
   763   1      10.076240479999999             24.57681169      9.0564604099999997
   764   1      14.231048769999999              24.6729895      8.9777948500000004
   765   1      18.236655549999998      24.548545000000001      8.8921204899999999
   766   1      22.323869970000001      24.561621339999999              9.02129285
   767   1      26.456892669999998      24.471768839999999      8.9254314400000005
   768   1      30.482545229999999             24.56659355      8.9231971800000007
   769   2      21.616338349999999      15.489676579999999      9.4879711699999998
   770   2             23.27050775      15.431761059999999      9.5054119900000007
