N2-dn2-coord-10bar/300K/snapshots/frame-62585/run-000/../data.lammps (written by ASE) 

770 	 atoms 
2  atom types
0.0      32.470343392086264  xlo xhi
0.0      28.120142247150884  ylo yhi
0.0      31.213473999158239  zlo zhi


Atoms 

     1   1      2.0293964600000001      1.1716090800000001    0.023552650000000001
     2   1      6.0880008999999999              1.17168918              0.02556874
     3   1      10.146952280000001              1.17170328    0.025416459999999998
     4   1      14.205754900000001      1.1716496700000001              0.02501565
     5   1             18.26456816              1.17166478              0.02504435
     6   1             22.32338141      1.1716496700000001              0.02501565
     7   1      26.382184030000001              1.17170328    0.025416459999999998
     8   1      30.441135410000001              1.17168918              0.02556874
     9   1  9.1780000000000006e-05      4.6866847900000002    0.025581599999999999
    10   1      4.0587011400000002      4.6866847900000002    0.025581599999999999
    11   1      8.1174961000000003      4.6866290399999997    0.025584639999999999
    12   1             12.17638011      4.6866852999999997              0.02491202
    13   1             16.23517979      4.6866942700000003    0.025006210000000001
    14   1      20.293956519999998      4.6866942700000003    0.025006210000000001
    15   1      24.352756209999999      4.6866852999999997              0.02491202
    16   1      28.411640219999999      4.6866290399999997    0.025584639999999999
    17   1      2.0293964600000001      8.2016395800000002    0.026613040000000001
    18   1      6.0881071599999999      8.2016314300000008              0.02543782
    19   1             10.14701835               8.2017045    0.025156850000000001
    20   1      14.205766049999999      8.2017080900000003    0.024990459999999999
    21   1             18.26456816      8.2017077599999997    0.025091249999999999
    22   1      22.323370260000001      8.2017080900000003    0.024990459999999999
    23   1      26.382117969999999               8.2017045    0.025156850000000001
    24   1      30.441029149999999      8.2016314300000008              0.02543782
    25   1  9.2789999999999998e-05             11.71671873    0.025573410000000001
    26   1              4.05870014             11.71671873    0.025573410000000001
    27   1      8.1176017700000003             11.71668698              0.02497914
    28   1             12.17637068             11.71673069    0.025001590000000001
    29   1      16.235177310000001      11.716730249999999    0.025074039999999999
    30   1      20.293959009999998      11.716730249999999    0.025074039999999999
    31   1      24.352765640000001             11.71673069    0.025001590000000001
    32   1      28.411534549999999             11.71668698              0.02497914
    33   1      2.0293964600000001             15.23167155              0.02525285
    34   1      6.0881728300000004      15.231678799999999    0.025062859999999999
    35   1             10.14698486      15.231762639999999               0.0250786
    36   1             14.20578841             15.23176782    0.025201990000000001
    37   1             18.26456816              15.2317707    0.025149979999999999
    38   1      22.323347900000002             15.23176782    0.025201990000000001
    39   1      26.382151459999999      15.231762639999999               0.0250786
    40   1      30.440963480000001      15.231678799999999    0.025062859999999999
    41   1      32.470327990000001      18.746748629999999    0.024951939999999999
    42   1      4.0588083299999997      18.746748629999999    0.024951939999999999
    43   1      8.1175770200000006      18.746803499999999    0.025222040000000001
    44   1             12.17637459      18.746799750000001    0.025428470000000002
    45   1      16.235159400000001      18.746805200000001    0.025487360000000001
    46   1      20.293976919999999      18.746805200000001    0.025487360000000001
    47   1      24.352761730000001      18.746799750000001    0.025428470000000002
    48   1             28.41155929      18.746803499999999    0.025222040000000001
    49   1      2.0293964600000001      22.261939099999999    0.025844880000000001
    50   1      6.0881419299999999      22.261841799999999    0.025489439999999999
    51   1             10.14692954             22.26176895              0.02551757
    52   1             14.20573559      22.261804690000002    0.025639160000000001
    53   1             18.26456816             22.26178625    0.025640119999999999
    54   1      22.323400729999999      22.261804690000002    0.025639160000000001
    55   1      26.382206780000001             22.26176895              0.02551757
    56   1             30.44099439      22.261841799999999    0.025489439999999999
    57   1  5.6450000000000003e-05      25.776936450000001              0.02613327
    58   1      4.0587364700000004      25.776936450000001              0.02613327
    59   1      8.1175325399999991              25.7767713    0.024734180000000001
    60   1      12.176376469999999      25.776831090000002              0.02545323
    61   1      16.235145939999999      25.776775220000001    0.025273360000000002
    62   1             20.29399038      25.776775220000001    0.025273360000000002
    63   1      24.352759840000001      25.776831090000002              0.02545323
    64   1      28.411603769999999              25.7767713    0.024734180000000001
    65   1  0.00024266000000000001              2.34304215     0.80166565000000001
    66   1      4.0585502699999996              2.34304215     0.80166565000000001
    67   1      8.1157394600000003              2.34454954     0.80169402000000001
    68   1             12.17601256      2.3433829099999999     0.80116898000000003
    69   1      16.235258170000002      2.3433209100000001     0.80090046999999998
    70   1      20.293878150000001      2.3433209100000001     0.80090046999999998
    71   1      24.353123750000002      2.3433829099999999     0.80116898000000003
    72   1      28.413396859999999              2.34454954     0.80169402000000001
    73   1      2.0293964600000001      5.8582218700000004     0.80119762000000005
    74   1      6.0870566899999998      5.8583336700000004              0.80194851
    75   1             10.14649655              5.85853131     0.80121584000000001
    76   1             14.20597894      5.8582938599999999     0.80086840999999998
    77   1             18.26456816      5.8583798500000004               0.8010794
    78   1      22.323157380000001      5.8582938599999999     0.80086840999999998
    79   1             26.38263976              5.85853131     0.80121584000000001
    80   1      30.442079629999999      5.8583336700000004              0.80194851
    81   1  0.00019438999999999999      9.3717771800000005     0.80082061000000004
    82   1      4.0585985400000002      9.3717771800000005     0.80082061000000004
    83   1      8.1175070500000004      9.3725002699999997     0.80149060999999999
    84   1      12.176590020000001      9.3733583399999993     0.80088261999999999
    85   1             16.23512199      9.3733789200000004              0.80106506
    86   1             20.29401433      9.3733789200000004              0.80106506
    87   1      24.352546289999999      9.3733583399999993     0.80088261999999999
    88   1      28.411629269999999      9.3725002699999997     0.80149060999999999
    89   1      2.0293964600000001             12.88692854     0.80220621000000003
    90   1      6.0883212999999996             12.88743848     0.80138414999999996
    91   1      10.147128609999999             12.88859852     0.80085256000000005
    92   1             14.20571782      12.888558189999999     0.80113791000000001
    93   1             18.26456816      12.888409899999999     0.80109381000000002
    94   1      22.323418490000002      12.888558189999999     0.80113791000000001
    95   1             26.38200771             12.88859852     0.80085256000000005
    96   1      30.440815019999999             12.88743848     0.80138414999999996
    97   1              0.00012365      16.403222639999999     0.80145666999999998
    98   1      4.0586692700000002      16.403222639999999     0.80145666999999998
    99   1      8.1174337899999998      16.403825260000001     0.80097196999999998
   100   1              12.1761021             16.40390721     0.80133072000000005
   101   1             16.23503496      16.403861750000001     0.80140014999999998
   102   1      20.294101359999999      16.403861750000001     0.80140014999999998
   103   1      24.353034220000001             16.40390721     0.80133072000000005
   104   1      28.411702529999999      16.403825260000001     0.80097196999999998
   105   1      2.0293964600000001      19.919205120000001     0.80066369999999998
   106   1              6.08752564             19.91894023     0.80122479000000002
   107   1      10.146078839999999             19.91919038     0.80159137999999996
   108   1      14.204993419999999              19.9192584     0.80178742000000003
   109   1             18.26456816      19.919377350000001     0.80194975999999996
   110   1      22.324142899999998              19.9192584     0.80178742000000003
   111   1      26.383057470000001             19.91919038     0.80159137999999996
   112   1      30.441610669999999             19.91894023     0.80122479000000002
   113   1              0.00142012      23.434536609999999     0.80178442000000005
   114   1      4.0573728100000004      23.434536609999999     0.80178442000000005
   115   1      8.1165862000000004      23.433936769999999     0.80182306000000003
   116   1             12.17555218      23.433996919999998     0.80156656000000004
   117   1             16.23465491      23.434040110000002     0.80170828999999999
   118   1      20.294481409999999      23.434040110000002     0.80170828999999999
   119   1      24.353584130000002      23.433996919999998     0.80156656000000004
   120   1      28.412550110000002      23.433936769999999     0.80182306000000003
   121   1      2.0293964600000001      26.949875330000001              0.80297246
   122   1      6.0858208300000003      26.950066320000001              0.80215291
   123   1             10.14598146      26.949241430000001     0.80165810000000004
   124   1             14.20520604      26.948673230000001     0.80131923999999999
   125   1             18.26456816             26.94858318     0.80108193999999999
   126   1      22.323930279999999      26.948673230000001     0.80131923999999999
   127   1      26.383154860000001      26.949241430000001     0.80165810000000004
   128   1             30.44331549      26.950066320000001              0.80215291
   129   1    0.035997010000000003      28.089972530000001              1.38994678
   130   1      4.1195131700000003   0.0075160899999999996      1.5121737500000001
   131   1      8.0570827299999994              0.11404863              1.54907503
   132   1      12.130564659999999      28.066825569999999              1.43084802
   133   1              16.1552276      28.204227410000001              1.52475582
   134   1      20.323340550000001             28.22365121      1.5754666799999999
   135   1             24.34008554   -0.025313180000000001              1.35129202
   136   1             28.38087711      28.252729980000002              1.45821091
   137   1      2.0314238699999998      3.5272895599999998              1.47369024
   138   1      6.0041610500000004      3.5133067100000002               1.5233098
   139   1      10.113460330000001      3.5288344199999999      1.4748944500000001
   140   1             14.21976199      3.5245470999999999      1.4273538400000001
   141   1      18.321758370000001               3.5328955              1.56551946
   142   1             22.35446756      3.6065931199999999              1.50598247
   143   1             26.43060213      3.6176949399999998              1.51509162
   144   1      30.343359719999999              3.55160571      1.4692598100000001
   145   1    0.022480549999999998      7.0687461300000001              1.38900815
   146   1      4.0546299599999998      7.0798406900000002      1.4082512300000001
   147   1      8.1279211199999999              7.09799092              1.47124349
   148   1             12.23248776      6.9927292699999999              1.30539892
   149   1             16.20404899      7.0989752599999996      1.5225506900000001
   150   1      20.300846960000001      7.0369498000000004      1.3868158399999999
   151   1      24.282322270000002      7.0234824900000001      1.4350604300000001
   152   1      28.357832779999999      7.0247943099999999      1.4226174700000001
   153   1      2.0500775400000002             10.62052448      1.3648933599999999
   154   1      6.0086251500000003             10.49813462              1.46246257
   155   1             10.12869562      10.526966270000001      1.5351984299999999
   156   1             14.12873091             10.58845052      1.4524974399999999
   157   1      18.265828070000001             10.53745754      1.4838818899999999
   158   1      22.301864399999999      10.505437410000001      1.4786448800000001
   159   1             26.33845488             10.58269819      1.5215509899999999
   160   1             30.38998759             10.43746543      1.4474424800000001
   161   1    0.087815309999999994             14.04818363      1.4130972799999999
   162   1      4.0967429400000004             14.06216729              1.40390875
   163   1      8.1240890300000004      14.102949130000001              1.45044902
   164   1             12.18344753      14.113715790000001      1.3756210200000001
   165   1      16.180991859999999      13.981485259999999      1.4528988300000001
   166   1      20.339624870000002      14.043217370000001              1.46280706
   167   1      24.427357359999998             14.08190877              1.49935383
   168   1      28.343879009999998      14.053789159999999              1.52519954
   169   1              1.95452808      17.560892429999999              1.45871605
   170   1      6.0258523400000001      17.584576389999999      1.4611566199999999
   171   1             10.11609707             17.64409775      1.3948886599999999
   172   1             14.23330945             17.58206427      1.4146897700000001
   173   1             18.34428175      17.625558009999999      1.4420289500000001
   174   1      22.398056350000001             17.54193531              1.38591716
   175   1      26.326183499999999             17.55302434              1.41417825
   176   1      30.442200329999999      17.598419849999999              1.49321405
   177   1             32.44808424             21.08950111              1.41429793
   178   1      4.1104438999999999      21.081615379999999              1.54909769
   179   1      8.0534577800000005      21.099897219999999      1.4191551499999999
   180   1      12.200522250000001             21.12345552      1.4117807899999999
   181   1      16.294915199999998      21.058281619999999      1.4124328399999999
   182   1      20.347871510000001      21.140908700000001              1.43806298
   183   1      24.311961279999998      21.052104509999999               1.5242594
   184   1      28.455117680000001      21.136444139999998      1.4297166299999999
   185   1      2.0784110400000002             24.72455257      1.4268796800000001
   186   1      6.0446349599999998             24.65046319      1.4564468100000001
   187   1             10.13420006      24.624475650000001      1.5359156899999999
   188   1      14.187792480000001      24.588412949999999               1.5165686
   189   1      18.335399979999998             24.61706324      1.3638518399999999
   190   1      22.318416490000001             24.58131955      1.4639978499999999
   191   1      26.383548340000001             24.62642078              1.52626061
   192   1             30.43319322      24.636240799999999      1.5426960000000001
   193   1      2.0656249600000001              1.18977936              2.54136651
   194   1      6.1003270699999996              1.11422412              2.47299069
   195   1      10.095615779999999      1.1833659299999999      2.4283287699999998
   196   1             14.15158954      1.2630305500000001              2.49415085
   197   1      18.309580239999999              1.21669849      2.4513764600000001
   198   1      22.389426019999998              1.18747011      2.3788057199999999
   199   1      26.423408089999999              1.20571381      2.4829762899999999
   200   1      30.409370289999998      1.1947182300000001      2.3898762599999999
   201   1      32.551953750000003      4.6499559599999998              2.41675489
   202   1      4.0631935300000004      4.6841115100000001      2.4021738799999999
   203   1      8.0710434800000002      4.6903874200000004      2.4772941400000001
   204   1             12.10193522      4.7962448699999998      2.4776880100000001
   205   1      16.295616209999999      4.7087748999999999      2.3342067399999999
   206   1      20.310346419999998      4.6324681700000001      2.4571085099999999
   207   1             24.43862253      4.8040099500000002      2.4639124899999998
   208   1      28.303431679999999      4.8489032099999996      2.5250831699999998
   209   1      1.9817409800000001      8.2586410800000003      2.4448175600000002
   210   1      6.0277729999999998      8.1578001699999998              2.40722463
   211   1             10.18874898      8.2658725099999995      2.2814216300000001
   212   1             14.13255807      8.2156208100000008              2.45105108
   213   1      18.216405009999999      8.2578872600000004              2.39887491
   214   1      22.243279699999999      8.2065858800000004      2.5365292799999999
   215   1      26.397655459999999      8.1237791700000006              2.36109087
   216   1             30.42001372      8.1628776599999995              2.40678685
   217   1    0.043783740000000002             11.72484435      2.4119432700000001
   218   1      4.0305506500000003      11.712461490000001              2.40917403
   219   1      8.1156369700000006             11.75945448      2.3105364800000001
   220   1      12.181342669999999                11.75093              2.37387076
   221   1      16.205384070000001      11.697786689999999      2.3281067499999999
   222   1      20.283584340000001             11.72340715      2.3977728900000002
   223   1      24.229000200000002      11.786633699999999      2.3973706899999998
   224   1      28.335458490000001             11.76275691              2.53393801
   225   1      1.9595430899999999             15.30297066      2.4324788599999998
   226   1      6.1365996799999998      15.233147730000001      2.3635251500000001
   227   1             10.13167573             15.12221561      2.4705927600000002
   228   1             14.27544031             15.28116329              2.40900537
   229   1      18.285773030000001      15.170007330000001      2.4124114400000001
   230   1             22.32206055      15.139206509999999               2.5144294
   231   1      26.370345230000002      15.260411380000001      2.4757228100000002
   232   1             30.48069151      15.151341540000001      2.4260645099999998
   233   1      32.475912739999998             18.64647978              2.41321195
   234   1      4.0651494100000001             18.57002125      2.3780455900000002
   235   1      8.1555764499999999      18.833500969999999      2.4222635000000001
   236   1             12.17240009      18.718676609999999      2.2781026600000001
   237   1      16.301541839999999      18.660157089999998      2.3951516000000002
   238   1             20.37430371      18.808865669999999      2.3542388700000001
   239   1      24.367484879999999      18.660653360000001      2.4139242400000001
   240   1      28.408885179999999      18.699270779999999               2.4103151
   241   1              2.11168932      22.314600720000001      2.4240065300000002
   242   1              6.04713967             22.26552131              2.37733718
   243   1      10.180639210000001      22.237426249999999      2.4032421099999999
   244   1      14.302288089999999      22.218207249999999      2.4640696599999998
   245   1      18.341684229999998      22.365603700000001      2.4367676500000002
   246   1             22.37367914      22.272324529999999      2.4184481400000002
   247   1      26.471249780000001      22.229522429999999              2.45828465
   248   1      30.472058830000002             22.24105088              2.42701061
   249   1      32.413856750000001              25.8122051      2.4483987699999998
   250   1              4.12310322      25.789441100000001      2.4377235000000002
   251   1      8.0680729400000004      25.813988949999999      2.3430359300000001
   252   1             12.14157252             25.66930468      2.3509441400000002
   253   1      16.291089119999999      25.764797340000001              2.52639776
   254   1             20.24384504      25.794951690000001      2.4283002300000001
   255   1      24.384291109999999      25.877623109999998      2.5341860500000002
   256   1      28.310444090000001              25.8901033              2.45718953
   257   1    0.051719269999999998      2.2660771400000002              3.25576182
   258   1      4.1300012600000002      2.3906146000000001      3.2686356399999998
   259   1      7.9985773099999999      2.3777797000000001              3.33508659
   260   1      12.066202150000001              2.49882713              3.30694306
   261   1      16.318737670000001      2.4522839099999998      3.3144127000000001
   262   1      20.354951679999999      2.3401792000000001      3.3699017000000002
   263   1             24.37678197      2.4811089399999999      3.3407479699999998
   264   1             28.45817422      2.4378701399999998      3.2083675899999999
   265   1      1.9357228099999999      5.8804687199999996              3.21420832
   266   1      6.0161754500000004      5.8285670300000003              3.16333018
   267   1             10.11552285      5.9457125099999999      3.2528042300000002
   268   1              14.1491492      5.8990695300000002              3.20120424
   269   1             18.29775673      5.8159903899999996      3.2181883600000001
   270   1             22.40874367      5.8641169499999997      3.2357483399999998
   271   1      26.302155370000001      5.8649018499999999      3.2896026599999999
   272   1             30.41059972              5.79968533      3.1890341800000002
   273   1             -0.12132808      9.3534029400000005      3.3018544300000001
   274   1              3.98160946      9.3024481199999993      3.1829083300000001
   275   1      8.0185061599999994      9.4415159800000001              3.15667316
   276   1      12.137836460000001      9.3958241499999993              3.23422776
   277   1      16.232433480000001      9.4198841899999994      3.1598206100000001
   278   1      20.221787519999999      9.3926294899999991      3.3075378899999999
   279   1      24.332769160000002      9.3436888600000003      3.1966238800000002
   280   1      28.348633370000002      9.4089392899999993              3.30123108
   281   1      2.0424247100000001      12.829621039999999      3.1892923199999998
   282   1      6.1439176399999997      12.898202510000001              3.15333036
   283   1             10.11176232      12.831783189999999      3.2621001500000002
   284   1      14.176408500000001      12.975420099999999              3.19113801
   285   1             18.12811782      12.817994349999999      3.2685110700000002
   286   1      22.318476960000002      12.863775309999999              3.26298128
   287   1      26.327455140000001      12.942359870000001      3.1998491699999998
   288   1      30.380954079999999      12.900603540000001      3.1838268200000002
   289   1   -0.019817129999999999      16.365571150000001      3.3539718600000001
   290   1      4.1181353400000003      16.364086180000001      3.1360414099999998
   291   1      8.0902838900000003             16.36275131              3.22188294
   292   1              12.1770874              16.4815687      3.1462819799999999
   293   1             16.39169016      16.429223799999999      3.2964376199999998
   294   1      20.230926790000002             16.39434902              3.18302986
   295   1      24.239973500000001      16.419363730000001      3.1701784200000001
   296   1      28.434200950000001              16.4792059              3.22931269
   297   1      2.0145718000000001      19.916885489999999              3.13307007
   298   1              6.08142607      20.009723520000001               3.2395022
   299   1      10.192104349999999      19.952198159999998              3.25859326
   300   1      14.218986210000001      19.854879879999999      3.2158724200000002
   301   1      18.302144949999999      19.929086030000001      3.1865066899999999
   302   1      22.298307359999999             20.02838496              3.17609326
   303   1             26.44337629             19.82600313      3.1917678999999999
   304   1              30.5450032             20.02070312      3.2139978500000002
   305   1      32.551234700000002      23.407589919999999      3.2538898000000001
   306   1      4.1084754999999999      23.392488549999999      3.2585635700000002
   307   1      8.0889841100000002      23.506137429999999              3.26646167
   308   1             12.18927323      23.411045590000001      3.2668386699999998
   309   1      16.305702709999998      23.457950990000001               3.3099759
   310   1      20.272752260000001             23.42513508      3.2799941000000001
   311   1      24.304066649999999             23.50771052              3.19137176
   312   1      28.391387600000002      23.497063149999999              3.20574884
   313   1      2.1199708500000001      27.086755069999999      3.2214026100000002
   314   1      6.0642164200000002      26.917625739999998      3.2268193599999999
   315   1             10.07419735      26.925271209999998      3.2457489399999999
   316   1      14.107727819999999      27.008170109999998      3.3302330900000001
   317   1             18.23045273      26.962999719999999      3.3365572000000001
   318   1      22.339481299999999      26.990981999999999              3.26107908
   319   1      26.437405479999999             26.98074815      3.3272985899999998
   320   1      30.313987019999999      26.936787720000002      3.2339266100000001
   321   1      32.416286319999998   -0.053996889999999999              3.98612141
   322   1      4.1309249799999996              28.0648701      4.0848375700000004
   323   1      8.0472407300000004    0.097189010000000006      4.0958643300000004
   324   1      12.144060229999999    0.027647209999999998      4.1143104499999996
   325   1             16.11932436      28.201102550000002      4.0652724999999998
   326   1      20.275126570000001      28.189318750000002      4.1529799599999997
   327   1             24.35017655              0.06032183      4.0514494699999997
   328   1      28.468787710000001      28.282434469999998      4.2063381199999998
   329   1      2.0438100600000002              3.52159165      4.0905252900000004
   330   1      6.0924449899999997      3.5841809200000001      4.0864307000000002
   331   1      10.139117069999999              3.49796116      4.2040123899999999
   332   1      14.202160790000001      3.5170662400000001      4.1318755100000004
   333   1      18.377951849999999      3.5751780900000001      4.1611307499999999
   334   1             22.35322159      3.4960882600000001              4.06866269
   335   1      26.352010660000001      3.6177402399999998               4.0505087
   336   1      30.379924160000002      3.5729668000000001      4.0580811499999996
   337   1    0.016398280000000001      6.9994016400000003      4.0735964500000001
   338   1      4.0147338299999999      7.0899709399999997      4.0225772400000004
   339   1      8.0612188000000007      7.0611244800000001               3.9960239
   340   1             12.12815294      6.9477045300000002      4.0437728599999998
   341   1      16.165711959999999      7.1476412500000004      4.0961999999999996
   342   1             20.27268127      6.9848866699999999      4.0909833300000003
   343   1      24.329031579999999      7.1148400499999997      4.1331021000000003
   344   1      28.382278580000001      7.0884042999999997      4.1275398000000001
   345   1      1.9721802100000001             10.53042295      3.9681725600000002
   346   1      6.0468058400000002             10.64412424      4.0172473399999999
   347   1             10.12409472             10.49211195      3.9736091099999999
   348   1             14.14843823             10.61473078              3.97628519
   349   1      18.206319199999999      10.613752979999999      4.0015419799999998
   350   1      22.311914290000001             10.48631054      4.0823101099999999
   351   1      26.385454750000001      10.483212849999999      4.0153317800000004
   352   1             30.33480029      10.486816109999999      3.9579508200000002
   353   1    0.091026739999999995      14.011671529999999      4.1295011700000002
   354   1      4.0357551100000002      14.079464079999999      3.9990870900000002
   355   1      8.0445669800000008      14.050988780000001      4.1358790299999999
   356   1      12.064565269999999      14.099360470000001              3.99733764
   357   1             16.18165097             14.09675043      3.9989909899999998
   358   1             20.27343806      14.154199869999999      4.0108832799999998
   359   1             24.38954047      13.981241580000001      4.0701309099999996
   360   1             28.36959603      13.982325189999999      4.1044178599999999
   361   1              2.12023881             17.68817056              3.97709943
   362   1      6.1663295700000003      17.566115509999999      4.0206267899999997
   363   1      10.041205079999999      17.581560620000001      3.9041593899999998
   364   1             14.28137504      17.561589399999999      4.0513999800000002
   365   1             18.28605224      17.714559349999998      4.1156187199999996
   366   1      22.275227340000001      17.589194689999999      4.0584020799999996
   367   1             26.45441641      17.445206850000002      4.0505898399999998
   368   1      30.430147890000001             17.59744328      4.0952041799999996
   369   1      32.491847589999999      21.107591500000002      4.0445075399999997
   370   1      3.9999331200000001      21.030932020000002      4.0512665700000001
   371   1      8.1117261500000009             21.11761791      4.0441278699999996
   372   1      12.093932199999999      21.108760050000001      4.1549756699999998
   373   1             16.24235526      21.147392400000001              4.04893006
   374   1      20.225385070000002      21.155833470000001      3.9907315900000002
   375   1      24.417102759999999      21.037788460000002      3.9540837299999998
   376   1             28.49311441             21.15192437      3.9645338400000001
   377   1              2.10318373      24.697358860000001      4.1128919499999999
   378   1      6.1875032599999997      24.566742430000001      4.0538785300000004
   379   1             10.14693031      24.519188419999999      3.9463759999999999
   380   1      14.272605130000001      24.540533329999999      4.1024604199999999
   381   1             18.37982388      24.669421100000001      4.1292921700000003
   382   1      22.298588460000001      24.583913750000001      4.0678783999999997
   383   1      26.316181499999999      24.627303879999999      4.1058170900000004
   384   1      30.433355479999999             24.58726643      4.0874705799999997
   385   1      2.0115188700000002              1.11293731      4.8726635199999997
   386   1      6.0496418600000004      1.1326823399999999      4.9241507899999997
   387   1      10.019573579999999               1.2071044      4.9333140899999997
   388   1             14.03128935      1.1733298400000001      5.0908679499999998
   389   1             18.09934359              1.28050821      5.0179865599999998
   390   1      22.295014720000001               1.2255357      5.0018088399999998
   391   1             26.46943933              1.32189405      4.9923703499999998
   392   1      30.469551849999998              1.29985745      4.8679499899999996
   393   1   -0.066529770000000002      4.6888629699999997      4.8993657199999996
   394   1      4.0122739100000002      4.7432798399999996      4.9730282199999998
   395   1      8.0511574600000007      4.7525017399999996      4.9539328600000001
   396   1      12.121503450000001      4.7416893399999998      4.9263273700000001
   397   1             16.23913044              4.68789239      4.8590253199999998
   398   1      20.401553759999999              4.70684608      5.0162961199999998
   399   1             24.43357031      4.7559103499999997      4.9613687000000004
   400   1             28.36215412      4.7874200900000004      4.9184697599999998
   401   1      2.0142223399999999              8.25457909      5.0117560499999998
   402   1      6.0479672100000004      8.2911017699999991      4.8190161900000001
   403   1      10.162569189999999      8.0813374400000004      4.8357996600000002
   404   1             14.04230512      8.2629284599999995      4.9187928400000001
   405   1      18.228712989999998      8.1671860699999996      4.8172067800000002
   406   1      22.297782460000001      8.3368391699999993      5.0402948800000003
   407   1      26.378192670000001      8.2895223900000001      4.9569633599999996
   408   1      30.437090269999999      8.2812300299999997      4.9506004099999998
   409   1      32.444433869999997      11.706455849999999              4.79074212
   410   1      4.0286297199999996             11.66480934      4.9247588100000002
   411   1      8.1311410500000001             11.75162854      4.8970683499999996
   412   1      12.122256459999999             11.67870896      4.9113824499999996
   413   1             16.19802177      11.692351739999999      4.9336577400000001
   414   1      20.211103340000001             11.75689873      4.9776003500000003
   415   1      24.364521180000001             11.73150307      4.9405616099999996
   416   1      28.329478000000002      11.638474649999999      4.9651083399999996
   417   1      2.0050321800000002             15.30849227      4.9096890799999997
   418   1              5.97234292      15.305548910000001      4.8388821699999998
   419   1      10.062743899999999      15.199969810000001      5.0233654100000003
   420   1      14.182641240000001             15.16501787      4.8901080400000003
   421   1      18.293413489999999             15.27952267      4.9040556300000002
   422   1             22.39928742      15.334606450000001      4.8615407499999996
   423   1      26.362264199999998      15.117636640000001      4.9463618900000004
   424   1      30.442027830000001             15.16268833      4.9029581899999997
   425   1    0.017427700000000001      18.757003050000002      4.8353110800000003
   426   1      4.0548477600000004      18.695058679999999      5.0082835499999998
   427   1      8.0581773099999996      18.777876460000002      4.9002013199999999
   428   1      12.105795390000001      18.697109810000001               4.8411279
   429   1      16.308540199999999      18.817029380000001      4.8746815300000002
   430   1             20.33688772      18.840299989999998      4.9102837800000003
   431   1      24.469754529999999      18.737836380000001      4.8510426200000003
   432   1      28.441125100000001      18.750183360000001      4.9173926899999998
   433   1      2.0516672699999998      22.326572349999999      4.9280803999999998
   434   1      6.0451979400000004      22.272453769999998      4.9205265200000001
   435   1             10.10516964      22.352966160000001      4.9624543699999997
   436   1      14.163855160000001      22.200835529999999      5.0224094199999998
   437   1              18.3495451      22.323130689999999      4.9374868799999998
   438   1      22.286079600000001             22.19731127      4.8670649900000003
   439   1      26.330844880000001      22.381223689999999      4.8450131799999996
   440   1      30.365544140000001             22.30603395      4.9022813999999997
   441   1  -0.0025309799999999999      25.768394950000001      4.8707090400000004
   442   1      4.3514665600000004      25.731155260000001      4.9554718199999996
   443   1      8.2494374700000002      25.781270889999998      4.8808006800000001
   444   1              12.2365792      25.792936959999999      4.9638888799999998
   445   1             16.27912869      25.927994569999999      4.9745884900000004
   446   1      20.220369380000001      25.859978859999998      4.9546810800000003
   447   1      24.363527000000001      25.846450699999998      4.9335695099999999
   448   1      28.359612779999999      25.817602130000001      4.9179540800000003
   449   1   0.0075590800000000001      2.2913620099999998      5.6804916399999996
   450   1      4.0903478399999997      2.3307777399999998      5.7691060900000002
   451   1      8.0398224500000008              2.26494668      5.8002203699999999
   452   1             12.10860995      2.4069879200000002      5.9235147699999997
   453   1      16.185619849999998      2.4443942999999999      5.8460490299999996
   454   1      20.278849520000001              2.46500488      5.8029564699999998
   455   1      24.418779319999999      2.4228697100000001              5.88739262
   456   1      28.381709050000001      2.4018068800000001      5.8561925700000002
   457   1      2.0208466500000002      5.8646209799999998      5.7554701499999998
   458   1      6.0230182799999996      5.9408685999999999      5.6476235800000003
   459   1      10.060429900000001      5.8184868400000003      5.7221129299999998
   460   1             14.11790036      5.9686593400000003      5.6718889399999997
   461   1      18.164242689999998      5.9359653899999998              5.74357849
   462   1      22.450163589999999      6.0238445699999996      5.7584407400000002
   463   1      26.327158359999999              5.95024789      5.7976558300000001
   464   1      30.314925710000001      5.9161447000000003              5.73102847
   465   1      32.466506729999999      9.4143467699999999      5.6934084199999999
   466   1      4.1023415200000004      9.4508487799999994      5.5859699300000001
   467   1      8.1230319299999998      9.3505129500000006              5.59090811
   468   1              12.0590414      9.3929785900000002      5.6708728400000004
   469   1             16.18496961                9.399756      5.6107715300000001
   470   1      20.249287670000001      9.3819237999999991      5.7077622300000002
   471   1      24.317893699999999      9.4176363100000007      5.6391142800000003
   472   1             28.39600854      9.4421926200000001      5.7998015499999998
   473   1      2.0196919499999999      12.845130380000001      5.6269765700000001
   474   1              6.03396533      13.007344509999999      5.7296443400000001
   475   1      10.172818319999999             12.88970769              5.77140583
   476   1      14.069362569999999      12.898865669999999      5.7111148800000002
   477   1      18.218440650000002             13.02953246      5.7557517999999996
   478   1      22.259725929999998             12.96669455      5.7371091500000002
   479   1      26.360953370000001             12.82986869      5.8445054399999998
   480   1      30.424038100000001             12.82506923      5.6441836299999997
   481   1  -0.0042186799999999998      16.453540270000001      5.7905459199999996
   482   1      4.1113692799999999      16.427449249999999      5.8149204599999997
   483   1      8.1447207600000002      16.404726239999999      5.6568104300000002
   484   1             12.23795337      16.575478189999998      5.6374370000000003
   485   1               16.216635      16.483768430000001      5.7818313000000003
   486   1      20.306973410000001      16.420556829999999                5.728497
   487   1             24.53884541             16.40790616              5.60864092
   488   1             28.31533426      16.311273289999999      5.7241450800000004
   489   1              2.08137785      19.913524349999999      5.6111251299999996
   490   1      6.0641418800000002             19.90871387      5.6438817600000002
   491   1             10.21858999             19.98276864      5.6451225599999999
   492   1              14.0781472      19.885521440000002      5.7780230499999998
   493   1      18.283543030000001      20.115014949999999      5.7127960800000004
   494   1              22.4103715      19.948586850000002      5.6247982700000003
   495   1      26.446553430000002      20.000500460000001      5.5110956499999997
   496   1             30.37542865      19.999371839999998      5.6818923999999997
   497   1      32.541768410000003      23.369202219999998      5.5663763700000004
   498   1      4.1338277400000001             23.40214752      5.8275420999999996
   499   1      8.1240664099999993      23.439868879999999      5.7289487799999996
   500   1             12.26700138      23.397509759999998      5.7236760100000001
   501   1      16.188198509999999             23.52251132              5.71322858
   502   1              20.3022627      23.530232529999999      5.7749581000000001
   503   1      24.411709550000001      23.470753559999999      5.7250512499999999
   504   1             28.37538704      23.473330109999999      5.6507869499999996
   505   1      2.1193710800000001              26.8659195      5.7874943400000003
   506   1      6.1380614400000004      26.914093009999998      5.7058305799999998
   507   1             10.07973752      27.014602929999999              5.87195015
   508   1      14.261735399999999             26.98146221      5.8848315800000002
   509   1      18.272036830000001      26.959344590000001      5.7847720000000002
   510   1      22.360356509999999      26.956131360000001      5.6894198100000004
   511   1      26.395814819999998      27.053361039999999      5.7863338799999999
   512   1      30.390962590000001             26.93874637      5.7375409399999997
   513   1   -0.023327730000000001   -0.047495490000000001      6.4978223000000002
   514   1      4.2072443799999997   -0.033785660000000002      6.5062173599999999
   515   1      8.1082864899999993             28.08255389      6.6764155599999997
   516   1             12.14833147   -0.076790570000000002      6.5814571500000003
   517   1             16.26668428   -0.033055420000000002      6.6727844599999999
   518   1             20.28655461      28.230269969999998              6.59263844
   519   1      24.446041489999999      28.256202999999999      6.5558374099999996
   520   1      28.544831510000002      28.166082750000001      6.7129720099999997
   521   1              2.07715176      3.4539667500000002      6.5614731300000004
   522   1      6.1189781700000001      3.5390258999999999      6.4754089400000003
   523   1             10.04947612      3.7451710399999998      6.6796018500000001
   524   1             14.11209431      3.6299462400000002      6.4786078299999996
   525   1             18.29957997              3.72811615      6.6423010600000003
   526   1      22.372452419999998      3.6290627400000002      6.6687393999999998
   527   1      26.446377649999999      3.6639687699999999      6.6805835299999998
   528   1             30.44403466      3.5512106399999999      6.6163134299999999
   529   1      32.464693449999999              7.16102346      6.5013215400000002
   530   1      3.9852106200000001      7.1307742000000003      6.5084677900000001
   531   1      7.9815334800000004      7.0492590999999996      6.5434665299999999
   532   1      12.072954620000001      7.1142576100000001      6.5940003100000002
   533   1      16.161507329999999      7.1528894200000002      6.4441341799999998
   534   1      20.230772330000001      7.1403926499999999      6.5753484000000002
   535   1      24.367529529999999      7.2188722199999997      6.7062538700000003
   536   1      28.449581909999999      7.0866595500000003      6.5992040699999999
   537   1      2.1361182300000001      10.553996079999999      6.6125497099999997
   538   1              6.09437987             10.50782609      6.6296038900000003
   539   1             10.00709427      10.591056379999999      6.4782977500000003
   540   1      14.182785559999999             10.59292759              6.55684164
   541   1      18.183685990000001      10.584645480000001      6.4308543699999996
   542   1      22.295107819999998             10.56500318      6.5847190400000004
   543   1      26.342741849999999      10.605447420000001              6.59308183
   544   1      30.503845760000001             10.59848154      6.4427092799999999
   545   1      32.482667429999999             13.99149079      6.5740420999999998
   546   1      4.0023952600000001             14.06999375      6.5686843499999998
   547   1      8.1211729500000001             14.08619268      6.5439348300000004
   548   1             12.14918222      14.272803229999999              6.67998007
   549   1             16.14094205             14.12624263      6.5208536400000003
   550   1             20.17970948             14.17925702      6.5696231699999998
   551   1      24.359344279999998             14.06454299      6.4861735100000004
   552   1      28.508266020000001      13.961135690000001      6.5406507999999999
   553   1      2.0497090600000001             17.50225906      6.5635751100000004
   554   1      6.1622627899999998      17.461301379999998      6.4669089299999998
   555   1      10.191043929999999      17.627814269999998      6.5255118799999998
   556   1             14.27814635      17.658440429999999      6.6042895000000001
   557   1      18.275245009999999      17.622674490000001      6.4541447500000002
   558   1      22.239556919999998      17.564645160000001      6.5169263600000003
   559   1             26.43234198      17.628883739999999      6.4439910100000004
   560   1             30.41888376      17.604299749999999      6.4905754900000003
   561   1     0.19473252999999999      21.038137410000001      6.4808555500000002
   562   1      4.2875024000000002              21.1901209      6.5192770700000002
   563   1      8.0936619699999994      21.031246769999999      6.5401833399999996
   564   1             12.16641068             21.13037078              6.70041332
   565   1      16.258518420000001      21.082415090000001      6.6575541300000003
   566   1      20.281747840000001      21.147250400000001      6.5403271900000002
   567   1      24.421160480000001      21.146408470000001      6.4711700800000003
   568   1      28.306152879999999      21.260373869999999      6.4889142700000004
   569   1      2.1129621900000002      24.705391590000001      6.6006082800000003
   570   1      6.1846212100000004      24.524215699999999      6.6004338200000001
   571   1      10.063980369999999             24.60591861      6.5647868599999999
   572   1      14.229907499999999             24.74299113      6.7386323700000004
   573   1      18.266139720000002      24.682861160000002      6.5945317499999998
   574   1      22.406762229999998      24.621974519999998      6.6336816299999999
   575   1      26.298987220000001      24.638534060000001      6.5466958899999996
   576   1      30.451514670000002      24.602176579999998      6.4194129200000001
   577   1      2.1762449799999999              1.07121299      7.3752124999999999
   578   1      6.1410746700000001      1.3281799999999999      7.7162864799999999
   579   1             10.13330637      1.2707342800000001      7.4918889499999999
   580   1      14.191217959999999      1.2788995299999999      7.5592423599999998
   581   1      18.223596529999998      1.3605529000000001      7.4583511900000001
   582   1      22.369172540000001      1.3168551399999999              7.60114058
   583   1             26.44831726      1.3120504200000001      7.5042591400000003
   584   1             30.46743764              1.16820988      7.5052968499999997
   585   1      32.475707059999998      4.8067588099999998      7.4457408799999998
   586   1      4.0703744899999998      4.7327821500000002      7.4761506999999998
   587   1      8.0010376399999998      4.7685333500000002      7.5876522499999997
   588   1      12.073133309999999               4.8007944      7.4845743200000001
   589   1             16.21939158      4.8645986099999998      7.4299594799999999
   590   1      20.153586650000001      4.8325707700000002      7.6257733300000003
   591   1      24.466047360000001      4.8282957599999996      7.6004752199999999
   592   1      28.382247410000002      4.7401392700000002      7.5674347800000001
   593   1               1.9701575      8.1606792099999996      7.6653421399999999
   594   1      6.0101110899999997      8.2247084499999996              7.51528566
   595   1             10.08308836      8.2075303599999998      7.6390354299999998
   596   1      14.022861969999999      8.2978389799999999      7.4796923399999997
   597   1      18.159692069999998      8.3597991599999997      7.4168745100000004
   598   1             22.37162545      8.2950421199999997      7.5083933199999997
   599   1             26.41536971      8.3031008600000007      7.4827461700000004
   600   1      30.367346179999998      8.2152548099999994      7.4621073400000002
   601   1 -5.4190000000000001e-05      11.851566269999999      7.4368447700000004
   602   1      4.0288552400000004              11.8041996      7.4980507999999997
   603   1      8.0868007500000001      11.738403099999999      7.4631913900000004
   604   1      12.117313190000001      11.916393019999999      7.4402552499999999
   605   1             16.14061543      11.758785059999999      7.5203080299999998
   606   1      20.351593810000001             11.87534701              7.42758568
   607   1      24.310026870000002      11.875717740000001      7.4766834199999996
   608   1      28.413175500000001             11.67463234      7.6216693700000002
   609   1              1.87966392      15.226269540000001      7.5435999499999999
   610   1      6.0255770599999998      15.283584400000001              7.56148679
   611   1      10.118314590000001      15.282904200000001      7.5164149900000004
   612   1             14.21534392      15.225137220000001      7.4475535199999996
   613   1      18.231371930000002              15.3178061      7.5317485299999998
   614   1      22.345836309999999             15.30402507              7.39559677
   615   1      26.383458300000001             15.30002605      7.4944944500000004
   616   1      30.384986470000001      15.233991680000001              7.49116392
   617   1    0.027359939999999999      18.742346940000001      7.4637413800000001
   618   1      4.1386394199999996      18.663076419999999              7.60090983
   619   1      8.2632107300000008      18.694947989999999      7.5147913199999996
   620   1             12.24832275      18.702333190000001      7.5791593500000003
   621   1             16.27943076      18.697080369999998      7.5120219800000001
   622   1      20.306002849999999      18.841590199999999      7.5027127199999999
   623   1      24.265372060000001      18.899288970000001      7.3882424000000002
   624   1      28.492598539999999      18.801155980000001      7.4492026400000002
   625   1              2.27131068      22.292631700000001      7.5912226599999997
   626   1      6.2808227600000004      22.155142919999999      7.4934011299999996
   627   1             10.11382671      22.238216489999999      7.4522104899999997
   628   1      14.325493610000001      22.359811950000001      7.6260984000000001
   629   1             18.30170974      22.400177029999998      7.5912298199999997
   630   1      22.314643310000001      22.205736829999999      7.4721613400000004
   631   1      26.468668109999999             22.33512159      7.4232255800000004
   632   1      30.544554120000001      22.279117670000002              7.30774218
   633   1    0.046188559999999997      25.821063630000001      7.4621244400000002
   634   1              4.28222068      25.709641690000002              7.67884776
   635   1      8.1135239299999995             25.79041441      7.5633590699999997
   636   1             12.28335796      25.737511990000002      7.7267718099999998
   637   1             16.29570592      25.740037959999999      7.5414696899999996
   638   1             20.29856968      25.774952720000002      7.4706393000000002
   639   1      24.468025430000001      25.937083699999999      7.5403221599999997
   640   1      28.523263910000001             25.76557841      7.5399332299999999
   641   1              0.16551595      2.2573885300000001      8.0413953100000004
   642   1              4.18048296      2.4174763600000002      8.2230954900000004
   643   1      8.2624018800000005      2.4630777799999999      8.2025699999999997
   644   1             12.13556445      2.4953251999999999      8.2966002799999998
   645   1      16.300437290000001              2.48121108      8.1412949500000007
   646   1      20.280196629999999      2.4455815200000002      8.3657156300000004
   647   1      24.494783989999998      2.4304779000000001              8.44134706
   648   1      28.551927079999999      2.3363048200000001      8.4476394100000007
   649   1      1.8889912200000001      5.7626991600000004      8.1557092299999994
   650   1      6.0641111099999998      5.9275314799999999      8.1732191899999993
   651   1      9.9946942599999993      5.9105041900000002      8.2851142800000002
   652   1             14.16974555      5.9485684399999998      8.1188328199999997
   653   1      18.194015950000001      6.2089428399999997      8.1980013599999992
   654   1      22.337546450000001      6.0073940600000002      8.1970366000000006
   655   1      26.340227859999999      5.9913272199999996      8.2617294099999992
   656   1      30.497835349999999      5.8775114999999998      8.1138825099999998
   657   1    -0.10246690999999999      9.4507539600000001      8.1300897299999999
   658   1      4.0641472600000004      9.5050440100000007      8.1812486300000007
   659   1      7.9922775599999998      9.4134934099999992      8.1046852099999995
   660   1      12.111738689999999      9.6080528800000007      8.0898751099999995
   661   1      16.081698070000002      9.4039604400000005      8.2566083100000007
   662   1      20.250498100000002      9.5144722099999992      8.1813290300000006
   663   1             24.32743833      9.5704807699999996      8.2610309500000003
   664   1      28.358665210000002              9.36791032      8.2589526699999993
   665   1               2.0276972      12.915422469999999      8.1981421900000004
   666   1              6.14054286      12.866514860000001      8.0480585900000001
   667   1      9.8904677299999992             12.91263369      8.2159019299999994
   668   1      14.134308130000001             12.95209773      8.1004994200000002
   669   1      18.132361580000001      13.056623849999999      8.2538151299999996
   670   1      22.265656140000001      13.049852619999999      8.3303225600000008
   671   1      26.248472240000002      12.902641920000001      8.1259481900000008
   672   1      30.495792949999998             13.02383966      8.0610326299999997
   673   1   -0.092978809999999995      16.287026139999998      8.1947300700000003
   674   1      4.0026833599999998      16.421185560000001      8.1958389599999997
   675   1      8.0588065899999997      16.348864030000001      8.1372932700000007
   676   1             12.20347443             16.42191906      8.2392927700000005
   677   1      16.308169979999999      16.417064530000001              8.24930612
   678   1      20.321407539999999      16.483502590000001      8.1090162699999997
   679   1      24.395291520000001             16.52468163      7.9205892799999997
   680   1      28.250380159999999      16.255307429999998      8.1838614100000004
   681   1              1.98714065             19.84710243      8.0353302299999996
   682   1      6.2242925299999996      19.898243489999999      8.0553064200000009
   683   1             10.26852581              19.8151093      8.0380550500000005
   684   1             14.32451466             19.88147902      8.1576325000000001
   685   1      18.302740450000002      20.063579470000001      8.1675797200000009
   686   1      22.277607870000001      19.882028810000001      8.1133942700000006
   687   1      26.340682869999998      19.973817369999999      7.8571188799999998
   688   1             30.57465011      20.043081529999998      8.0831919699999997
   689   1     0.13907178000000001      23.550418839999999      8.1821993499999994
   690   1      4.2399074900000002      23.369416449999999      8.2414287999999996
   691   1      8.1621006099999995      23.452177509999999      8.2862887599999997
   692   1             12.14770107             23.37174044      8.2609004899999992
   693   1      16.336475719999999             23.52752065      8.3362194400000007
   694   1             20.38488839      23.566809030000002      8.1582231099999998
   695   1      24.226745529999999      23.488319629999999      8.0485935600000005
   696   1      28.453198149999999      23.445618499999998      8.1334505700000008
   697   1      2.1656759000000001      26.791595690000001              8.26117524
   698   1      6.1800836200000004      27.025989689999999      8.3135921100000001
   699   1              10.0819318      26.987594250000001      8.2349296200000008
   700   1             14.33601799      27.017025660000002      8.3166708400000005
   701   1      18.311422220000001      27.065601999999998      8.2714695500000008
   702   1      22.399525499999999             27.01447705      8.1013091700000004
   703   1             26.49585939      27.028104859999999      8.1950655099999992
   704   1      30.511198839999999      26.961333199999999      8.2449818599999993
   705   1             -0.01032215      28.242734769999998      8.8107531399999992
   706   1      4.0380806800000002    0.040586900000000002      8.8332245599999997
   707   1      8.1929593100000009              0.14629127      9.0656606499999999
   708   1      12.074623580000001     0.13563083000000001      8.7721879099999995
   709   1      16.353851330000001     0.20727826999999999      8.9990676500000006
   710   1      20.383618670000001  -0.0093286099999999993      8.9799399500000003
   711   1      24.606030149999999     0.14811453999999999      8.9435353899999992
   712   1      28.465650310000001             -0.20202339      9.0641796600000006
   713   1      2.1501995699999998      3.4699964300000001      8.8996279299999994
   714   1      6.2670113000000001              3.60454666      9.0019011300000003
   715   1      10.211597360000001              3.69197927      9.0818457099999996
   716   1             14.31659322      3.6551867900000001      8.8904173199999992
   717   1      18.185310650000002      3.7072738099999998      9.0070189599999999
   718   1      22.315297839999999      3.8454768000000001      8.9755979799999999
   719   1      26.572573989999999      3.7387492999999998      9.1205990000000003
   720   1      30.664719000000002      3.5187006799999998      8.9728548099999994
   721   1      32.415885009999997      7.0759733200000001      8.8471377800000006
   722   1      4.1047535399999999      7.1147876200000004      8.9206363300000007
   723   1      7.9983159400000003      7.2343330799999999              9.09381153
   724   1      11.983402480000001      7.0749178700000002      9.0089907900000004
   725   1      16.116376760000001      7.0507297800000002      8.8249644800000002
   726   1      20.348539450000001      7.1375563299999998      8.9133489699999995
   727   1      24.297759599999999      7.2211658400000003      9.0346427400000007
   728   1      28.434803219999999      7.1009146100000002      8.9605605399999995
   729   1      1.8150096099999999      10.686676110000001      8.9488788600000007
   730   1              6.13118272      10.585900479999999      8.9715072300000003
   731   1             10.04195045      10.520438479999999      8.8996145000000002
   732   1             14.22503607              10.8283132      8.9952009499999992
   733   1      18.387234469999999             10.82554751      9.0030671899999994
   734   1      22.038224159999999             10.68407833      9.0504996799999997
   735   1      26.267213080000001      10.576969119999999      9.0466146799999994
   736   1      30.451314119999999             10.52516316      8.7466385199999994
   737   1    0.077026769999999994      14.136294080000001               9.0002879
   738   1      4.1230185199999996             13.97839199      8.9581057800000004
   739   1      7.8942587800000004             14.28497739      9.0726254500000003
   740   1      12.078621979999999      13.635651660000001      9.0978177500000008
   741   1      15.956160110000001             14.00894853      8.9938220900000001
   742   1             20.20251648      13.987672979999999      8.8490399499999999
   743   1      24.398928219999998      14.361923300000001      8.8784192700000002
   744   1      28.324421709999999             13.93755994      8.9117301500000004
   745   1      1.8110173599999999             17.49125214      8.9260940200000007
   746   1      6.0466926000000001             17.37444438      8.8829742700000001
   747   1      10.153179270000001      17.471441410000001      8.9594343500000004
   748   1      14.227312960000001      17.552209340000001      9.0539988000000005
   749   1      18.207780700000001      17.587746259999999      8.9544763199999995
   750   1      22.455148489999999      17.543977439999999      8.9179558799999992
   751   1             26.45021586      17.871495629999998      8.8588109700000004
   752   1      30.350410190000002      17.530677390000001      8.9462396200000001
   753   1      32.621967239999996      21.201959479999999      8.9123070000000002
   754   1      4.0778570800000002      20.996157530000001      8.8586673000000005
   755   1      8.3005061999999992      20.928901110000002      8.9215098200000007
   756   1             12.24396791      20.941078950000001      8.9904800700000003
   757   1      16.313592799999999      21.187311609999998      8.9694905699999996
   758   1      20.344420629999998      21.256584069999999      8.9190372500000006
   759   1             24.38795739             21.15139765      8.8790242500000005
   760   1      28.289209039999999             21.14003503      8.9408416800000001
   761   1      2.3396808099999999      24.540010859999999      9.2342517100000006
   762   1              6.06027191      24.749831690000001      8.9878100700000001
   763   1      10.282950530000001      24.640943879999998      8.9763803200000005
   764   1             14.12719207      24.496368539999999      9.0985245199999998
   765   1      18.447661060000001      24.814073359999998      9.0204239600000005
   766   1      22.375545280000001      24.615881250000001      8.9565694800000006
   767   1      26.510375880000002             24.81930242      8.8766272399999995
   768   1      30.555513680000001      24.524213830000001      8.8637640199999996
   769   2      28.397074799999999      17.795245179999998      9.2182304500000001
   770   2      29.230230049999999      19.352017549999999              9.22394012
