N2-dn2-coord-10bar/300K/snapshots/frame-40609/run-000/../data.lammps (written by ASE) 

770 	 atoms 
2  atom types
0.0      32.470343392086264  xlo xhi
0.0      28.120142247150884  ylo yhi
0.0      31.213473999158239  zlo zhi


Atoms 

     1   1      2.0293964600000001      1.1716090800000001    0.023552650000000001
     2   1      6.0880008999999999              1.17168918              0.02556874
     3   1      10.146952280000001              1.17170328    0.025416459999999998
     4   1      14.205754900000001      1.1716496700000001              0.02501565
     5   1             18.26456816              1.17166478              0.02504435
     6   1             22.32338141      1.1716496700000001              0.02501565
     7   1      26.382184030000001              1.17170328    0.025416459999999998
     8   1      30.441135410000001              1.17168918              0.02556874
     9   1  9.1780000000000006e-05      4.6866847900000002    0.025581599999999999
    10   1      4.0587011400000002      4.6866847900000002    0.025581599999999999
    11   1      8.1174961000000003      4.6866290399999997    0.025584639999999999
    12   1             12.17638011      4.6866852999999997              0.02491202
    13   1             16.23517979      4.6866942700000003    0.025006210000000001
    14   1      20.293956519999998      4.6866942700000003    0.025006210000000001
    15   1      24.352756209999999      4.6866852999999997              0.02491202
    16   1      28.411640219999999      4.6866290399999997    0.025584639999999999
    17   1      2.0293964600000001      8.2016395800000002    0.026613040000000001
    18   1      6.0881071599999999      8.2016314300000008              0.02543782
    19   1             10.14701835               8.2017045    0.025156850000000001
    20   1      14.205766049999999      8.2017080900000003    0.024990459999999999
    21   1             18.26456816      8.2017077599999997    0.025091249999999999
    22   1      22.323370260000001      8.2017080900000003    0.024990459999999999
    23   1      26.382117969999999               8.2017045    0.025156850000000001
    24   1      30.441029149999999      8.2016314300000008              0.02543782
    25   1  9.2789999999999998e-05             11.71671873    0.025573410000000001
    26   1              4.05870014             11.71671873    0.025573410000000001
    27   1      8.1176017700000003             11.71668698              0.02497914
    28   1             12.17637068             11.71673069    0.025001590000000001
    29   1      16.235177310000001      11.716730249999999    0.025074039999999999
    30   1      20.293959009999998      11.716730249999999    0.025074039999999999
    31   1      24.352765640000001             11.71673069    0.025001590000000001
    32   1      28.411534549999999             11.71668698              0.02497914
    33   1      2.0293964600000001             15.23167155              0.02525285
    34   1      6.0881728300000004      15.231678799999999    0.025062859999999999
    35   1             10.14698486      15.231762639999999               0.0250786
    36   1             14.20578841             15.23176782    0.025201990000000001
    37   1             18.26456816              15.2317707    0.025149979999999999
    38   1      22.323347900000002             15.23176782    0.025201990000000001
    39   1      26.382151459999999      15.231762639999999               0.0250786
    40   1      30.440963480000001      15.231678799999999    0.025062859999999999
    41   1      32.470327990000001      18.746748629999999    0.024951939999999999
    42   1      4.0588083299999997      18.746748629999999    0.024951939999999999
    43   1      8.1175770200000006      18.746803499999999    0.025222040000000001
    44   1             12.17637459      18.746799750000001    0.025428470000000002
    45   1      16.235159400000001      18.746805200000001    0.025487360000000001
    46   1      20.293976919999999      18.746805200000001    0.025487360000000001
    47   1      24.352761730000001      18.746799750000001    0.025428470000000002
    48   1             28.41155929      18.746803499999999    0.025222040000000001
    49   1      2.0293964600000001      22.261939099999999    0.025844880000000001
    50   1      6.0881419299999999      22.261841799999999    0.025489439999999999
    51   1             10.14692954             22.26176895              0.02551757
    52   1             14.20573559      22.261804690000002    0.025639160000000001
    53   1             18.26456816             22.26178625    0.025640119999999999
    54   1      22.323400729999999      22.261804690000002    0.025639160000000001
    55   1      26.382206780000001             22.26176895              0.02551757
    56   1             30.44099439      22.261841799999999    0.025489439999999999
    57   1  5.6450000000000003e-05      25.776936450000001              0.02613327
    58   1      4.0587364700000004      25.776936450000001              0.02613327
    59   1      8.1175325399999991              25.7767713    0.024734180000000001
    60   1      12.176376469999999      25.776831090000002              0.02545323
    61   1      16.235145939999999      25.776775220000001    0.025273360000000002
    62   1             20.29399038      25.776775220000001    0.025273360000000002
    63   1      24.352759840000001      25.776831090000002              0.02545323
    64   1      28.411603769999999              25.7767713    0.024734180000000001
    65   1  0.00024266000000000001              2.34304215     0.80166565000000001
    66   1      4.0585502699999996              2.34304215     0.80166565000000001
    67   1      8.1157394600000003              2.34454954     0.80169402000000001
    68   1             12.17601256      2.3433829099999999     0.80116898000000003
    69   1      16.235258170000002      2.3433209100000001     0.80090046999999998
    70   1      20.293878150000001      2.3433209100000001     0.80090046999999998
    71   1      24.353123750000002      2.3433829099999999     0.80116898000000003
    72   1      28.413396859999999              2.34454954     0.80169402000000001
    73   1      2.0293964600000001      5.8582218700000004     0.80119762000000005
    74   1      6.0870566899999998      5.8583336700000004              0.80194851
    75   1             10.14649655              5.85853131     0.80121584000000001
    76   1             14.20597894      5.8582938599999999     0.80086840999999998
    77   1             18.26456816      5.8583798500000004               0.8010794
    78   1      22.323157380000001      5.8582938599999999     0.80086840999999998
    79   1             26.38263976              5.85853131     0.80121584000000001
    80   1      30.442079629999999      5.8583336700000004              0.80194851
    81   1  0.00019438999999999999      9.3717771800000005     0.80082061000000004
    82   1      4.0585985400000002      9.3717771800000005     0.80082061000000004
    83   1      8.1175070500000004      9.3725002699999997     0.80149060999999999
    84   1      12.176590020000001      9.3733583399999993     0.80088261999999999
    85   1             16.23512199      9.3733789200000004              0.80106506
    86   1             20.29401433      9.3733789200000004              0.80106506
    87   1      24.352546289999999      9.3733583399999993     0.80088261999999999
    88   1      28.411629269999999      9.3725002699999997     0.80149060999999999
    89   1      2.0293964600000001             12.88692854     0.80220621000000003
    90   1      6.0883212999999996             12.88743848     0.80138414999999996
    91   1      10.147128609999999             12.88859852     0.80085256000000005
    92   1             14.20571782      12.888558189999999     0.80113791000000001
    93   1             18.26456816      12.888409899999999     0.80109381000000002
    94   1      22.323418490000002      12.888558189999999     0.80113791000000001
    95   1             26.38200771             12.88859852     0.80085256000000005
    96   1      30.440815019999999             12.88743848     0.80138414999999996
    97   1              0.00012365      16.403222639999999     0.80145666999999998
    98   1      4.0586692700000002      16.403222639999999     0.80145666999999998
    99   1      8.1174337899999998      16.403825260000001     0.80097196999999998
   100   1              12.1761021             16.40390721     0.80133072000000005
   101   1             16.23503496      16.403861750000001     0.80140014999999998
   102   1      20.294101359999999      16.403861750000001     0.80140014999999998
   103   1      24.353034220000001             16.40390721     0.80133072000000005
   104   1      28.411702529999999      16.403825260000001     0.80097196999999998
   105   1      2.0293964600000001      19.919205120000001     0.80066369999999998
   106   1              6.08752564             19.91894023     0.80122479000000002
   107   1      10.146078839999999             19.91919038     0.80159137999999996
   108   1      14.204993419999999              19.9192584     0.80178742000000003
   109   1             18.26456816      19.919377350000001     0.80194975999999996
   110   1      22.324142899999998              19.9192584     0.80178742000000003
   111   1      26.383057470000001             19.91919038     0.80159137999999996
   112   1      30.441610669999999             19.91894023     0.80122479000000002
   113   1              0.00142012      23.434536609999999     0.80178442000000005
   114   1      4.0573728100000004      23.434536609999999     0.80178442000000005
   115   1      8.1165862000000004      23.433936769999999     0.80182306000000003
   116   1             12.17555218      23.433996919999998     0.80156656000000004
   117   1             16.23465491      23.434040110000002     0.80170828999999999
   118   1      20.294481409999999      23.434040110000002     0.80170828999999999
   119   1      24.353584130000002      23.433996919999998     0.80156656000000004
   120   1      28.412550110000002      23.433936769999999     0.80182306000000003
   121   1      2.0293964600000001      26.949875330000001              0.80297246
   122   1      6.0858208300000003      26.950066320000001              0.80215291
   123   1             10.14598146      26.949241430000001     0.80165810000000004
   124   1             14.20520604      26.948673230000001     0.80131923999999999
   125   1             18.26456816             26.94858318     0.80108193999999999
   126   1      22.323930279999999      26.948673230000001     0.80131923999999999
   127   1      26.383154860000001      26.949241430000001     0.80165810000000004
   128   1             30.44331549      26.950066320000001              0.80215291
   129   1      32.376313269999997   -0.018138540000000002      1.3882156699999999
   130   1      4.1247431900000002      28.059679790000001      1.5435965899999999
   131   1      8.0393602499999997              -0.0217205               1.4001778
   132   1             12.10616239              0.10516394      1.3706114599999999
   133   1      16.305082550000002             28.28950085      1.4545654100000001
   134   1      20.255490890000001   -0.023273309999999998      1.5395201300000001
   135   1      24.335219649999999    0.056291389999999997      1.4338182900000001
   136   1      28.433873670000001              0.01084483      1.5341244199999999
   137   1      2.0549126599999998      3.4682013399999998              1.47788089
   138   1      6.2145060299999999              3.42425961      1.5678428799999999
   139   1             10.11800979      3.4930495399999999      1.4893837400000001
   140   1             14.19001738              3.55456555      1.5186569999999999
   141   1      18.234145080000001      3.5533071199999999      1.4716549400000001
   142   1             22.22834602      3.5307341600000002      1.4897010799999999
   143   1      26.331131790000001      3.5339021399999999              1.45533036
   144   1      30.320542589999999      3.4872418199999999      1.5282814499999999
   145   1      32.415365450000003      7.0659674800000003              1.46777965
   146   1      4.0165934999999999      6.9870917300000004      1.4965552900000001
   147   1      8.1937039400000007      6.9188961100000004      1.5700524499999999
   148   1             12.17967084      6.8992473600000004      1.5285575499999999
   149   1      16.270745659999999      6.9167674400000001      1.4106604700000001
   150   1             20.30658377      7.1709441500000004              1.65852603
   151   1      24.297335329999999      7.0269257899999999              1.54864223
   152   1      28.336610499999999              7.06587298      1.5078279400000001
   153   1              2.08052408             10.67329784      1.5492058500000001
   154   1              6.01461501             10.54174147      1.4447179299999999
   155   1      9.9988556000000006             10.56191061      1.4803578399999999
   156   1             14.20092391             10.50751981              1.48517192
   157   1      18.212761359999998      10.503404189999999      1.5240293499999999
   158   1      22.247727609999998      10.634439159999999      1.6029567899999999
   159   1      26.398988559999999      10.519139900000001      1.4296486399999999
   160   1      30.480220549999999      10.577813859999999              1.43888335
   161   1              0.01218204             14.05481428      1.4508358699999999
   162   1              4.09903964      14.108356280000001              1.45317729
   163   1              8.10219968      14.056911619999999      1.5169039200000001
   164   1             12.11800966      14.046693530000001      1.4387388000000001
   165   1      16.141058820000001             14.09691581               1.4191506
   166   1      20.378858900000001      14.028515329999999      1.4751369400000001
   167   1      24.320878489999998             14.05994476              1.55414947
   168   1      28.455710870000001             13.99028755               1.3602888
   169   1      2.0427649099999998      17.625540560000001              1.55839017
   170   1      6.0690830800000004      17.494091619999999      1.4762147699999999
   171   1      10.066392629999999      17.596696380000001              1.38576918
   172   1      14.044943460000001      17.591985390000001      1.5156113499999999
   173   1      18.256754910000002      17.648531040000002              1.53400384
   174   1      22.236604289999999      17.548425139999999      1.4288448300000001
   175   1      26.418186240000001      17.543656469999998      1.4317378999999999
   176   1             30.49361729      17.617100529999998              1.46323381
   177   1             -0.03061469      21.100949979999999      1.5927340299999999
   178   1      3.9672759599999998      21.053327719999999               1.5144921
   179   1      8.2433970799999994      21.023952730000001      1.4418547900000001
   180   1             12.24668029      21.184460730000001      1.4645524400000001
   181   1      16.187496580000001             21.10346419      1.5597426400000001
   182   1      20.364055270000001      21.042030400000002      1.4167722700000001
   183   1             24.26541718             21.06360463      1.4352639700000001
   184   1             28.48366197      21.041273579999999      1.4423524700000001
   185   1      2.0861599800000001      24.616530090000001      1.4755093500000001
   186   1      6.0006264600000003      24.549312230000002      1.4627281000000001
   187   1             10.12388573      24.558275609999999      1.5217559300000001
   188   1             14.30277534      24.534248550000001              1.41414369
   189   1             18.23593821      24.561168389999999                1.244569
   190   1      22.286356770000001      24.671495010000001      1.3710012899999999
   191   1      26.401884429999999             24.56145317      1.4026776700000001
   192   1      30.488550979999999             24.57190555              1.43886183
   193   1      2.0053856699999999      1.1079592199999999              2.45810671
   194   1      6.0710376999999998              1.20778564              2.41654473
   195   1      9.9305190299999992      1.1515987000000001              2.40646285
   196   1      14.215980780000001      1.2164887499999999      2.4986528400000001
   197   1      18.253611639999999              1.26063781      2.3423792799999998
   198   1      22.334539509999999      1.3160072899999999      2.3817320400000002
   199   1      26.374317869999999      1.1444519099999999              2.42873969
   200   1      30.432894009999998      1.1885740899999999      2.4617781399999998
   201   1      32.436741939999997      4.6373519300000003              2.32269821
   202   1      4.0510846599999999      4.6762421700000001      2.3974565399999999
   203   1      8.1403133099999998      4.6293707099999999      2.4878535500000001
   204   1             12.16178466      4.5763123200000004      2.4776147800000001
   205   1      16.195095890000001      4.7175535200000001      2.5532855400000001
   206   1      20.249806100000001      4.6812418999999998      2.4372385599999999
   207   1      24.254243859999999      4.7336947299999999      2.4562626700000001
   208   1      28.336365529999998      4.6310331500000004      2.4988858700000001
   209   1              1.96877196      8.2008049399999994      2.3488994999999999
   210   1      5.9790922399999999      8.1714743999999992      2.4260723199999998
   211   1              10.1034764      8.2238716699999994      2.3774053799999999
   212   1      14.246896400000001      8.1463892500000004              2.43698506
   213   1             18.15206852      8.1845885999999997      2.3684422600000001
   214   1      22.367555079999999      8.2311975400000001      2.4239007300000002
   215   1      26.295005499999998      8.2881811800000005      2.4020240099999999
   216   1      30.488851690000001      8.2091947899999997      2.3416600500000002
   217   1      32.416408529999998             11.65097503      2.3821409400000002
   218   1      4.0658468900000004             11.69785607              2.42786744
   219   1      8.0507352000000001             11.82470013      2.4275109499999998
   220   1             12.20040084             11.66990474              2.38507823
   221   1      16.178175400000001             11.71117623      2.4227021799999999
   222   1      20.283059909999999      11.744908519999999      2.3207149199999999
   223   1             24.50581378      11.647248940000001      2.5289702799999998
   224   1      28.432929529999999             11.77071348      2.4598890400000002
   225   1               2.0369055      15.196337890000001      2.3537538800000002
   226   1      6.1547538299999998             15.37642784      2.4566760900000002
   227   1             10.07056989             15.21713293      2.3331675199999999
   228   1             14.20068509      15.257933489999999              2.40350464
   229   1      18.273736169999999      15.152294550000001      2.3863692400000001
   230   1      22.247732200000002              15.2684462      2.4538532200000001
   231   1              26.3364151      15.158148539999999      2.4058985499999999
   232   1      30.475250559999999      15.154075150000001      2.5542961700000002
   233   1      32.454286109999998      18.757982169999998              2.41888171
   234   1      4.1317178500000002             18.71846124              2.39649672
   235   1      8.0695886800000007             18.70345769      2.4316824499999998
   236   1             12.13420312      18.784410860000001              2.37785037
   237   1      16.267870330000001             18.70916854              2.43717315
   238   1      20.256497710000001             18.82476608      2.3623488199999998
   239   1      24.365595190000001             18.72766781      2.4346832900000002
   240   1      28.388997740000001      18.706461000000001      2.5412528299999999
   241   1              1.95887371      22.283305970000001      2.3881251200000002
   242   1      6.0199175800000004      22.211874739999999      2.4198829599999998
   243   1             10.11660189             22.19458758      2.3987301599999999
   244   1             14.18516788      22.248810110000001      2.4890992000000001
   245   1      18.207908270000001             22.35947307      2.4037284200000002
   246   1      22.376141610000001      22.318798000000001      2.5231590399999999
   247   1      26.391122209999999      22.264735890000001      2.3172575399999999
   248   1      30.429241040000001      22.303462870000001      2.3928655999999999
   249   1    0.030383670000000002      25.784157520000001      2.3686666399999998
   250   1              3.99289921      25.764655009999998              2.48811721
   251   1      8.0199642000000004      25.620757019999999      2.4537054899999999
   252   1      12.260604349999999      25.805399959999999      2.3094380000000001
   253   1             16.28009359      25.872898849999999      2.2927391300000002
   254   1      20.222450970000001      25.837316319999999      2.3602213999999999
   255   1      24.310868320000001      25.817073619999999      2.3333013399999998
   256   1      28.474076369999999             25.73907415              2.48851763
   257   1      32.476170600000003      2.3400805199999999              3.25341711
   258   1      4.1082561100000001      2.3294863499999998      3.2655175999999999
   259   1      8.1554035599999999      2.3070968299999999      3.3075684000000001
   260   1             12.08496579              2.28100733      3.2249579000000002
   261   1      16.173824969999998      2.3785661500000002              3.25093166
   262   1             20.15460474      2.4104407499999998              3.18933592
   263   1      24.418433369999999      2.3832758599999999      3.2741447400000001
   264   1      28.491712020000001      2.2817575799999998              3.33854805
   265   1               1.9659438      5.8352960100000004      3.1913303200000001
   266   1      6.0585795600000001      5.8667103899999997      3.3308626700000001
   267   1      10.134170620000001              5.95400346      3.3859514900000001
   268   1      14.118261070000001      5.7473837200000002      3.3240270199999999
   269   1      18.266990620000001      5.8224866400000002      3.1782710399999998
   270   1      22.180832519999999      5.8890938200000003      3.2585375700000001
   271   1      26.363052280000002               5.9662099      3.3002067899999998
   272   1      30.430750249999999      5.7259269699999997      3.3040725399999999
   273   1      32.451033559999999      9.3265287600000004      3.2310060900000002
   274   1      3.9981014199999998      9.2968632299999996              3.39294224
   275   1      8.0374572299999993      9.4512625000000003      3.2725579800000002
   276   1               12.055296      9.3059764000000005      3.2248852800000001
   277   1      16.278292130000001      9.2810392499999992      3.3065423200000001
   278   1      20.275358130000001      9.4226988800000004      3.2377056999999998
   279   1      24.319470800000001      9.4096060900000005      3.3425495299999999
   280   1      28.400273039999998      9.4032349899999996      3.1738173700000001
   281   1      2.0127610300000001             12.77844331      3.2154090599999998
   282   1      6.1289865399999996             12.95859699      3.2291863599999999
   283   1              10.0403816             12.98905023      3.2608138499999999
   284   1             14.21959429             12.87325751      3.1998868800000002
   285   1      18.280023109999998      12.778573189999999      3.3305228900000001
   286   1      22.360030380000001      12.966861939999999      3.2539982799999998
   287   1      26.425889919999999      12.866287489999999      3.3192154500000002
   288   1      30.515215300000001      12.825048410000001      3.2602948600000001
   289   1             32.55270196      16.383756999999999      3.2367120699999998
   290   1      4.0280526800000001      16.383692320000002      3.2978664200000001
   291   1      8.1289692299999992             16.40524259      3.2140774300000001
   292   1      12.103237379999999      16.448226219999999      3.2798038200000001
   293   1              16.1615228      16.378843839999998              3.29914738
   294   1      20.292160800000001      16.398793229999999              3.24326757
   295   1             24.34637515             16.47728287      3.3265546700000002
   296   1      28.410743549999999      16.243037879999999      3.1933706700000002
   297   1              2.03633335             19.79392309      3.2287365499999998
   298   1      6.1175248699999996      19.883630019999998              3.22475398
   299   1      10.166602019999999      19.736801700000001      3.2567020100000001
   300   1              14.0749716             19.81535117      3.3323825999999999
   301   1      18.236622860000001      19.931462849999999      3.2902677300000001
   302   1      22.376355100000001      19.864745339999999      3.2421072199999998
   303   1      26.392788840000001             19.82508503              3.23314623
   304   1      30.427099810000001      19.881572469999998      3.2977641100000001
   305   1      32.509747330000003             23.50142962      3.3008327199999998
   306   1               4.0692987             23.42800166              3.28234286
   307   1      7.9703654799999999      23.321432860000002      3.2075411699999998
   308   1             12.10574093      23.469009190000001      3.1689064299999998
   309   1             16.08484631      23.431898589999999      3.1968824599999999
   310   1      20.216730930000001      23.487187649999999      3.0851272600000001
   311   1             24.29474261             23.32733378              3.31014871
   312   1      28.334998909999999      23.392959950000002               3.2683304
   313   1      1.9507399400000001      26.904392300000001      3.3278857899999998
   314   1      6.0394606800000004      26.919087149999999      3.1915386099999998
   315   1             10.16599999      26.937096520000001      3.1906071200000001
   316   1      14.216429979999999      26.965940320000001      3.1090703400000002
   317   1             18.16282597      27.006898939999999      3.1342524900000002
   318   1      22.401208220000001      27.063906830000001      3.1303022500000002
   319   1             26.44865699      26.911213979999999      3.3061683500000001
   320   1      30.492684229999998             26.88550781      3.1920903799999998
   321   1      32.410446890000003             27.99048277      4.0300955500000004
   322   1      3.9006029799999999             28.05064617      4.1264830899999998
   323   1      8.0431385500000001      28.128362939999999      3.9095853900000002
   324   1             12.10563161      28.022332519999999              4.10020162
   325   1      16.128342190000001   -0.064332219999999996      4.1106022700000002
   326   1      20.170204850000001    0.075443360000000001      3.9445482300000001
   327   1             24.42261233    0.073501300000000006      4.0941966000000001
   328   1      28.427419239999999   -0.064119110000000007      4.0971801599999997
   329   1              1.97081551      3.5731054499999999      4.0277120899999996
   330   1      6.0943945399999997              3.41581745      4.1050759499999998
   331   1             10.15100135              3.46635844      4.0589810399999999
   332   1             14.15697905      3.4516410099999999      4.0613301999999996
   333   1      18.216280980000001      3.6223498599999999      4.0733794999999997
   334   1      22.265626439999998      3.4736050299999999      4.0487306800000002
   335   1             26.32977648      3.4632947399999998              4.09291144
   336   1             30.45541304      3.3900579899999999      4.2016789399999999
   337   1   -0.064058589999999999      7.0294870700000001      4.0854315799999998
   338   1      3.9959154200000002      6.9705265699999996      4.1709028000000004
   339   1      8.1707032500000008      7.0890630699999999               4.0824837
   340   1      12.126475940000001      7.0965891900000004      4.1274166599999997
   341   1      16.185562019999999      6.9887450700000002      3.9845391600000002
   342   1             20.33493459      7.0242918200000002      4.1548273199999999
   343   1      24.279507580000001              7.00901336      4.1363702800000004
   344   1             28.43781195      6.9837808099999998               4.0362757
   345   1      1.9718692600000001             10.44195946      4.0708877899999996
   346   1              5.99457533             10.66863193      4.1282147299999998
   347   1             10.03417503             10.62028458      4.0797179100000003
   348   1      14.248025180000001             10.48558068      3.9448279799999999
   349   1      18.293416690000001              10.5805878              3.95966788
   350   1      22.317430030000001             10.60048636      4.0596942599999997
   351   1      26.378799650000001             10.50459386      4.0897065599999998
   352   1      30.464321219999999      10.459791689999999      3.9711008200000002
   353   1      32.576669989999999      13.910359659999999      4.0501538500000001
   354   1      4.0250578600000004             13.97882969      4.0482927000000002
   355   1      8.0631744300000001      14.255000020000001      4.0376676800000002
   356   1             12.18533712      14.094300240000001              4.07479558
   357   1      16.260808730000001             13.94850656      4.1556098800000001
   358   1             20.26437245      14.035722030000001      4.1102579300000004
   359   1      24.384637789999999             13.95943026      3.9906520400000001
   360   1      28.334117299999999             13.99141333      4.2634872000000001
   361   1      1.9486396399999999      17.652161159999999      4.0513068900000002
   362   1      6.0426505800000001      17.646659289999999              4.01731455
   363   1             10.12393383      17.559554519999999      3.9784872199999999
   364   1      14.127018659999999             17.47193609      4.0510368100000003
   365   1      18.183153470000001      17.549280410000001              4.09442561
   366   1             22.22710515      17.577099369999999      4.0012774100000001
   367   1      26.507270930000001             17.43249406      4.2211699899999999
   368   1             30.40310642      17.528099610000002      3.9870053200000002
   369   1      32.600047660000001      21.112491810000002      4.0768164000000002
   370   1              4.11918658      21.030151620000002      4.0860584400000004
   371   1      8.0681033899999992      20.970087639999999      4.0061049200000003
   372   1      12.080878309999999      21.091419309999999      3.9281841200000001
   373   1             16.07217258      21.097482880000001      4.0828816899999998
   374   1      20.169795090000001             21.10257872      4.0388031399999997
   375   1      24.441628850000001      20.984367049999999      4.1401495300000004
   376   1      28.415594259999999      21.060696159999999      4.1491920899999997
   377   1      2.0705064499999999      24.603937640000002      4.1617551600000002
   378   1      6.0917490900000004      24.520608429999999      4.2051761000000001
   379   1      10.016356160000001      24.529998729999999      4.1141747799999999
   380   1             14.06885705      24.522129020000001      3.8931712900000002
   381   1      18.155284309999999      24.726999429999999      3.9118309999999998
   382   1      22.303258809999999      24.680888729999999      3.8609557099999998
   383   1      26.382330840000002      24.646391269999999      4.0292189299999999
   384   1             30.26814727             24.57703875      4.1018427700000002
   385   1      1.9625564200000001      1.1088257500000001      4.8964888599999998
   386   1      6.1100148900000004     0.97424955999999996      4.9222795399999999
   387   1             10.10799735      1.1559675300000001              4.84120434
   388   1      14.092200979999999              1.21749511      4.9065499900000002
   389   1      18.251821580000001              1.28063036              4.89297089
   390   1      22.378661130000001      1.3081141199999999      4.9320609900000001
   391   1      26.323654059999999      1.1696049900000001      5.0511438499999999
   392   1      30.536954829999999      1.1184974599999999      4.8974055999999999
   393   1      32.376753039999997      4.6825170700000003      4.9332125900000001
   394   1      4.0294678599999996      4.6937916800000004      5.0003722799999997
   395   1      8.0340293099999993      4.6787279499999999      4.9936527899999996
   396   1      12.106038740000001      4.6835055900000002      4.9527261600000001
   397   1             16.10751003      4.6173791099999999              5.05327913
   398   1             20.24130783      4.7478543699999998      4.9547107700000002
   399   1      24.327631459999999      4.6778992600000002      4.9666693200000003
   400   1      28.325930020000001      4.5951001099999997      4.9663498400000003
   401   1              1.93576836      8.1192182400000004      4.9187448500000004
   402   1      6.0686625799999998      8.3032878599999993      4.9713966799999998
   403   1      10.044904000000001      8.2444874499999994      4.9029567399999996
   404   1               14.225133      8.1547732699999997      4.9113112399999999
   405   1             18.31990674      8.2881217500000002      4.9941178300000004
   406   1      22.396871489999999      8.0799182500000004      4.9617769300000001
   407   1      26.374287800000001              8.19141297      5.0702678499999996
   408   1      30.314201430000001      8.1324932800000003      4.8161026500000004
   409   1             32.47213782             11.56555754      4.8236685499999998
   410   1      3.9812040899999999             11.62615576      4.9694840100000004
   411   1      8.1195168800000008             11.83542413      4.9089375000000004
   412   1             12.13546073             11.77726427      4.8676473700000003
   413   1      16.304827240000002      11.755032679999999      4.9275555500000001
   414   1      20.301337879999998             11.70036702      4.8806359800000001
   415   1             24.45018881      11.588561139999999      4.9908610299999996
   416   1      28.436486290000001      11.698215299999999      4.8899524999999997
   417   1      2.0204835000000001      15.221879339999999      4.9452809100000001
   418   1      5.9290967800000001             15.28337758              4.82427721
   419   1      10.121592769999999      15.300932960000001      4.9530745500000002
   420   1      14.155432080000001             15.20469153      4.9472122799999996
   421   1      18.206896499999999      15.218296949999999      4.9309170199999999
   422   1      22.314544470000001      15.175906680000001      4.8942817999999999
   423   1             26.43343072      15.149047270000001              4.99582514
   424   1      30.528827769999999      15.150622439999999      4.8822566700000003
   425   1      32.451286279999998      18.712907319999999      4.9685759000000003
   426   1      4.0784382399999997      18.744943450000001      4.8909044899999996
   427   1      8.0939048699999994      18.696036190000001              4.81690358
   428   1             12.10705257      18.798905449999999      4.9620062799999998
   429   1      16.097194030000001             18.72174381              5.01861947
   430   1      20.248429860000002      18.838321990000001              4.92010199
   431   1      24.521847640000001      18.743973149999999              4.99063575
   432   1      28.457670050000001             18.70634729      5.0103687399999997
   433   1      2.1455210999999998      22.336465839999999      4.9905332099999997
   434   1              6.04055053      22.208607220000001      5.0259674399999996
   435   1              10.0697831             22.22750641      4.8267975999999999
   436   1             14.03422033      22.260718449999999      4.9414280699999997
   437   1      18.112829949999998      22.351238840000001      4.8805567700000001
   438   1      22.326027710000002             22.25383798      4.8986088199999998
   439   1             26.33346543             22.42902552      4.8794932700000002
   440   1      30.442645930000001      22.313110770000002      4.8186965900000001
   441   1      32.484794790000002      25.667914589999999      4.9711971200000002
   442   1      4.0578490900000004             25.74401524      5.0125450899999997
   443   1      8.1086763200000007      25.823913180000002      4.9194931999999998
   444   1             11.99526197              25.6567209      5.0064764899999998
   445   1      16.100427499999999      25.648923190000001      4.8108410900000003
   446   1             20.23437509      25.891956499999999      4.7633101399999997
   447   1      24.349863429999999             25.81672219      4.8209677900000001
   448   1      28.324013879999999             25.86837791      4.9307088400000003
   449   1    0.033782230000000003      2.2293309899999998      5.6539198300000004
   450   1      4.0013736099999999      2.1930404700000001      5.7457678999999997
   451   1      8.0310928500000003      2.3434810499999998              5.81713682
   452   1             12.08929154      2.3027252699999998      5.7608030599999998
   453   1              16.1054143      2.2935146500000001      5.8437071200000004
   454   1      20.306171129999999              2.48196642      5.8266658500000004
   455   1      24.434545029999999      2.3899188599999999      5.7627463099999998
   456   1      28.523817640000001      2.2914774200000001      5.8285470799999999
   457   1      2.0154020799999999      5.8250206499999999      5.7124019700000002
   458   1      6.0554399099999996      5.9169636499999996      5.7965848700000002
   459   1      10.088169580000001      5.8658340999999998              5.70358857
   460   1      14.104719469999999      5.7879431200000004      5.8763911599999998
   461   1             18.19416129      5.8930481600000002              5.66132437
   462   1      22.385104269999999      5.8660408400000001      5.7966690700000001
   463   1             26.38033549      5.7954190700000003      5.8152657200000002
   464   1      30.433664400000001              5.69982392      5.6339196899999999
   465   1             32.48179477      9.3156566499999993      5.6383457400000001
   466   1      4.0201783200000003      9.2016268100000005      5.8766003299999996
   467   1      8.1177441100000003      9.3850807300000003      5.7012387699999998
   468   1      12.178548859999999      9.3947933300000006      5.6095159600000004
   469   1      16.278619719999998      9.3449857600000001      5.6749958600000001
   470   1      20.370554670000001      9.4036883899999992      5.7217274199999997
   471   1             24.42218227      9.3520468099999992      5.8001784299999999
   472   1      28.400939399999999      9.3634188100000006      5.6967143199999999
   473   1              1.95077575      12.801947350000001      5.7853859400000003
   474   1      6.0499485000000002             12.96014705      5.7093732599999996
   475   1             10.10945615      12.985020779999999      5.8272791000000002
   476   1             14.19916849             12.83633616              5.84028671
   477   1      18.236102819999999      12.947382019999999      5.7010741400000002
   478   1             22.35388992      12.753404189999999      5.6618130400000002
   479   1             26.52521763             12.83939589      5.8497743599999996
   480   1      30.472529550000001             12.86071701      5.7945567799999997
   481   1      32.452703749999998      16.344524920000001      5.8166565300000004
   482   1      4.0004194899999996             16.39646192      5.7968794099999998
   483   1      7.9636713099999996      16.415234810000001      5.6503977699999997
   484   1      12.174727880000001      16.396929279999998      5.7859442200000002
   485   1      16.146048220000001      16.388028349999999      5.8264744100000003
   486   1             20.35657436      16.453488530000001      5.7534908800000002
   487   1      24.417923429999998             16.35615555      5.6247597999999996
   488   1             28.51385389      16.395362389999999               5.7437445
   489   1      2.1119885799999998      20.005809039999999      5.7149440699999996
   490   1      6.1015755299999999             19.99662116      5.7193989500000004
   491   1      9.9539299299999993             19.83837733      5.7253407899999997
   492   1      14.080410880000001      19.856752780000001      5.8279847800000004
   493   1             18.09495708      19.851504250000001      5.7801870900000001
   494   1      22.388484299999998             19.87293506      5.7274990600000004
   495   1      26.424092689999998      19.964726649999999      5.7447237400000004
   496   1      30.504970109999999      20.009464699999999      5.8207461900000004
   497   1      32.585772319999997             23.26895055      5.7210976200000001
   498   1      4.0328911400000003             23.41979499      5.8172962500000001
   499   1      8.1426491900000002      23.411986840000001      5.7772404599999998
   500   1             12.11028297      23.421230179999998      5.7411139899999997
   501   1      16.116193330000002             23.33935267      5.7441154900000004
   502   1      20.260385979999999      23.381289540000001              5.63698765
   503   1      24.329763700000001      23.425651869999999      5.7002249200000001
   504   1      28.470734050000001               23.466936              5.71821234
   505   1              1.95827507      26.844159359999999      5.6818004799999997
   506   1      6.1627732499999999      26.915117370000001      5.8035277799999996
   507   1             10.14532189      26.891078400000001      5.7608035199999996
   508   1      14.145360589999999      26.914958179999999      5.7073400699999999
   509   1      18.060483080000001             27.08153321              5.50251658
   510   1             22.22514971      27.009723919999999      5.5601625300000004
   511   1      26.315816290000001      26.941235290000002      5.7288392400000001
   512   1      30.431084219999999             26.87470223      5.6815249000000003
   513   1   -0.051817889999999998             -0.14458487      6.4498854799999998
   514   1              4.03092731      27.972931289999998      6.6034587499999997
   515   1      8.1794528100000008      28.110459580000001      6.5303460199999996
   516   1      12.090608189999999    0.083156240000000006      6.6081699900000004
   517   1      16.034875899999999  -0.0034109399999999999      6.4501201500000001
   518   1             20.26545548             28.13791204      6.4715915099999997
   519   1      24.309203979999999      28.205124250000001              6.60271601
   520   1      28.407026819999999      28.132364320000001      6.5192315900000004
   521   1      2.0426239399999999      3.4436567600000001      6.4651733199999999
   522   1      5.9304901000000001      3.4739219000000001              6.51976902
   523   1             10.16528533      3.5818445200000002                6.558554
   524   1             14.04439844      3.4423750100000001      6.5330500599999999
   525   1      18.230522749999999      3.5185816700000001      6.5321081100000002
   526   1      22.394866329999999      3.5812329100000002      6.5803920700000003
   527   1      26.452382069999999      3.4906714700000001      6.6531238400000001
   528   1      30.449369919999999              3.50460964      6.6195258499999996
   529   1      32.483073089999998      6.9879747500000002      6.4293394700000004
   530   1      4.0757371600000001      6.9666112699999996      6.6576263600000001
   531   1      8.0428193300000004              6.97603974      6.6170766600000004
   532   1      12.171949440000001              7.05583531      6.7444348400000003
   533   1             16.21643877      7.0121030900000001      6.5914637999999997
   534   1      20.284228039999999      7.2036644699999997              6.64738337
   535   1             24.43188507      7.0563610099999998      6.6462443599999999
   536   1      28.397656080000001      6.9234898500000002              6.51769321
   537   1      1.9789194999999999      10.455759820000001              6.66529682
   538   1      6.1046275200000002      10.598493660000001      6.6054553699999996
   539   1             10.21998262             10.55540733      6.4653707000000002
   540   1             14.31013665      10.487631670000001      6.6145245399999997
   541   1      18.221718800000001      10.494814010000001      6.5475974700000004
   542   1             22.34723443             10.39915154      6.5486608000000004
   543   1      26.372806870000002             10.42559316      6.6128574100000002
   544   1             30.46608106             10.42987055      6.4613496399999999
   545   1   -0.046665539999999998             13.90202573      6.5900112399999999
   546   1      3.9778858700000002             14.07013465              6.49417621
   547   1      8.0510283499999993      14.045000679999999      6.5642810100000002
   548   1      12.155807380000001             14.03353113      6.7119963399999998
   549   1      16.234241600000001             14.08780357      6.6673204899999998
   550   1      20.363880909999999             14.13235989      6.5956307199999999
   551   1      24.416536839999999      14.026917750000001      6.5524430100000002
   552   1      28.559075020000002      13.944647939999999      6.7500588099999996
   553   1      1.9983390599999999      17.615359380000001      6.5432658000000004
   554   1      5.9702868799999997      17.588559839999999      6.5275640700000004
   555   1             10.08098172      17.534752739999998      6.5360996199999999
   556   1      14.140643280000001             17.53921222      6.5532343400000004
   557   1             18.35920351      17.607436199999999      6.6096288799999998
   558   1      22.309541670000002      17.671741579999999              6.61942377
   559   1      26.432379210000001             17.56707896      6.5767600499999999
   560   1      30.466559870000001             17.56171921      6.6164173999999996
   561   1      32.566507440000002      21.103836019999999      6.6096993399999997
   562   1      4.1697932399999997      21.069546190000001      6.6076051800000002
   563   1      8.1810291300000006      21.129906779999999      6.6817490399999997
   564   1             12.23407942      21.122141630000002      6.5696250200000001
   565   1      16.063067650000001             21.10713973      6.6855211299999997
   566   1      20.134559419999999      21.129792819999999      6.5868074600000002
   567   1      24.450584450000001             21.16340697      6.5799574999999999
   568   1      28.425476620000001      21.097889810000002      6.6652626599999998
   569   1      2.0257421099999999             24.55994974      6.7023753900000003
   570   1      6.0919004699999997      24.631709319999999      6.6486803999999999
   571   1             10.06446663      24.499108209999999      6.6482884200000001
   572   1      14.096200659999999             24.69130912      6.4882867600000003
   573   1      18.097841129999999      24.646280399999998      6.3813358500000001
   574   1      22.290437780000001      24.623290959999999      6.4737524000000004
   575   1             26.43945854      24.635282320000002      6.4493683500000003
   576   1      30.562113310000001      24.549598670000002      6.6210581499999996
   577   1              2.00611227              1.14949754      7.5596783299999997
   578   1      5.9288914799999999              1.04523546      7.5270259399999997
   579   1              10.1346243      1.1966622200000001               7.6113833
   580   1             14.06083237      1.1483645200000001      7.5105422600000002
   581   1      18.151315310000001      1.1622122800000001      7.4996578700000001
   582   1      22.282521809999999              1.23088753              7.55636084
   583   1             26.40069862      1.1538265599999999      7.6538573400000001
   584   1             30.57831264              1.07771466      7.5956764699999999
   585   1      32.536910249999998      4.6017022299999999      7.5651246700000003
   586   1      4.0130080299999999      4.7232508500000003      7.5443561399999997
   587   1      8.0282939300000002      4.7124024999999996      7.4734119699999999
   588   1      12.148719570000001      4.6265288900000003      7.6396907699999996
   589   1              16.1101277      4.6184934999999996      7.6084369599999997
   590   1             20.39024285      4.7672842600000003      7.3755285800000001
   591   1             24.47533898      4.6403741700000003      7.5609838500000004
   592   1      28.383836859999999      4.6490961200000003      7.5141109999999998
   593   1      2.0770997499999999      8.1725140799999991      7.5197506299999999
   594   1      6.1602578799999996      8.2402977499999999      7.5724386299999997
   595   1      10.037534989999999      8.1824141699999995      7.4383547400000003
   596   1      14.333540230000001              8.23493195      7.5841887100000003
   597   1      18.235207169999999      8.2547151799999998              7.52992492
   598   1             22.46130891      8.1959863899999998      7.5737840600000004
   599   1      26.466383310000001              7.97044028      7.5914138299999996
   600   1      30.391245820000002      8.0720241900000005      7.1835970400000004
   601   1             -0.11175973             11.68243835              7.53456656
   602   1              4.01368597      11.677233169999999              7.37446746
   603   1              8.18043692             11.83386904      7.3859883799999997
   604   1      12.231469779999999             11.56124919      7.4311359899999996
   605   1      16.370359570000002      11.814401630000001      7.4600767799999996
   606   1      20.249225379999999             11.77063143      7.5784099999999999
   607   1      24.340105820000002             11.62094085      7.5846559600000001
   608   1      28.558016169999998      11.595475390000001      7.5263110700000002
   609   1              1.90763671             15.26671434      7.5106044299999999
   610   1      5.9388946599999999      15.288483230000001      7.4770966100000003
   611   1      10.099722829999999      15.235815130000001      7.6111080900000001
   612   1             14.22627074      15.089887320000001      7.5359749100000002
   613   1              18.3603664             15.38530561      7.4612435499999998
   614   1             22.29708355             15.29912524      7.4112524999999998
   615   1             26.50613645             15.14698222      7.6274611999999999
   616   1      30.566594569999999             15.19788164      7.5297078099999997
   617   1             32.58522439      18.991423690000001              7.58571566
   618   1      4.0099037600000003             18.73690079      7.5412938199999999
   619   1      8.0489975600000001      18.672715199999999      7.3868906299999999
   620   1             12.08540895      18.786337270000001      7.3831876599999999
   621   1      16.212529920000001      18.738579059999999      7.6014126199999996
   622   1      20.254863050000001              18.8628866      7.3740779300000003
   623   1      24.354029409999999             18.73054131      7.4149537499999996
   624   1             28.39742755      18.724429430000001      7.6633327900000001
   625   1      2.0196898700000001             22.24273389      7.4770458700000004
   626   1      6.0923711100000002      22.224822459999999      7.6456415199999999
   627   1             10.07174331      22.266755249999999      7.4789008099999998
   628   1      14.180570830000001      22.337572900000001      7.5719599899999999
   629   1      18.123415600000001      22.263309899999999      7.3826755400000001
   630   1             22.24016366      22.264798320000001      7.4374344399999996
   631   1      26.399867660000002      22.430659469999998      7.4154053800000002
   632   1      30.484972429999999             22.15349015      7.5156001999999997
   633   1      32.508647680000003      25.769169009999999      7.4642381000000002
   634   1      3.9352677900000002      25.567776340000002      7.6437421600000004
   635   1      8.1074935900000007             25.70078084      7.5616707400000003
   636   1      12.024774219999999      25.812066789999999      7.5779660399999997
   637   1      16.143769469999999      25.910710479999999      7.5028994100000004
   638   1      20.214514090000002      25.705521489999999      7.3640194699999997
   639   1      24.278429039999999      25.905573019999999              7.46239542
   640   1             28.44717992             25.76532001      7.3112343099999997
   641   1      32.453154640000001              2.31339439      8.1369092700000003
   642   1      3.9750560300000002      2.2652763400000002      8.1957971500000006
   643   1      8.1349190399999998              2.32603597      8.2388070300000003
   644   1             12.20962005              2.32810067              8.37618054
   645   1             16.12681336      2.3185947800000002      8.4068686600000007
   646   1      20.168409539999999      2.3525964699999999      8.2601411200000001
   647   1      24.358402600000002      2.2890762900000001      8.2906748199999996
   648   1      28.500820480000002      2.2157610000000001      8.2125848999999995
   649   1      2.0554379300000001      5.8421260200000003              8.11131213
   650   1      6.0784178000000004      5.8705943200000004      8.3050502099999992
   651   1             10.07404938              5.87674991      8.1357463200000009
   652   1             14.10398333      5.8363539600000003      8.2213842800000005
   653   1              18.2253574              5.91888346      8.0255435899999998
   654   1      22.423663959999999      5.9150672100000001      8.2168229499999992
   655   1      26.410005120000001      5.6601838100000004      8.4514001499999996
   656   1      30.518828670000001      5.6908992899999999      8.0409251800000003
   657   1      32.480631629999998      9.2199623699999993      8.0714884100000006
   658   1      4.1162779799999996      9.4023172299999995              8.19140142
   659   1      8.1217739099999999      9.5281449200000008      8.1235100199999994
   660   1             12.11189439      9.2612527300000007      8.0548334100000005
   661   1      16.304466210000001      9.5180038899999992      8.1958047500000006
   662   1             20.22032536      9.2992538499999995      8.2186134200000005
   663   1      24.399250940000002      9.3411706900000002      8.3493729200000004
   664   1      28.601085380000001      9.2189665499999993      8.2094590200000006
   665   1               1.9810557      12.880971349999999      8.1529407000000003
   666   1      5.9440739699999998      12.842054620000001      8.2258766199999993
   667   1             10.10967771             12.89699764      8.2052021800000006
   668   1      14.322688230000001      12.764081089999999      8.2601741799999999
   669   1      18.353271939999999      13.025055030000001      8.1573372299999996
   670   1             22.31872414             12.85379017      8.0280658500000008
   671   1      26.473447310000001      12.787973360000001      8.2248661999999992
   672   1      30.479295140000001             12.77706184      8.2941416300000004
   673   1    0.012221320000000001      16.391785850000002      8.1957822500000006
   674   1      4.0117292999999998      16.369003070000002      8.1562301300000009
   675   1      7.9960545600000001             16.37761149      8.0927372599999998
   676   1             12.17215414      16.435691590000001      8.2104748999999995
   677   1      16.392048490000001      16.406044489999999      8.1179387199999997
   678   1      20.361340479999999             16.57947068      8.2482665799999992
   679   1      24.460540510000001             16.46596435      8.1321354800000005
   680   1      28.482161850000001      16.348145179999999      8.2184748200000008
   681   1      2.1130941399999998      19.876880310000001      8.3617753799999992
   682   1      6.1662164600000002      19.828148819999999      8.0091615800000007
   683   1             10.01865467      19.859226119999999      8.2239764500000003
   684   1             14.06870084      19.825563030000001      8.2248882200000004
   685   1      18.110895079999999             20.03468247      8.2942879600000001
   686   1             22.42668909      19.961366949999999              8.20529303
   687   1             26.38123246      20.066446880000001      8.1260033400000005
   688   1             30.42074088      19.836867720000001              8.32411295
   689   1      32.602900570000003             23.39137981      8.2556418300000001
   690   1      4.0666487800000004      23.283451370000002      8.4453810800000007
   691   1      8.0616631200000004      23.376128919999999      8.1858924999999996
   692   1             12.17211286      23.370502500000001      8.1570025200000007
   693   1              16.1653211      23.551244329999999      8.2771595100000006
   694   1      20.092324519999998      23.428821750000001      8.0342626199999998
   695   1      24.210202039999999      23.583786079999999      8.1137471399999992
   696   1      28.459459120000002      23.506776869999999      8.1330593100000002
   697   1      2.0346818899999999      26.837888370000002      8.3106100099999995
   698   1      5.9694801799999997      26.914072560000001      8.1658021099999996
   699   1             10.03914546             26.94418834      8.2646744299999995
   700   1             14.17545258      27.005322549999999      8.2398087600000007
   701   1             18.25529439      26.952784220000002      8.0464870499999996
   702   1      22.198098640000001      27.055767020000001      7.9245809700000001
   703   1             26.44352735      26.892876220000002      8.1537385600000007
   704   1             30.36339757      26.854896069999999      8.1214809799999994
   705   1             -0.02086671    0.040138109999999998      8.8883242899999999
   706   1      4.0463216900000001      28.056197340000001      9.0950264999999995
   707   1      8.0255235599999999    0.038157580000000003      8.8933321400000001
   708   1             11.96012049    0.031054390000000001      9.0192554000000005
   709   1      16.308097910000001    -0.14987671999999999      8.8074323200000002
   710   1             20.24517681             -0.01104949      8.8625359600000007
   711   1             24.31887154      28.116256870000001      8.9888823599999998
   712   1      28.398856729999999    -0.10200442999999999      9.0175658799999994
   713   1      1.9187679200000001               3.3836214      8.9341120699999994
   714   1      6.1056762999999998      3.3190127600000001      8.8713396600000003
   715   1      10.129239910000001      3.6342309500000001      8.9106087899999995
   716   1      14.147634289999999              3.43624113      8.9799321299999999
   717   1      18.285225130000001      3.7069676199999999      8.9857552500000004
   718   1             22.38870069      3.5402732100000001      8.9417324499999999
   719   1             26.61226958              3.20073052      9.0418991900000005
   720   1      30.454839969999998              3.52117243      9.0466543599999998
   721   1      32.415993589999999      6.9487214899999996      8.9266055600000005
   722   1      4.0173626499999999      7.0940000400000001      8.9903198700000004
   723   1      8.0821350200000008      7.0484256800000002      8.9711649300000005
   724   1      11.901219749999999      7.0548166300000004      9.0935512900000006
   725   1      16.188283770000002      6.8947567300000001      9.0474142499999992
   726   1      20.108820439999999      6.7723079100000003      8.9599179600000003
   727   1      24.457711410000002      6.9882223699999999              8.97593554
   728   1             28.53733935      6.9013545900000004      8.9940129599999992
   729   1      1.9197952300000001             10.50447001      9.0141415600000006
   730   1               5.9102413      10.468986810000001      8.9647280400000007
   731   1      10.177017530000001             10.54031743      8.8748110400000009
   732   1      14.105920100000001      10.450269799999999      9.0061630499999996
   733   1      18.393307530000001             10.72656798      8.9737201599999992
   734   1             22.21716902      10.586070490000001      8.8435094500000009
   735   1      26.655724960000001      10.416385630000001              8.95120921
   736   1      30.661277399999999             10.34791925      9.0281533100000004
   737   1      32.471075130000003      13.982487770000001              8.97404577
   738   1      3.9118821499999998              14.1024055      9.0174383099999993
   739   1              7.98623335             14.07905088      8.9299537900000008
   740   1             11.98476136              14.0921907      9.0370688300000008
   741   1             16.47101924              14.2958348      9.0302626700000008
   742   1      20.469382979999999             14.06641842      8.9326245400000008
   743   1             24.38338474      13.878374640000001      8.8412722400000003
   744   1             28.37573454             14.03763779      9.2106683599999997
   745   1      2.0317067799999999      17.653415110000001      8.9748641199999994
   746   1      6.0495260100000001      17.581026250000001      8.9005475500000006
   747   1      9.9863737700000001      17.436500899999999              8.96799809
   748   1             14.27164286      17.312104649999998      8.9290690399999999
   749   1      18.455882219999999      17.824128309999999      8.8593848899999994
   750   1      22.482764039999999      17.483675420000001      9.0426148499999996
   751   1      26.424053279999999             17.69811816      9.0252639400000003
   752   1      30.567434219999999      17.388077899999999      9.0259828500000001
   753   1      32.505725339999998      21.116053780000001      9.0971060099999992
   754   1      4.3316683899999999      20.952682530000001      8.9976966699999998
   755   1      8.1882127899999997      21.146933879999999      9.1277521000000004
   756   1             12.06386732      21.027291909999999      8.8871333999999997
   757   1             15.96527944             21.31659865      9.1943813300000006
   758   1             20.28081783               21.075225      8.9652422999999999
   759   1      24.530868259999998      21.190146420000001      8.9729515899999992
   760   1      28.537443970000002             21.26665075              9.07228718
   761   1      1.9697321699999999             24.48846322      9.0956512600000003
   762   1      5.9568971800000003             24.48743026      8.9669036599999998
   763   1             10.09744426             24.48316865      9.0135600300000007
   764   1             14.08590596      24.568506289999998              8.80581514
   765   1      18.146172709999998      24.739080659999999      8.8329045100000005
   766   1      22.150451629999999      24.769685590000002      8.7840501199999999
   767   1      26.247239839999999      24.372814250000001      8.9172391199999996
   768   1      30.499220659999999              24.6178183      8.9931069899999994
   769   2      30.359402580000001      7.3179681499999996      8.9079805299999997
   770   2      31.380549819999999      8.5590075799999994      9.3351065900000005
