N2-dn2-coord-10bar/300K/snapshots/frame-64132/run-000/../data.lammps (written by ASE) 

770 	 atoms 
2  atom types
0.0      32.470343392086264  xlo xhi
0.0      28.120142247150884  ylo yhi
0.0      31.213473999158239  zlo zhi


Atoms 

     1   1      2.0293964600000001      1.1716090800000001    0.023552650000000001
     2   1      6.0880008999999999              1.17168918              0.02556874
     3   1      10.146952280000001              1.17170328    0.025416459999999998
     4   1      14.205754900000001      1.1716496700000001              0.02501565
     5   1             18.26456816              1.17166478              0.02504435
     6   1             22.32338141      1.1716496700000001              0.02501565
     7   1      26.382184030000001              1.17170328    0.025416459999999998
     8   1      30.441135410000001              1.17168918              0.02556874
     9   1  9.1780000000000006e-05      4.6866847900000002    0.025581599999999999
    10   1      4.0587011400000002      4.6866847900000002    0.025581599999999999
    11   1      8.1174961000000003      4.6866290399999997    0.025584639999999999
    12   1             12.17638011      4.6866852999999997              0.02491202
    13   1             16.23517979      4.6866942700000003    0.025006210000000001
    14   1      20.293956519999998      4.6866942700000003    0.025006210000000001
    15   1      24.352756209999999      4.6866852999999997              0.02491202
    16   1      28.411640219999999      4.6866290399999997    0.025584639999999999
    17   1      2.0293964600000001      8.2016395800000002    0.026613040000000001
    18   1      6.0881071599999999      8.2016314300000008              0.02543782
    19   1             10.14701835               8.2017045    0.025156850000000001
    20   1      14.205766049999999      8.2017080900000003    0.024990459999999999
    21   1             18.26456816      8.2017077599999997    0.025091249999999999
    22   1      22.323370260000001      8.2017080900000003    0.024990459999999999
    23   1      26.382117969999999               8.2017045    0.025156850000000001
    24   1      30.441029149999999      8.2016314300000008              0.02543782
    25   1  9.2789999999999998e-05             11.71671873    0.025573410000000001
    26   1              4.05870014             11.71671873    0.025573410000000001
    27   1      8.1176017700000003             11.71668698              0.02497914
    28   1             12.17637068             11.71673069    0.025001590000000001
    29   1      16.235177310000001      11.716730249999999    0.025074039999999999
    30   1      20.293959009999998      11.716730249999999    0.025074039999999999
    31   1      24.352765640000001             11.71673069    0.025001590000000001
    32   1      28.411534549999999             11.71668698              0.02497914
    33   1      2.0293964600000001             15.23167155              0.02525285
    34   1      6.0881728300000004      15.231678799999999    0.025062859999999999
    35   1             10.14698486      15.231762639999999               0.0250786
    36   1             14.20578841             15.23176782    0.025201990000000001
    37   1             18.26456816              15.2317707    0.025149979999999999
    38   1      22.323347900000002             15.23176782    0.025201990000000001
    39   1      26.382151459999999      15.231762639999999               0.0250786
    40   1      30.440963480000001      15.231678799999999    0.025062859999999999
    41   1      32.470327990000001      18.746748629999999    0.024951939999999999
    42   1      4.0588083299999997      18.746748629999999    0.024951939999999999
    43   1      8.1175770200000006      18.746803499999999    0.025222040000000001
    44   1             12.17637459      18.746799750000001    0.025428470000000002
    45   1      16.235159400000001      18.746805200000001    0.025487360000000001
    46   1      20.293976919999999      18.746805200000001    0.025487360000000001
    47   1      24.352761730000001      18.746799750000001    0.025428470000000002
    48   1             28.41155929      18.746803499999999    0.025222040000000001
    49   1      2.0293964600000001      22.261939099999999    0.025844880000000001
    50   1      6.0881419299999999      22.261841799999999    0.025489439999999999
    51   1             10.14692954             22.26176895              0.02551757
    52   1             14.20573559      22.261804690000002    0.025639160000000001
    53   1             18.26456816             22.26178625    0.025640119999999999
    54   1      22.323400729999999      22.261804690000002    0.025639160000000001
    55   1      26.382206780000001             22.26176895              0.02551757
    56   1             30.44099439      22.261841799999999    0.025489439999999999
    57   1  5.6450000000000003e-05      25.776936450000001              0.02613327
    58   1      4.0587364700000004      25.776936450000001              0.02613327
    59   1      8.1175325399999991              25.7767713    0.024734180000000001
    60   1      12.176376469999999      25.776831090000002              0.02545323
    61   1      16.235145939999999      25.776775220000001    0.025273360000000002
    62   1             20.29399038      25.776775220000001    0.025273360000000002
    63   1      24.352759840000001      25.776831090000002              0.02545323
    64   1      28.411603769999999              25.7767713    0.024734180000000001
    65   1  0.00024266000000000001              2.34304215     0.80166565000000001
    66   1      4.0585502699999996              2.34304215     0.80166565000000001
    67   1      8.1157394600000003              2.34454954     0.80169402000000001
    68   1             12.17601256      2.3433829099999999     0.80116898000000003
    69   1      16.235258170000002      2.3433209100000001     0.80090046999999998
    70   1      20.293878150000001      2.3433209100000001     0.80090046999999998
    71   1      24.353123750000002      2.3433829099999999     0.80116898000000003
    72   1      28.413396859999999              2.34454954     0.80169402000000001
    73   1      2.0293964600000001      5.8582218700000004     0.80119762000000005
    74   1      6.0870566899999998      5.8583336700000004              0.80194851
    75   1             10.14649655              5.85853131     0.80121584000000001
    76   1             14.20597894      5.8582938599999999     0.80086840999999998
    77   1             18.26456816      5.8583798500000004               0.8010794
    78   1      22.323157380000001      5.8582938599999999     0.80086840999999998
    79   1             26.38263976              5.85853131     0.80121584000000001
    80   1      30.442079629999999      5.8583336700000004              0.80194851
    81   1  0.00019438999999999999      9.3717771800000005     0.80082061000000004
    82   1      4.0585985400000002      9.3717771800000005     0.80082061000000004
    83   1      8.1175070500000004      9.3725002699999997     0.80149060999999999
    84   1      12.176590020000001      9.3733583399999993     0.80088261999999999
    85   1             16.23512199      9.3733789200000004              0.80106506
    86   1             20.29401433      9.3733789200000004              0.80106506
    87   1      24.352546289999999      9.3733583399999993     0.80088261999999999
    88   1      28.411629269999999      9.3725002699999997     0.80149060999999999
    89   1      2.0293964600000001             12.88692854     0.80220621000000003
    90   1      6.0883212999999996             12.88743848     0.80138414999999996
    91   1      10.147128609999999             12.88859852     0.80085256000000005
    92   1             14.20571782      12.888558189999999     0.80113791000000001
    93   1             18.26456816      12.888409899999999     0.80109381000000002
    94   1      22.323418490000002      12.888558189999999     0.80113791000000001
    95   1             26.38200771             12.88859852     0.80085256000000005
    96   1      30.440815019999999             12.88743848     0.80138414999999996
    97   1              0.00012365      16.403222639999999     0.80145666999999998
    98   1      4.0586692700000002      16.403222639999999     0.80145666999999998
    99   1      8.1174337899999998      16.403825260000001     0.80097196999999998
   100   1              12.1761021             16.40390721     0.80133072000000005
   101   1             16.23503496      16.403861750000001     0.80140014999999998
   102   1      20.294101359999999      16.403861750000001     0.80140014999999998
   103   1      24.353034220000001             16.40390721     0.80133072000000005
   104   1      28.411702529999999      16.403825260000001     0.80097196999999998
   105   1      2.0293964600000001      19.919205120000001     0.80066369999999998
   106   1              6.08752564             19.91894023     0.80122479000000002
   107   1      10.146078839999999             19.91919038     0.80159137999999996
   108   1      14.204993419999999              19.9192584     0.80178742000000003
   109   1             18.26456816      19.919377350000001     0.80194975999999996
   110   1      22.324142899999998              19.9192584     0.80178742000000003
   111   1      26.383057470000001             19.91919038     0.80159137999999996
   112   1      30.441610669999999             19.91894023     0.80122479000000002
   113   1              0.00142012      23.434536609999999     0.80178442000000005
   114   1      4.0573728100000004      23.434536609999999     0.80178442000000005
   115   1      8.1165862000000004      23.433936769999999     0.80182306000000003
   116   1             12.17555218      23.433996919999998     0.80156656000000004
   117   1             16.23465491      23.434040110000002     0.80170828999999999
   118   1      20.294481409999999      23.434040110000002     0.80170828999999999
   119   1      24.353584130000002      23.433996919999998     0.80156656000000004
   120   1      28.412550110000002      23.433936769999999     0.80182306000000003
   121   1      2.0293964600000001      26.949875330000001              0.80297246
   122   1      6.0858208300000003      26.950066320000001              0.80215291
   123   1             10.14598146      26.949241430000001     0.80165810000000004
   124   1             14.20520604      26.948673230000001     0.80131923999999999
   125   1             18.26456816             26.94858318     0.80108193999999999
   126   1      22.323930279999999      26.948673230000001     0.80131923999999999
   127   1      26.383154860000001      26.949241430000001     0.80165810000000004
   128   1             30.44331549      26.950066320000001              0.80215291
   129   1    0.098218429999999995   -0.064612219999999998      1.4116138199999999
   130   1      4.0364973400000004   -0.031360699999999998      1.4111121099999999
   131   1               8.0584349      28.010115429999999      1.4847408900000001
   132   1             12.24933564    0.073561299999999996              1.58907171
   133   1      16.203611089999999      28.147819720000001              1.53120802
   134   1      20.204774090000001    0.048383000000000002              1.36059401
   135   1      24.314875090000001    0.013546819999999999      1.5435642899999999
   136   1             28.40447133             -0.00961855      1.5426530300000001
   137   1              2.00228071              3.57653051      1.4584943800000001
   138   1      6.0090637100000004      3.4191303500000001      1.5210494299999999
   139   1      10.121338769999999              3.54647639      1.5564088700000001
   140   1             14.17922087      3.5479025800000001              1.46650725
   141   1      18.205807119999999      3.5829170100000001      1.4466640900000001
   142   1             22.37437654      3.6017009400000002      1.5161502499999999
   143   1      26.330412320000001      3.3945972499999999      1.4285350400000001
   144   1      30.450330959999999      3.4367244000000001      1.4874899699999999
   145   1      32.465613400000002      6.9913214999999997      1.4507947000000001
   146   1      4.0734298500000001      7.0171115999999998      1.4856346199999999
   147   1      8.1022287500000001      7.0965096900000004      1.4916145700000001
   148   1      12.078874280000001      7.0422799600000001      1.5971275899999999
   149   1      16.202298549999998              7.00317889               1.3636089
   150   1      20.289776400000001      7.0562778899999996              1.54701019
   151   1      24.258002900000001      7.0335008500000002      1.5587151699999999
   152   1      28.426470439999999      7.0623071499999996               1.5529921
   153   1              2.04204534             10.54524468      1.5829685600000001
   154   1      5.9593563899999999             10.53275058      1.3414027799999999
   155   1             10.10160591      10.578110669999999      1.4463642699999999
   156   1      14.280800839999999             10.48973376              1.50037518
   157   1             18.33802747              10.5154692              1.53137352
   158   1      22.232649049999999             10.52070733      1.5636468100000001
   159   1             26.40140186      10.624085409999999      1.5161462699999999
   160   1             30.35180055             10.57586905              1.46838135
   161   1    -0.13772358000000001      14.126949379999999      1.4451449300000001
   162   1      4.0021249900000004      14.086589030000001              1.47813181
   163   1      8.1855627599999998             14.13715449              1.53405064
   164   1      12.193046409999999             14.06386127      1.3670199700000001
   165   1      16.300883689999999             14.01949574      1.5155863000000001
   166   1      20.285710590000001      14.080401180000001               1.4662309
   167   1      24.307599969999998             13.99747335      1.5168357100000001
   168   1      28.397844259999999             14.01426174      1.4712524300000001
   169   1      2.1026297399999998      17.604317730000002      1.3511269299999999
   170   1      6.0297935599999999      17.601667450000001              1.47544936
   171   1      10.222112299999999      17.566129499999999              1.43179262
   172   1             14.18523888      17.573251580000001              1.47735434
   173   1             18.25532574      17.552170390000001              1.45162488
   174   1      22.376283650000001             17.49863839              1.54570735
   175   1      26.496594309999999      17.562406750000001              1.49393504
   176   1             30.44166233              17.5777252              1.58474179
   177   1   -0.053855680000000003      20.994683030000001      1.4102914200000001
   178   1              4.16203609      21.234840590000001              1.54696616
   179   1      8.1121499700000008      21.098039419999999      1.6234834199999999
   180   1             12.11840114      21.084247900000001      1.4731475300000001
   181   1      16.308167690000001      21.102292980000001              1.54664128
   182   1      20.275772180000001             20.99591247      1.5405833200000001
   183   1      24.271036710000001      21.104413749999999              1.47022758
   184   1             28.43637099             21.14517601               1.5873907
   185   1      2.0551712499999999      24.547768860000001      1.5181411899999999
   186   1      6.0997347399999997      24.621593709999999              1.49072782
   187   1      10.159727159999999      24.580081849999999      1.4927246300000001
   188   1      14.212301869999999             24.56982588      1.4213727199999999
   189   1      18.210097650000002      24.455565230000001              1.42413612
   190   1             22.29237552      24.598250910000001              1.37031455
   191   1      26.480906520000001      24.626178400000001      1.4400564600000001
   192   1             30.44973032      24.520750039999999              1.49024706
   193   1              1.91991366      1.2321799600000001      2.3680425000000001
   194   1      6.0447616499999999      1.1909189899999999      2.3642980900000001
   195   1              10.1633443              1.13755983               2.3517975
   196   1             14.16308164              1.18085266      2.5299113900000001
   197   1             18.24026375      1.3268818099999999              2.35169782
   198   1             22.19725334              1.27730532      2.3694712999999998
   199   1      26.386220349999999              1.24840167              2.55332917
   200   1      30.396233160000001      1.0772461799999999      2.3804204699999998
   201   1   -0.062474269999999998      4.5901801799999999      2.4320812599999999
   202   1      4.0127609700000004      4.6023494600000001      2.4534195599999999
   203   1      7.9518878199999996      4.6790954300000003      2.4825025900000002
   204   1             12.20198622      4.7357685700000003      2.4816830099999998
   205   1      16.250310500000001      4.7744429100000003      2.4815569700000002
   206   1      20.340876269999999      4.7258841900000004      2.3165766099999998
   207   1      24.325814130000001      4.7674882600000004      2.5566080599999998
   208   1             28.31476696      4.6278594799999997      2.3365313799999998
   209   1      2.0482640600000002      8.1376779300000006      2.4506344900000001
   210   1              6.04569914      8.1740987300000008      2.3961074299999998
   211   1      10.153283950000001      8.2571667400000006      2.4568901400000001
   212   1              14.2274958      8.2416044900000003      2.4245637100000001
   213   1      18.230394279999999      8.2458155200000007      2.4454148400000002
   214   1      22.213516970000001      8.3468767600000007      2.4209340400000001
   215   1      26.353918499999999      8.2886019399999995      2.4018961299999999
   216   1      30.408541499999998      8.1761930500000002              2.49447208
   217   1      32.458414980000001      11.830783009999999      2.4540207999999999
   218   1      3.9376875999999998             11.77627743      2.4577238100000001
   219   1      7.9758278599999999             11.63650797      2.3971199200000002
   220   1             12.23909632      11.678617790000001      2.4191937399999999
   221   1             16.30553827             11.70375611      2.4777821599999998
   222   1             20.25272665      11.769602450000001      2.4529628699999999
   223   1      24.336712680000002             11.80015875      2.4151461300000001
   224   1             28.38579163      11.712618089999999      2.4711393199999998
   225   1      1.9654228199999999              15.3745843      2.4806725200000002
   226   1      6.0784261400000004             15.29142584      2.4672525599999999
   227   1      10.230220259999999      15.267016959999999      2.3938955700000002
   228   1      14.270062149999999             15.34358093      2.4528068799999998
   229   1      18.242258199999998      15.273769440000001      2.4089080599999999
   230   1      22.288353600000001      15.127346210000001               2.3785797
   231   1      26.358151240000002      15.268233889999999              2.29681823
   232   1             30.40527462      15.291163360000001      2.4903897100000001
   233   1             32.54952411             18.70136037              2.40573017
   234   1      4.0963123399999999             18.79664137      2.4335290999999999
   235   1              8.17256216      18.823900269999999      2.3242654100000002
   236   1             12.17541874             18.68982866              2.54321755
   237   1             16.25935819      18.632210619999999      2.4417140900000001
   238   1      20.396538670000002      18.593664409999999      2.4377731200000001
   239   1             24.29748992      18.729348959999999              2.44266534
   240   1      28.432481899999999             18.81655627              2.38590547
   241   1              2.11790944             22.11514858              2.40652446
   242   1      6.1222854900000003      22.277004290000001      2.4521202999999998
   243   1             10.09486006             22.22469546      2.3815558499999998
   244   1             14.15459212      22.256157049999999      2.3550399899999999
   245   1      18.204219770000002      22.310109749999999              2.51419294
   246   1      22.303664479999998      22.245419290000001      2.4053658800000002
   247   1             26.37832504      22.273606969999999      2.4745028499999999
   248   1             30.44882831      22.172733109999999      2.6199871400000001
   249   1   -0.030519999999999999             25.69233564      2.4251731099999998
   250   1      4.0765220800000002      25.816567679999999              2.42671079
   251   1      8.1334719300000007      25.762170340000001      2.4930967499999999
   252   1      12.229711890000001      25.811498520000001      2.4651104400000001
   253   1      16.239488210000001             25.77676005      2.4701976800000001
   254   1      20.344039129999999      25.783853860000001      2.3319219599999998
   255   1              24.3936353      25.705719030000001      2.4324036100000002
   256   1             28.48470807      25.769911839999999      2.3831349899999998
   257   1             -0.11300092      2.2210923500000002              3.32942888
   258   1              4.06039292      2.2995546099999999      3.3013055900000001
   259   1      8.0932582899999996      2.4252301100000002      3.1716727599999999
   260   1      12.188728060000001      2.4400381000000002      3.3327713399999999
   261   1      16.266847810000002      2.4333068400000002      3.1976031200000001
   262   1      20.265045659999998      2.3558733900000002      3.2188571499999998
   263   1             24.26551401              2.32425836      3.2476401400000001
   264   1      28.404527000000002      2.3622541400000001      3.2572431100000001
   265   1      1.8972452399999999              5.81677248      3.2330193299999999
   266   1      5.9965681000000002      5.8780056099999998      3.2683410300000002
   267   1             10.13164587      5.8714582999999996      3.2815551200000002
   268   1      14.093585539999999      5.9495145999999997      3.3698093600000001
   269   1      18.336981179999999      5.9882902299999996              3.27545113
   270   1      22.294107360000002      5.9295766199999997      3.2484768100000001
   271   1      26.419296330000002      5.8952855399999997      3.3323675399999999
   272   1      30.356768110000001      5.8476102000000001      3.1824905999999999
   273   1             32.49290285      9.4852107300000004      3.3266417100000001
   274   1      4.0154277699999996      9.3452161300000007      3.2741697200000002
   275   1      8.1339415000000006      9.3533476699999998      3.2653835099999999
   276   1             12.05718244      9.3762469399999997      3.3268725099999998
   277   1      16.276639419999999      9.3996827500000002      3.3599176399999999
   278   1             20.24992078      9.4167218300000002      3.2595214700000001
   279   1      24.272996859999999      9.5381199999999993      3.2671352900000001
   280   1             28.36261464      9.4007134899999993      3.2094956300000002
   281   1      2.0095417200000001             12.91183537      3.3591319999999998
   282   1      6.0608421699999999      12.861626859999999              3.31198338
   283   1      10.181943609999999             12.81440012              3.18911582
   284   1      14.214171929999999             12.91905133              3.28844409
   285   1      18.270306470000001             13.00409451      3.3612081800000002
   286   1      22.364432619999999             12.82055751              3.31625229
   287   1      26.495852469999999             12.99041935      3.2212767499999999
   288   1      30.530280340000001               12.948846      3.2406445700000002
   289   1    0.020664620000000002      16.462703430000001      3.2867589800000001
   290   1      4.1124044299999998      16.355080239999999      3.2552022599999999
   291   1      8.1386065300000006      16.440405460000001      3.2250047099999999
   292   1             12.18720538      16.374632219999999      3.3079071899999999
   293   1              16.2623721      16.374019199999999              3.35293573
   294   1      20.222757680000001             16.31809754      3.3120893499999999
   295   1      24.340901980000002      16.401646320000001              3.25531959
   296   1             28.35125699      16.512894029999998      3.2477514799999998
   297   1               2.0761824      19.863683819999999      3.2915801400000002
   298   1      6.0696061500000003      19.869772879999999      3.1316555099999999
   299   1              10.2561675      19.908202419999999      3.1664259000000001
   300   1             14.22576692             19.85356135      3.2456060799999999
   301   1      18.315670399999998      19.861947409999999              3.25850017
   302   1      22.288402430000001             19.86294977      3.2836599299999998
   303   1      26.490936619999999             19.92530743      3.1962397999999999
   304   1      30.494821470000002      19.777708390000001      3.2406449199999998
   305   1      32.615070289999998      23.380045460000002      3.3580519500000001
   306   1               4.0305095      23.460149730000001              3.19897542
   307   1      8.0967757000000002             23.33872083      3.2542610399999998
   308   1      12.119148360000001      23.396969519999999      3.1995379100000001
   309   1      16.143933700000002             23.46351975      3.2065561699999998
   310   1      20.304667210000002             23.49862078      3.3726995899999999
   311   1      24.347822499999999      23.327053249999999              3.19066239
   312   1      28.505979580000002      23.527259659999999      3.2527063699999998
   313   1              1.98897765      26.874705899999999      3.2443343900000001
   314   1      6.0953229699999998             26.82088946              3.31543879
   315   1      10.140032039999999      27.019161109999999      3.3220554299999998
   316   1             14.21082395             26.95382309              3.25638673
   317   1             18.25687718      27.135149760000001              3.24091079
   318   1             22.29571898      27.049714640000001      3.1174255199999998
   319   1      26.432319870000001      26.918210930000001      3.2242556900000001
   320   1      30.347454320000001      26.821744500000001              3.31863033
   321   1      32.342964709999997    -0.18304504999999999      4.1634439099999998
   322   1      4.0321128799999997    -0.19500772999999999      4.0017684500000001
   323   1      8.1087416000000001    0.030729340000000001      3.9963460799999999
   324   1             12.10110502      28.343961149999998              4.20895435
   325   1      16.171022929999999      28.227481210000001      4.0350360099999998
   326   1             20.29472913             -0.00566848      4.0738865400000002
   327   1             24.31819308             -0.08414808      4.1205716700000004
   328   1             28.33020312             28.11620757      4.0155100800000003
   329   1              1.92123522      3.5604953699999999      3.9957576299999999
   330   1      6.0250020900000001              3.49079126      4.0339304800000004
   331   1             10.02886473              3.63077279      4.1630496499999996
   332   1             14.24193515      3.6096324599999998      3.9854295899999999
   333   1      18.261217299999998              3.68225107      4.0314563999999997
   334   1      22.315063080000002      3.5763832099999999              4.20802181
   335   1      26.331810969999999      3.5222796199999999              4.01549756
   336   1      30.479732550000001      3.3609751700000001      4.0870305900000004
   337   1   -0.086470190000000002      7.0146447500000004      4.1260240599999998
   338   1      3.9705403700000002              7.01549551      4.1227351900000002
   339   1      8.0967763300000009      7.0849677299999998      4.0429993399999997
   340   1             12.18491871      7.0301692899999999      4.0772297699999998
   341   1      16.380383370000001      7.0799058600000002      4.0027442799999999
   342   1      20.274539310000002      7.0997284299999999      4.1027445599999997
   343   1             24.22312445      7.0868098399999999      4.0202822100000004
   344   1      28.471289349999999      6.9965154199999997              4.09548282
   345   1      1.9635951899999999             10.58559659      4.1211700499999999
   346   1      6.0364703799999999             10.41138789      4.1206434500000002
   347   1             10.05025053             10.54466833      4.0881942599999999
   348   1      14.198640259999999      10.549478430000001      4.1796203600000004
   349   1      18.376377170000001             10.59302677      4.1968335799999998
   350   1             22.17016963             10.61411579      4.1270236599999999
   351   1      26.230312980000001              10.5804562      4.0961153299999999
   352   1      30.388715860000001      10.656740470000001      4.2255768099999997
   353   1      32.446548839999998             14.12305864      4.0191442899999998
   354   1      3.9887316799999999             14.05675525      4.1314683800000003
   355   1      8.1376897600000007             14.07098862      4.0418902599999997
   356   1             12.01328719             13.94628251      4.1164560400000001
   357   1             16.09542742              14.0375873      4.2770057799999996
   358   1             20.30955316             14.01958975               4.0805118
   359   1      24.288382089999999      14.062954169999999      3.9768435000000002
   360   1      28.450401670000002      14.074291199999999      4.0955957500000002
   361   1      2.1020128900000001      17.602182169999999              4.03022174
   362   1      6.0752784499999999             17.60356672      4.0770525500000003
   363   1             10.29830946             17.64018162      4.0272716700000002
   364   1      14.294660199999999      17.696433259999999      4.0798021499999999
   365   1             18.35853882             17.61514356      4.0406628600000003
   366   1      22.292321569999999      17.516854559999999      4.1830534500000001
   367   1      26.378855980000001      17.669397669999999      4.0001658600000001
   368   1      30.509932169999999      17.573610290000001              4.03540587
   369   1      32.515656329999999      20.839049360000001      4.0626491900000001
   370   1      4.0924615299999996      21.098180589999998      4.0487842399999998
   371   1      8.1171440100000005             21.02916973      4.1328452899999997
   372   1             12.15217562      21.043383250000002      4.0728729499999998
   373   1      16.245387529999999      21.015276889999999      4.0073818499999998
   374   1      20.383945199999999      21.138862540000002              4.03586388
   375   1      24.318155740000002      21.074556990000001      4.0852521599999996
   376   1      28.438792639999999      21.111201770000001      4.0522667500000003
   377   1      2.0456238999999998      24.513863740000001      4.0038463200000001
   378   1      6.0949218299999997             24.41805746      4.1690158100000003
   379   1      10.109358329999999      24.636765969999999              4.16188585
   380   1             14.14676366             24.68480602      4.1196528399999996
   381   1      18.315858609999999              24.6869491      4.0543909100000004
   382   1      22.284833410000001      24.723587819999999      4.1119063100000002
   383   1      26.378654560000001      24.588323970000001      4.1027573400000001
   384   1      30.526667960000001             24.47217573      4.1922639899999998
   385   1      1.9879334500000001      1.1773495899999999      4.9598246799999997
   386   1               5.9395666              1.11896887      4.8702474799999997
   387   1             10.13720417      1.2217906300000001      4.9797628999999999
   388   1      14.150340099999999      1.3105785000000001      5.0088688299999999
   389   1             18.27672841      1.2695921999999999      4.8164740699999999
   390   1      22.453547059999998      1.1024653099999999      4.8937486899999998
   391   1      26.405655110000001              1.20781856      5.0371167300000002
   392   1      30.423584859999998      1.0721044799999999      4.9557733800000001
   393   1             -0.03005791      4.6917696400000004      5.0571524300000004
   394   1      4.0229470300000001      4.7730301199999996      4.9992348199999999
   395   1      8.0703962800000006      4.7464375700000003      4.9834131800000003
   396   1      12.256499639999999      4.7527245200000001      4.9352885999999998
   397   1      16.256191050000002      4.8459161999999996      4.9572559600000003
   398   1      20.370796429999999      4.8013575099999999      4.8600409899999999
   399   1      24.388760569999999              4.74200687      5.0307739299999996
   400   1      28.451594620000002      4.6072056300000002      4.8747524899999997
   401   1              1.94392385      8.2294119200000004              5.01221768
   402   1      6.0223251800000002      8.1916919999999998      5.0089466399999996
   403   1             10.21198392      8.2781377700000007      4.9747396999999998
   404   1      14.169834290000001      8.2211414499999993      4.9761760500000003
   405   1      18.335559610000001      8.2101258500000007      4.9438745500000003
   406   1             22.35366149      8.2949265099999998      5.1099012699999999
   407   1             26.33303609      8.2553546200000003      4.9188901700000001
   408   1      30.387981440000001      8.2653048800000004      4.9606971099999999
   409   1      32.400484740000003             11.72000403      4.8960833299999997
   410   1      3.9632642100000002      11.736944149999999      4.9509184399999997
   411   1      8.0480947100000009      11.759264590000001      4.9109820600000003
   412   1      12.232541100000001             11.72867151      5.0519307500000004
   413   1      16.235423059999999             11.79126202      5.0859428400000004
   414   1      20.382971479999998             11.83416235      5.0650807899999997
   415   1      24.431313230000001             11.72668217      4.9877865899999998
   416   1             28.34820788             11.85501253      4.9070200599999998
   417   1      2.0766585599999998             15.23843827              5.04134875
   418   1      6.1692424499999996      15.258660389999999      4.9871477899999999
   419   1      10.080922190000001             15.26443298      4.9066536999999997
   420   1             14.19451555             15.20536755      5.0463518499999998
   421   1      18.184318000000001             15.30509913      5.0044225500000001
   422   1      22.272097540000001      15.167861650000001      4.9741284099999996
   423   1      26.361591390000001      15.322930680000001      4.8128547399999997
   424   1      30.546862839999999      15.250380610000001      4.8061717499999999
   425   1    0.027837170000000001             18.72170702      4.9998604899999997
   426   1      4.0395969899999997      18.784222710000002              4.93378519
   427   1      8.1154837999999998      18.764309950000001      4.8581784600000004
   428   1      12.184989679999999      18.717231389999998      4.9452235399999998
   429   1      16.391964990000002      18.735874219999999              4.87916127
   430   1      20.279894049999999      18.831383410000001      4.8682506700000001
   431   1      24.346844319999999              18.7217992      4.9458789400000001
   432   1      28.376131149999999      18.726888689999999      4.8733613900000003
   433   1      1.9711459099999999      22.225443599999998      5.0538580299999998
   434   1      6.1951087300000003      22.159511630000001      5.0070047600000001
   435   1             10.13245515             22.23265533      4.8964872699999997
   436   1      14.265569989999999      22.338139810000001      4.8322815500000003
   437   1      18.198011780000002      22.410426569999998      4.8824091599999999
   438   1              22.3219256      22.253893949999998      4.8634393400000002
   439   1      26.402490180000001             22.27398401      5.0398230499999999
   440   1      30.360318039999999      22.171010599999999              5.11770733
   441   1   -0.086203020000000005      25.742980719999998              4.95662132
   442   1      4.0179395600000003             25.64653753      4.9080123200000001
   443   1      8.1031757300000002      25.732613189999999      4.9521583600000003
   444   1             12.17881463      25.910986309999998      4.9521467100000001
   445   1      16.288485720000001      25.850917519999999      4.9649605499999998
   446   1      20.167353980000001             25.85695505      4.9024008500000003
   447   1             24.42500673      25.775010699999999      4.9625512000000001
   448   1      28.406635909999999      25.733975520000001      4.9370648900000003
   449   1   -0.053214640000000001      2.2715261899999999      5.8198511699999997
   450   1      3.9480472400000002      2.3919505700000001              5.74793178
   451   1      8.0513767699999992      2.2798533700000001      5.7794024300000002
   452   1      12.119901990000001              2.43530376      5.8140001699999999
   453   1      16.256668359999999              2.53945781      5.8287539700000002
   454   1      20.290071650000002              2.42728302      5.6630115999999999
   455   1      24.274680010000001              2.30699889      5.6742398400000003
   456   1             28.43721665      2.2495761600000002      5.7260787100000003
   457   1      2.0482336800000001      5.9500421599999997      5.7772230599999999
   458   1      6.0330818199999996      5.9302767699999999      5.7683853200000001
   459   1             10.10547957      5.9359729000000003      5.8158204600000003
   460   1             14.21149503      5.9111419400000003      5.6577695800000001
   461   1      18.353765559999999      5.9447005800000001      5.8598159699999997
   462   1             22.34538422      5.8833026500000001      5.7578473499999996
   463   1      26.291822620000001      5.8361666999999997      5.7493996100000002
   464   1      30.419929079999999      5.8676789999999999              5.69366445
   465   1   0.0042592200000000002      9.4005028300000006      5.8078921000000001
   466   1      3.9881050400000002      9.3370280900000004      5.7505281300000002
   467   1      8.1358958300000008      9.3880394200000001      5.6781471400000001
   468   1             12.21944776              9.41040849              5.79432451
   469   1             16.30615916      9.3640344599999992              5.88676902
   470   1      20.246619330000001      9.4355247200000001      5.7792392299999999
   471   1             24.38676933      9.4390808499999999      5.8140782900000003
   472   1             28.29476081      9.6401303400000007      5.6064830800000003
   473   1      2.0008012599999998      12.894345639999999      5.7493455600000001
   474   1      6.0408063500000004      12.856010059999999      5.8089694500000002
   475   1      10.185896939999999             12.92299862      5.6290009200000002
   476   1      14.254283770000001             12.93827338      5.8659716599999996
   477   1      18.168309579999999      12.986664940000001      5.8817171799999999
   478   1             22.45606429             12.79008144      5.7336590100000002
   479   1      26.341881310000002      13.054644740000001              5.78472176
   480   1      30.305464709999999             12.88475073      5.8063988499999999
   481   1              0.02819777      16.384564000000001      5.8104875099999997
   482   1      4.0520784499999998      16.456226449999999      5.7208732500000004
   483   1      8.1631006700000004      16.337051710000001      5.8266489000000004
   484   1             12.06969628             16.44311167      5.7440212400000004
   485   1      16.144591810000001      16.535106070000001      5.8789347100000002
   486   1              20.1928053             16.34639949      5.7998996700000003
   487   1      24.305287289999999      16.395810650000001      5.6705795999999999
   488   1             28.50876019      16.401748680000001      5.7206176600000003
   489   1              2.01996471             19.83796628      5.8900577199999997
   490   1      5.9577941399999998      19.928426980000001      5.7650041700000001
   491   1      10.153131610000001      19.945400079999999      5.7631545700000002
   492   1      14.282437120000001      19.894529110000001      5.6936621599999997
   493   1      18.304328250000001      20.100535270000002      5.6811922700000004
   494   1      22.250142289999999      19.913434949999999              5.69566222
   495   1             26.31452912      19.904769479999999      5.6754857300000001
   496   1      30.436487620000001      19.848142790000001              5.81855923
   497   1   -0.072173940000000006             23.56245697      5.8792604199999996
   498   1      3.9691876700000002             23.36496777      5.7507333799999998
   499   1      8.2287651499999992      23.390205139999999      5.7714862900000004
   500   1      12.192352870000001      23.421131750000001              5.72516201
   501   1             16.18501419             23.54803184      5.7268664999999999
   502   1      20.282134030000002      23.497790680000001      5.7958063500000003
   503   1      24.316091660000001      23.473956829999999      5.8441939300000003
   504   1      28.373882120000001      23.469245969999999      5.8137347200000002
   505   1              2.02438334      26.982020980000001      5.6307545699999997
   506   1      6.1326439199999996      26.916830919999999      5.8021923500000003
   507   1             10.09351597      27.031317349999998      5.7117296099999999
   508   1             14.16756281             27.02803797      5.7215871399999996
   509   1      18.292722359999999      27.075900600000001              5.74625948
   510   1      22.252339760000002             26.93354064              5.60413037
   511   1      26.408083130000001      27.017676819999998      5.8700335700000004
   512   1      30.318571030000001             26.88810058              5.73983417
   513   1             -0.12646367      28.107843859999999      6.6312969400000004
   514   1      3.9521529000000002    0.066708069999999994      6.4891833400000003
   515   1      8.0767776500000004  -0.0032473799999999998      6.5799142399999999
   516   1             12.04440993      28.102533709999999      6.5965756000000004
   517   1             16.24246595      28.204718700000001      6.6071238900000004
   518   1      20.307367070000002      28.117265020000001      6.5673870499999998
   519   1      24.335829749999998      28.096449870000001      6.6058134700000002
   520   1      28.496070240000002              28.1238949      6.5629614099999998
   521   1      1.9193873699999999      3.5536058700000002      6.6305440100000004
   522   1      6.0122763099999998      3.5745968600000002      6.5054342800000002
   523   1             10.01962387      3.5566685900000001      6.6048138200000004
   524   1             14.10613614      3.5331420699999998      6.5988060199999996
   525   1             18.23250569              3.51935858      6.6253354800000004
   526   1      22.264226610000001      3.5489310199999999      6.6390489500000003
   527   1      26.384892700000002      3.4369485800000001      6.5290752000000003
   528   1             30.37360413              3.58813739      6.6317250899999998
   529   1      32.462884940000002      6.9918846700000001      6.6079410799999998
   530   1      4.0762891899999998      7.0917363900000003      6.6044438999999997
   531   1              8.12867681      7.1046343700000003      6.5793703399999997
   532   1      12.104679689999999      7.0765289300000003              6.66917823
   533   1      16.288882990000001      7.0774279499999997      6.6077566000000001
   534   1      20.429348900000001      7.1891700500000004              6.63405398
   535   1             24.40523481      6.9830398300000001      6.5736567399999997
   536   1      28.360421760000001      7.0626959300000003      6.5490549299999996
   537   1      2.0896085200000001             10.55066821      6.6031085200000001
   538   1      6.0627741500000001             10.51148325      6.5747025800000003
   539   1             10.13109214      10.651733849999999      6.5222044199999996
   540   1      14.275313329999999      10.540085899999999      6.7134541900000002
   541   1      18.191569810000001             10.58141212      6.6883561299999998
   542   1             22.21141647             10.55200198               6.5506487
   543   1      26.440922619999998      10.675030680000001      6.6188897500000001
   544   1      30.376468710000001      10.593070129999999      6.6625644299999998
   545   1      32.527650059999999              14.0073287      6.5916507700000002
   546   1      4.1381381599999996      14.155523049999999      6.6140924300000004
   547   1      8.1096143699999992      14.071973549999999              6.63668134
   548   1      12.222799849999999      14.026575190000001      6.6832940000000001
   549   1             16.14999692             14.10891466      6.7764199200000004
   550   1      20.207193759999999             14.08891292      6.5943097399999999
   551   1      24.302350109999999      14.176358329999999      6.5844947600000001
   552   1      28.452997230000001      14.036049350000001      6.6588828099999997
   553   1              1.96308002             17.48609355      6.6093340600000001
   554   1      5.9773369900000004      17.680282349999999      6.5013931400000002
   555   1             10.14459529      17.478538660000002      6.6590492799999996
   556   1      14.200323279999999      17.625783469999998              6.64181475
   557   1      18.263153849999998      17.730777509999999      6.5520803599999997
   558   1      22.293546729999999      17.556594090000001      6.5317053300000003
   559   1      26.332652700000001             17.70517074      6.4861781399999998
   560   1             30.47029895             17.52807567      6.6695559800000002
   561   1 -0.00087166999999999995             21.15015232      6.5056803199999997
   562   1      4.0510004999999998      21.175401229999999      6.6958959599999996
   563   1      8.2754926799999993      21.093759370000001      6.5812896700000003
   564   1             12.29506147      21.023757700000001      6.5207780299999998
   565   1      16.245472540000002      21.192357749999999      6.4931005300000004
   566   1      20.285843570000001              21.2212855      6.5136335399999998
   567   1      24.367611350000001      21.072633490000001              6.54507013
   568   1      28.413578009999998      21.154787349999999      6.6208188400000001
   569   1              1.99096826             24.71030627      6.6770213700000003
   570   1      6.0974255099999999      24.581672709999999      6.6545730399999998
   571   1             10.24249328      24.697068560000002               6.5861272
   572   1      14.146365230000001      24.702367850000002      6.5664830500000004
   573   1             18.25894108      24.845172689999998      6.6322943299999997
   574   1      22.252587510000001             24.62524453      6.7025058399999997
   575   1      26.369418209999999             24.61855727      6.6345963599999997
   576   1             30.37364724      24.653918300000001      6.6585262099999998
   577   1      2.0293613599999998      1.2563499899999999      7.5299989399999996
   578   1      6.0639513300000001      1.1293323200000001      7.3687901900000004
   579   1      10.088384080000001              1.17232362      7.5050262099999996
   580   1             14.10505817              1.02998872      7.5890985799999999
   581   1      18.248480730000001      1.2117369099999999      7.5655971400000004
   582   1      22.281114710000001      1.1770270899999999      7.3999779700000001
   583   1      26.319514730000002              1.11263014      7.4798261999999998
   584   1             30.39930322              1.18970252      7.6678280699999997
   585   1      32.494870589999998      4.7637021500000003      7.6273354900000001
   586   1      4.0950349099999999      4.7643065499999997      7.5658634300000003
   587   1      8.1061889300000001      4.6899790100000001      7.5095025700000004
   588   1             12.24452617      4.6834467399999999      7.6465250300000003
   589   1      16.212289869999999              4.76901917      7.5223523300000004
   590   1      20.276850870000001              4.81622079      7.5464861299999999
   591   1      24.416804389999999              4.67912266               7.6447702
   592   1      28.290523239999999      4.7117790399999997      7.4295702199999996
   593   1      2.1099254099999998      8.1911165100000005      7.5082413299999997
   594   1      6.1723859799999996      8.1963133500000005      7.5904257199999998
   595   1             10.18273059      8.2490473600000005      7.4284253900000001
   596   1             14.28655702              8.16924998              7.62297957
   597   1             18.24325748      8.1879171900000003      7.5702889899999999
   598   1             22.35248417      8.2984413700000008      7.6645470299999996
   599   1      26.423281729999999      8.2313103099999996      7.5437774600000003
   600   1      30.496989490000001      8.2035022299999998      7.5366256800000002
   601   1      32.535361709999997             11.59057945      7.4883184099999998
   602   1      4.1506828499999999             11.76896135      7.4976863399999996
   603   1      8.1056431599999996      11.711991469999999      7.4741946099999996
   604   1      12.164799410000001      11.619660440000001      7.5794535200000004
   605   1      16.255137550000001             11.75684184      7.7789145700000004
   606   1             20.19797681      11.737075340000001      7.5345082400000001
   607   1      24.320786040000002             11.76689094      7.4429084200000002
   608   1      28.468060340000001      11.750406849999999      7.5492490600000002
   609   1              1.97599379      15.174415209999999      7.5027240900000001
   610   1      6.0387898299999998             15.29761068      7.4390655099999998
   611   1      10.080136810000001      15.067977859999999      7.4195796200000004
   612   1             14.10703415             15.29922837      7.6197654200000002
   613   1      18.249599839999998      15.276176550000001      7.5666331400000004
   614   1      22.266732999999999      15.203758540000001      7.5597205199999999
   615   1      26.391216750000002             15.33932765      7.4222560199999998
   616   1      30.469413719999999             15.25499452      7.5249916099999998
   617   1   -0.083696199999999998      18.853270680000001      7.5263675599999997
   618   1      3.9913820699999998      18.793597309999999              7.64016772
   619   1      8.1145191299999997      18.735630839999999      7.4227425499999997
   620   1      12.193464730000001      18.744245889999998      7.4310153899999998
   621   1             16.28483949      18.946561450000001      7.3660546599999996
   622   1      20.249215070000002             18.87509579      7.4777258499999997
   623   1      24.316639649999999      18.627439620000001      7.5817066999999998
   624   1      28.422208300000001      18.707500209999999      7.4415058700000003
   625   1      2.0437974200000002      22.205274880000001              7.63928121
   626   1      6.2453622500000003      22.242957029999999      7.6183012899999998
   627   1      10.243883719999999              22.2865468      7.5245958999999996
   628   1      14.176633499999999      22.408825790000002      7.4406058399999999
   629   1      18.299366970000001      22.415500229999999              7.48986237
   630   1      22.299626830000001      22.225666789999998      7.5778628899999996
   631   1      26.355849060000001      22.203749169999998      7.5105274099999999
   632   1             30.49071253      22.299182269999999      7.6003960599999996
   633   1   -0.052938909999999999      25.738224720000002      7.5297918299999997
   634   1      4.0860857299999997             25.84554597              7.52577769
   635   1      8.0847100300000001             25.81827874      7.6452983300000001
   636   1             12.18503473      25.912313229999999      7.5150595999999998
   637   1      16.248681659999999      25.895099630000001              7.43100045
   638   1      20.277824840000001      25.820373700000001      7.5219774900000003
   639   1             24.34153925             25.79629233      7.4505316800000001
   640   1      28.384632830000001      25.852941560000001              7.52114745
   641   1      32.432662200000003      2.3667505000000002      8.1743868200000005
   642   1      4.1297870000000003      2.3402300600000001      8.1780022700000004
   643   1      8.1671967500000004      2.2504480899999999      8.1854938500000003
   644   1             12.16405222      2.1973297700000001      8.2456159699999994
   645   1      16.079418579999999      2.3776210999999998      8.1518370200000003
   646   1      20.275954290000001              2.38108114      8.1349963400000007
   647   1      24.348602379999999      2.2311993000000001      8.3515799400000006
   648   1      28.403145760000001      2.4006683400000002      8.0592790000000001
   649   1              2.11932966              5.85899547      8.2103751099999993
   650   1      6.0870746899999997      5.8309377299999996      8.2726989900000003
   651   1      10.094731660000001      5.7792044499999999      8.2867801300000004
   652   1      14.271311280000001      5.8713967499999997      8.3202686900000007
   653   1      18.418401530000001      5.9426733399999998      8.4106887500000003
   654   1      22.412811690000002              5.86581975      8.2622647400000009
   655   1      26.335894289999999      5.9432000800000004      8.2484473499999993
   656   1              30.3751608      5.7797263799999996      8.1667434799999992
   657   1      32.440335220000001      9.2842431699999999      8.2644765899999992
   658   1      4.2203429200000002      9.3744439499999999      8.2011876600000004
   659   1      8.1319375800000007      9.3452933599999994      8.1150914899999993
   660   1             12.20173239      9.4621738099999995      8.2622126100000006
   661   1             16.28436722      9.3133212699999994      8.2111806900000008
   662   1             20.19237918      9.5165682599999997      8.2249936699999999
   663   1      24.497050260000002      9.4484211800000004      8.2857782600000007
   664   1      28.410095380000001      9.3762000899999993      8.0460349499999992
   665   1      2.0389129000000001      12.791106790000001      8.2747590899999999
   666   1                6.148301             13.00583357      8.2095338299999998
   667   1      10.131855140000001             12.80541837               8.1438378
   668   1             14.22060928             12.88697709      8.3297495900000005
   669   1      18.265047450000001      12.997928740000001      8.2925909799999999
   670   1      22.302973139999999      12.838199619999999      8.1697709100000004
   671   1      26.525763820000002             13.01969783      8.2340473599999999
   672   1      30.628615530000001             12.90587889      8.1737209499999999
   673   1      32.458574659999996      16.400258359999999      8.2112346299999999
   674   1      3.9945509299999999             16.37309359      8.2915166899999999
   675   1      8.0357506599999997      16.511772300000001      8.1809775400000007
   676   1             12.01987059             16.41183723      8.2211991300000005
   677   1               16.078453      16.614116750000001      8.3362696799999991
   678   1      20.260443070000001      16.519442810000001      8.2699082199999996
   679   1              24.3100691      16.362592299999999              8.13581018
   680   1      28.373888239999999             16.34129021      8.1961814000000004
   681   1      1.9954409399999999             19.90193717      8.2429542799999993
   682   1      6.2297601699999996      20.052891850000002      8.3534105699999994
   683   1      10.268559570000001             19.92199128      8.0522240299999996
   684   1             14.24456378             20.04704439      8.1274696899999999
   685   1      18.186619530000002      20.137244200000001      8.0802868399999994
   686   1      22.263419240000001      19.906299390000001      8.2382112799999998
   687   1      26.410654940000001      19.844572280000001      8.2306576099999997
   688   1             30.36344583      20.001056030000001      8.1867380300000008
   689   1   0.0030143800000000001      23.472082220000001      8.3306569899999996
   690   1      4.0914538299999998      23.382713800000001      8.2446868099999993
   691   1      8.1521715300000004      23.470290290000001      8.2495405999999996
   692   1      12.231330120000001      23.427951480000001      8.0627890099999995
   693   1      16.218441169999998      23.668413640000001              7.99397877
   694   1      20.191333910000001      23.480279700000001      8.2394031600000002
   695   1      24.352700420000001      23.428991440000001      8.3002937600000006
   696   1      28.294112439999999      23.498009769999999      8.1753938599999998
   697   1      2.0343949399999999      26.988802880000001      7.9887036699999996
   698   1      6.1268231699999998      26.988604460000001      8.1208040300000004
   699   1             10.07116851      27.062909380000001      8.3470253499999991
   700   1      14.188360210000001      27.018334039999999      8.3766570900000001
   701   1      18.245267810000001      26.974145490000002      8.1124801400000006
   702   1      22.378653889999999      26.991416310000002      7.9790081099999997
   703   1             26.40359801      26.942022819999998      8.3460554499999997
   704   1      30.377544409999999             26.99639449      8.2188625300000009
   705   1              0.11000947      28.143668829999999      9.0257641599999996
   706   1      3.9901813700000002               0.1176287      8.8730169700000001
   707   1      8.0268744299999994     0.14202253000000001      9.2206558100000002
   708   1      12.127498429999999      28.199802900000002      9.1554616200000005
   709   1             16.23214093   -0.077854080000000006      8.9061370100000001
   710   1      20.336491240000001      28.104178959999999      8.9287538699999995
   711   1             24.40009586             -0.01558469      9.0624749999999992
   712   1             28.36567891    0.013940279999999999              8.92884484
   713   1      2.2395173599999998      3.6258258900000002      8.9224263199999996
   714   1      6.0607199400000002      3.4927758400000002      9.0567165099999993
   715   1             10.13441182      3.3293759000000001      8.8621855400000005
   716   1      14.200501239999999      3.5580143199999998              9.01692845
   717   1      18.182235259999999      3.5715192299999998      8.9696485199999998
   718   1      22.214432349999999      3.3621738300000001      8.9667604399999998
   719   1      26.280806340000002      3.4137677100000001      8.9551933199999993
   720   1      30.386615500000001      3.4618005699999999      9.0895177999999994
   721   1      32.482100760000002      6.8432099800000001      9.0334299399999995
   722   1      4.0101308700000002      7.2245719299999998      8.9939203400000007
   723   1      8.2427601999999993      7.0612621899999999      8.9196055199999993
   724   1             12.21545334      7.0889790100000001      9.0455584499999997
   725   1      16.216039760000001      7.0068245400000002      9.0905956400000001
   726   1      20.407915079999999      7.2870844999999997      9.0860594700000004
   727   1      24.447857500000001              7.17437959      8.9666423599999998
   728   1      28.296701850000002      7.0895416400000002      8.9127459200000008
   729   1      2.1794590299999999             10.36881238              8.94968276
   730   1              6.29272615             10.58604414      8.9690505100000006
   731   1             10.16740525      10.358972100000001              8.90845661
   732   1              14.3104885      10.588549110000001              9.07243946
   733   1      17.991300890000002             10.58858012      9.2768831200000008
   734   1             22.30766431      10.634447359999999      8.9521296400000008
   735   1             26.67130929             10.59076632      8.9283518199999996
   736   1             30.42843302              10.6586125      9.0556833599999997
   737   1   -0.051026099999999998      14.130221499999999      9.0049114100000001
   738   1      3.9995117499999999      13.860834759999999      8.9759559899999992
   739   1      8.0863359500000005      14.276604450000001      8.8501408399999999
   740   1             12.20347945             14.12930617      9.0696637199999994
   741   1      16.146851869999999             14.11724836      9.0568977299999993
   742   1      20.394263710000001             14.25551795      8.9266464200000009
   743   1      24.621806719999999      13.989869540000001      8.9332716600000008
   744   1      28.585522990000001              14.0878253               8.9507002
   745   1      2.0955728800000002      17.476198159999999      9.0254032800000008
   746   1      5.8646109500000003      17.731224090000001      8.9074269600000004
   747   1             10.21843561             17.67980193      8.9689989099999998
   748   1      14.036644300000001             17.69851778      8.8948274299999994
   749   1      18.215670589999998             17.82683978      9.0808430799999993
   750   1      22.336736670000001      17.615828050000001      9.0245044799999992
   751   1             26.29364301             17.51550851      8.8846849999999993
   752   1             30.43056451      17.580976809999999      9.0608872700000003
   753   1   -0.083185980000000007      21.136361569999998      8.8146195800000005
   754   1      4.0320310499999996      20.978794910000001      9.0478215300000002
   755   1      8.3243898400000003      21.172373180000001      8.9438463299999995
   756   1             12.09282563      21.205804130000001              8.97034457
   757   1      16.140108699999999             21.47928374      8.7748812100000002
   758   1      20.271174299999998      21.104793730000001      9.1194557100000004
   759   1             24.26728074      20.982585879999998      8.8577982500000001
   760   1      28.248236339999998      21.295643470000002      8.9339743699999996
   761   1              2.08515527             24.79197563      9.0394800199999992
   762   1      6.0231378700000002      24.659952929999999      9.0000210700000007
   763   1             10.23417645             24.78732398      8.8735031299999996
   764   1             14.16575437      24.600913739999999      9.0000598200000006
   765   1      18.220081090000001      24.625546589999999      9.0337309900000005
   766   1             22.32661959      24.665000689999999      9.0139121200000005
   767   1      26.438033969999999      24.484755180000001              9.03659766
   768   1      30.304949100000002      24.548614820000001      8.9861329399999992
   769   2      6.7864275300000001              1.76211988      9.3215616699999995
   770   2      5.8707050799999996     0.36441098999999999      9.2048485600000003
