N2-dn2-coord-10bar/700K/snapshots/frame-48590/run-000/../data.lammps (written by ASE) 

770 	 atoms 
2  atom types
0.0      32.470343392086264  xlo xhi
0.0      28.120142247150884  ylo yhi
0.0      31.213473999158239  zlo zhi


Atoms 

     1   1      2.0293964600000001      1.1716090800000001    0.023552650000000001
     2   1      6.0880008999999999              1.17168918              0.02556874
     3   1      10.146952280000001              1.17170328    0.025416459999999998
     4   1      14.205754900000001      1.1716496700000001              0.02501565
     5   1             18.26456816              1.17166478              0.02504435
     6   1             22.32338141      1.1716496700000001              0.02501565
     7   1      26.382184030000001              1.17170328    0.025416459999999998
     8   1      30.441135410000001              1.17168918              0.02556874
     9   1  9.1780000000000006e-05      4.6866847900000002    0.025581599999999999
    10   1      4.0587011400000002      4.6866847900000002    0.025581599999999999
    11   1      8.1174961000000003      4.6866290399999997    0.025584639999999999
    12   1             12.17638011      4.6866852999999997              0.02491202
    13   1             16.23517979      4.6866942700000003    0.025006210000000001
    14   1      20.293956519999998      4.6866942700000003    0.025006210000000001
    15   1      24.352756209999999      4.6866852999999997              0.02491202
    16   1      28.411640219999999      4.6866290399999997    0.025584639999999999
    17   1      2.0293964600000001      8.2016395800000002    0.026613040000000001
    18   1      6.0881071599999999      8.2016314300000008              0.02543782
    19   1             10.14701835               8.2017045    0.025156850000000001
    20   1      14.205766049999999      8.2017080900000003    0.024990459999999999
    21   1             18.26456816      8.2017077599999997    0.025091249999999999
    22   1      22.323370260000001      8.2017080900000003    0.024990459999999999
    23   1      26.382117969999999               8.2017045    0.025156850000000001
    24   1      30.441029149999999      8.2016314300000008              0.02543782
    25   1  9.2789999999999998e-05             11.71671873    0.025573410000000001
    26   1              4.05870014             11.71671873    0.025573410000000001
    27   1      8.1176017700000003             11.71668698              0.02497914
    28   1             12.17637068             11.71673069    0.025001590000000001
    29   1      16.235177310000001      11.716730249999999    0.025074039999999999
    30   1      20.293959009999998      11.716730249999999    0.025074039999999999
    31   1      24.352765640000001             11.71673069    0.025001590000000001
    32   1      28.411534549999999             11.71668698              0.02497914
    33   1      2.0293964600000001             15.23167155              0.02525285
    34   1      6.0881728300000004      15.231678799999999    0.025062859999999999
    35   1             10.14698486      15.231762639999999               0.0250786
    36   1             14.20578841             15.23176782    0.025201990000000001
    37   1             18.26456816              15.2317707    0.025149979999999999
    38   1      22.323347900000002             15.23176782    0.025201990000000001
    39   1      26.382151459999999      15.231762639999999               0.0250786
    40   1      30.440963480000001      15.231678799999999    0.025062859999999999
    41   1      32.470327990000001      18.746748629999999    0.024951939999999999
    42   1      4.0588083299999997      18.746748629999999    0.024951939999999999
    43   1      8.1175770200000006      18.746803499999999    0.025222040000000001
    44   1             12.17637459      18.746799750000001    0.025428470000000002
    45   1      16.235159400000001      18.746805200000001    0.025487360000000001
    46   1      20.293976919999999      18.746805200000001    0.025487360000000001
    47   1      24.352761730000001      18.746799750000001    0.025428470000000002
    48   1             28.41155929      18.746803499999999    0.025222040000000001
    49   1      2.0293964600000001      22.261939099999999    0.025844880000000001
    50   1      6.0881419299999999      22.261841799999999    0.025489439999999999
    51   1             10.14692954             22.26176895              0.02551757
    52   1             14.20573559      22.261804690000002    0.025639160000000001
    53   1             18.26456816             22.26178625    0.025640119999999999
    54   1      22.323400729999999      22.261804690000002    0.025639160000000001
    55   1      26.382206780000001             22.26176895              0.02551757
    56   1             30.44099439      22.261841799999999    0.025489439999999999
    57   1  5.6450000000000003e-05      25.776936450000001              0.02613327
    58   1      4.0587364700000004      25.776936450000001              0.02613327
    59   1      8.1175325399999991              25.7767713    0.024734180000000001
    60   1      12.176376469999999      25.776831090000002              0.02545323
    61   1      16.235145939999999      25.776775220000001    0.025273360000000002
    62   1             20.29399038      25.776775220000001    0.025273360000000002
    63   1      24.352759840000001      25.776831090000002              0.02545323
    64   1      28.411603769999999              25.7767713    0.024734180000000001
    65   1  0.00024266000000000001              2.34304215     0.80166565000000001
    66   1      4.0585502699999996              2.34304215     0.80166565000000001
    67   1      8.1157394600000003              2.34454954     0.80169402000000001
    68   1             12.17601256      2.3433829099999999     0.80116898000000003
    69   1      16.235258170000002      2.3433209100000001     0.80090046999999998
    70   1      20.293878150000001      2.3433209100000001     0.80090046999999998
    71   1      24.353123750000002      2.3433829099999999     0.80116898000000003
    72   1      28.413396859999999              2.34454954     0.80169402000000001
    73   1      2.0293964600000001      5.8582218700000004     0.80119762000000005
    74   1      6.0870566899999998      5.8583336700000004              0.80194851
    75   1             10.14649655              5.85853131     0.80121584000000001
    76   1             14.20597894      5.8582938599999999     0.80086840999999998
    77   1             18.26456816      5.8583798500000004               0.8010794
    78   1      22.323157380000001      5.8582938599999999     0.80086840999999998
    79   1             26.38263976              5.85853131     0.80121584000000001
    80   1      30.442079629999999      5.8583336700000004              0.80194851
    81   1  0.00019438999999999999      9.3717771800000005     0.80082061000000004
    82   1      4.0585985400000002      9.3717771800000005     0.80082061000000004
    83   1      8.1175070500000004      9.3725002699999997     0.80149060999999999
    84   1      12.176590020000001      9.3733583399999993     0.80088261999999999
    85   1             16.23512199      9.3733789200000004              0.80106506
    86   1             20.29401433      9.3733789200000004              0.80106506
    87   1      24.352546289999999      9.3733583399999993     0.80088261999999999
    88   1      28.411629269999999      9.3725002699999997     0.80149060999999999
    89   1      2.0293964600000001             12.88692854     0.80220621000000003
    90   1      6.0883212999999996             12.88743848     0.80138414999999996
    91   1      10.147128609999999             12.88859852     0.80085256000000005
    92   1             14.20571782      12.888558189999999     0.80113791000000001
    93   1             18.26456816      12.888409899999999     0.80109381000000002
    94   1      22.323418490000002      12.888558189999999     0.80113791000000001
    95   1             26.38200771             12.88859852     0.80085256000000005
    96   1      30.440815019999999             12.88743848     0.80138414999999996
    97   1              0.00012365      16.403222639999999     0.80145666999999998
    98   1      4.0586692700000002      16.403222639999999     0.80145666999999998
    99   1      8.1174337899999998      16.403825260000001     0.80097196999999998
   100   1              12.1761021             16.40390721     0.80133072000000005
   101   1             16.23503496      16.403861750000001     0.80140014999999998
   102   1      20.294101359999999      16.403861750000001     0.80140014999999998
   103   1      24.353034220000001             16.40390721     0.80133072000000005
   104   1      28.411702529999999      16.403825260000001     0.80097196999999998
   105   1      2.0293964600000001      19.919205120000001     0.80066369999999998
   106   1              6.08752564             19.91894023     0.80122479000000002
   107   1      10.146078839999999             19.91919038     0.80159137999999996
   108   1      14.204993419999999              19.9192584     0.80178742000000003
   109   1             18.26456816      19.919377350000001     0.80194975999999996
   110   1      22.324142899999998              19.9192584     0.80178742000000003
   111   1      26.383057470000001             19.91919038     0.80159137999999996
   112   1      30.441610669999999             19.91894023     0.80122479000000002
   113   1              0.00142012      23.434536609999999     0.80178442000000005
   114   1      4.0573728100000004      23.434536609999999     0.80178442000000005
   115   1      8.1165862000000004      23.433936769999999     0.80182306000000003
   116   1             12.17555218      23.433996919999998     0.80156656000000004
   117   1             16.23465491      23.434040110000002     0.80170828999999999
   118   1      20.294481409999999      23.434040110000002     0.80170828999999999
   119   1      24.353584130000002      23.433996919999998     0.80156656000000004
   120   1      28.412550110000002      23.433936769999999     0.80182306000000003
   121   1      2.0293964600000001      26.949875330000001              0.80297246
   122   1      6.0858208300000003      26.950066320000001              0.80215291
   123   1             10.14598146      26.949241430000001     0.80165810000000004
   124   1             14.20520604      26.948673230000001     0.80131923999999999
   125   1             18.26456816             26.94858318     0.80108193999999999
   126   1      22.323930279999999      26.948673230000001     0.80131923999999999
   127   1      26.383154860000001      26.949241430000001     0.80165810000000004
   128   1             30.44331549      26.950066320000001              0.80215291
   129   1      32.485890920000003      27.971236229999999              1.56649967
   130   1      4.1027680599999998   0.0028804799999999999              1.30273621
   131   1      7.9492553700000004              0.02657549               1.7159191
   132   1      12.225838680000001   -0.046014470000000002              1.47427536
   133   1             16.13317559    0.090535610000000002              1.63979838
   134   1      20.229207110000001   -0.071070259999999996              1.54221119
   135   1      24.285303549999998      28.165363540000001      1.7606152100000001
   136   1      28.426288159999999             -0.10547527              1.53629562
   137   1      1.9421609200000001              3.48371809      1.7069482899999999
   138   1      6.1816196400000001      3.5953802700000002              1.42215308
   139   1             10.09297409      3.3871203099999998      1.3532698700000001
   140   1             14.06001872              3.52365554      1.6553221300000001
   141   1             18.27130021              3.64733771              1.52823599
   142   1      22.262794270000001      3.3378681700000001              1.56506064
   143   1      26.439270990000001              3.62749297      1.4416752900000001
   144   1      30.477840830000002      3.4690219099999999      1.4489142100000001
   145   1      32.407763320000001      6.9388590499999996      1.5760494199999999
   146   1      4.0088030699999999              7.03395379              1.56199037
   147   1      8.0844937100000003      7.1273427199999997              1.47847346
   148   1      12.162244100000001      7.0267733200000002      1.4434778800000001
   149   1      16.211214999999999      7.1145628399999996              1.30996695
   150   1             20.31471535      7.0540584400000004              1.61388943
   151   1             24.31215117      7.0585269899999998      1.5201494200000001
   152   1      28.395079249999998      6.9141568299999996              1.52956018
   153   1      2.0879598499999998      10.493467730000001      1.3752249400000001
   154   1      6.2091987099999999      10.560839319999999      1.2364879600000001
   155   1              10.1128087      10.386156919999999      1.3629415899999999
   156   1      14.106190290000001             10.55575226      1.5267330299999999
   157   1      18.297547300000002             10.62121748              1.35066307
   158   1      22.171327059999999             10.66523321              1.55085041
   159   1      26.299453079999999      10.485989310000001              1.66854787
   160   1      30.333138510000001      10.395191090000001              1.60607729
   161   1      32.508131570000003             13.84269744      1.4583965400000001
   162   1      4.0798662400000003      13.920749470000001      1.5323650200000001
   163   1      8.1288509399999995             14.12338783      1.5931675199999999
   164   1      12.003574889999999             14.17810835      1.4747063600000001
   165   1      16.161948890000001             14.08076865      1.7143966900000001
   166   1      20.395848699999998      14.072873469999999              1.32683526
   167   1      24.299142199999999             14.06729621      1.6097893299999999
   168   1      28.348100030000001      14.027139119999999      1.4893492399999999
   169   1      2.1073210200000001      17.474730319999999      1.6203268200000001
   170   1      6.1506445699999999      17.641038999999999      1.5481739699999999
   171   1      9.9956104499999991      17.549412920000002      1.6348488299999999
   172   1      14.285056669999999             17.55853596      1.2470213699999999
   173   1             18.24086475      17.621483099999999      1.3663094899999999
   174   1      22.228089829999998      17.588863799999999              1.50499823
   175   1      26.425159440000002      17.489017650000001              1.52721646
   176   1      30.491134020000001      17.592226889999999      1.5143100700000001
   177   1   0.0037207299999999998             21.03486049      1.4497229300000001
   178   1      4.0790843499999996      21.264570549999998              1.48746303
   179   1      8.1077008100000008      20.972370590000001      1.4123525699999999
   180   1             12.02769913      21.242807679999999              1.53255578
   181   1      16.083142729999999      21.186117809999999              1.64161716
   182   1      20.218626780000001      21.085584390000001              1.56972566
   183   1      24.178044360000001      21.001058159999999              1.59238397
   184   1      28.383679019999999      21.095797569999998      1.2548422699999999
   185   1      2.0008548099999999      24.545093980000001      1.4169584900000001
   186   1      6.0975809400000003             24.58382658              1.55839679
   187   1      10.025630830000001      24.491016080000001      1.5372152400000001
   188   1             14.28738514      24.725220440000001              1.25015159
   189   1      18.338963880000001      24.628241800000001      1.3680685400000001
   190   1      22.362830389999999      24.781119189999998      1.2843879899999999
   191   1      26.350152550000001      24.496771030000001              1.41221299
   192   1      30.487920859999999              24.6062999              1.31164813
   193   1      2.0358188300000002      1.0810250100000001      2.4523649199999999
   194   1      6.0035385400000001      1.4570340900000001      2.2712038200000002
   195   1             10.02290401      1.1451610299999999      2.2468484200000001
   196   1             14.05910523      1.0703190300000001      2.2599202699999998
   197   1      18.420016199999999      1.3003310699999999      2.4330487700000001
   198   1             22.15790217      1.0967427999999999      2.4881199700000001
   199   1      26.561043479999999      1.2427248500000001      2.3592919299999999
   200   1      30.416260099999999      1.1856990700000001              2.38999023
   201   1      32.463317259999997      4.6813196000000001              2.44742098
   202   1      4.0537390200000001      4.7176451000000004              2.33769436
   203   1      8.1274615400000005      4.5493381399999997      2.2826124600000002
   204   1      11.874260570000001      4.8033091900000002               2.4574764
   205   1      16.074807409999998      4.7146030899999998      2.4097306700000001
   206   1      20.373529359999999      4.5817679199999999      2.5242602600000001
   207   1      24.351831229999998      4.7268160899999998              2.39996046
   208   1             28.55934147              4.59572556      2.6954303999999998
   209   1      1.9286273199999999      8.2210303499999995      2.5973918500000002
   210   1      5.9427004300000004      8.1826897600000006      2.2659788999999999
   211   1      10.306421889999999      8.0834488600000007      2.3811463499999999
   212   1      14.239171949999999      8.3517031100000008      2.4059668699999999
   213   1      18.337877049999999              8.22502712      2.4223789199999999
   214   1      22.320467969999999      8.3475262299999997      2.5721497000000002
   215   1             26.39979756      8.1699885400000003      2.4934853600000002
   216   1      30.196436859999999              8.19987566      2.4667078600000001
   217   1     0.13639639000000001             11.65019781              2.48217723
   218   1      4.0095051499999999      11.593094280000001      2.4197567599999998
   219   1      8.3661994100000001             11.67603869      2.4399811300000001
   220   1             12.14141519             11.78831372      2.2205496600000001
   221   1      16.276173100000001             11.73603956      2.2608382800000002
   222   1      20.264442599999999      11.808600670000001              2.51319873
   223   1      24.266077299999999             11.79802538      2.4367397300000002
   224   1      28.414234910000001             11.67602576      2.3381133599999999
   225   1      2.0457774099999999             15.20109267      2.4224839999999999
   226   1      6.3581413400000004      15.295763969999999      2.5143943599999998
   227   1      10.047181650000001      15.199441459999999              2.52021228
   228   1      14.058530810000001      15.198792060000001               2.4548193
   229   1      18.199258690000001      15.333550580000001      2.4765151300000001
   230   1      22.232404120000002             15.45241178      2.4739089299999999
   231   1             26.35909736             15.12479699      2.5124549300000001
   232   1      30.602973840000001      15.138539379999999      2.3096980199999999
   233   1      32.466670520000001      18.808664700000001      2.4374045199999999
   234   1              3.94661076      18.775995779999999              2.61498477
   235   1      8.0458438599999997      18.973140730000001      2.5879242200000001
   236   1             12.15760564      18.906169940000002      2.5402507999999999
   237   1      16.052028249999999      18.690996899999998      2.5013437299999999
   238   1      19.978334629999999      18.690010539999999      2.4962122999999998
   239   1      24.267069060000001      18.735040949999998      2.4959203200000002
   240   1      28.285708629999998      18.737053020000001      2.5020455400000001
   241   1              1.82835748      22.273532469999999      2.2959737599999999
   242   1      6.1574276899999996      22.248957539999999      2.3574636099999999
   243   1      9.8561940999999997             22.23205329      2.5831417700000001
   244   1      14.064943400000001      22.393525839999999      2.5452642000000001
   245   1      18.114850319999999      22.320707299999999              2.45308883
   246   1      22.307616620000001             22.54104779      2.3187880199999999
   247   1      26.397487040000001      22.239211699999998      2.4560827299999999
   248   1      30.309716219999999      22.084100230000001      2.3753046699999998
   249   1      32.388809870000003      25.726748390000001      2.4902648599999999
   250   1      4.1781328999999996      25.695917659999999      2.4053692500000001
   251   1      8.0571816700000003      25.824742350000001              2.38835452
   252   1             12.08253285      25.779240040000001      2.2913999500000002
   253   1             16.32535287      25.768273109999999              2.45298938
   254   1      20.336689740000001      25.860566330000001      2.5434953400000002
   255   1             24.34362222      25.742281460000001               2.3999557
   256   1             28.44770712             25.70807254      2.4181469500000001
   257   1      32.440678429999998      2.4288916999999999      3.3653511200000001
   258   1              4.04042513      2.4636642000000002      3.3454911300000001
   259   1      7.9826362700000004      2.2875348199999999      3.3369821499999999
   260   1             12.04991568              2.20471431      3.1056645600000001
   261   1      16.170238749999999      2.2261118099999999      3.1958150600000002
   262   1      20.280877490000002      2.1536821399999999              3.41523295
   263   1             24.21153018      2.4794592199999999              3.27042169
   264   1      28.468233080000001      2.1589644099999998      3.3455645600000001
   265   1      2.0361893700000002      5.9101343599999998      3.2555879000000001
   266   1      6.1999215000000003      5.9219442300000003               3.0956044
   267   1             10.00593714      5.8287381700000003      3.3263401500000001
   268   1      14.267186110000001      5.8985115300000004              3.27797691
   269   1      18.207082029999999      5.8395616099999996      3.3496699599999999
   270   1      22.406418689999999      5.9759654600000003      3.3056148300000001
   271   1             26.42208479      5.8868628799999998              3.26156471
   272   1      30.375835420000001      6.0150256999999998      3.2090405799999999
   273   1    -0.20767928999999999      9.1670721999999998              3.30608594
   274   1      4.0956573000000001      9.2467020800000004      3.3186727500000002
   275   1      8.2242140300000006      9.2731004699999993      3.2170126200000002
   276   1      12.223896679999999      9.3425130900000006      3.4074806500000001
   277   1             16.16090647      9.3423121200000008      3.2295718400000002
   278   1      20.440915879999999      9.3794163000000008      3.5077239100000002
   279   1      24.432700499999999      9.4657327599999999      3.3124206100000002
   280   1             28.40347281      9.4942035300000001      3.3903254299999999
   281   1              2.08313331             12.81122547      3.2778113800000002
   282   1      6.0680260500000003      12.794281099999999      3.2695726000000001
   283   1             10.25625533             12.86378174      3.5538873400000002
   284   1      14.144974059999999      12.765107029999999      3.1309943900000001
   285   1      18.224514970000001      13.060276999999999      3.3565977899999999
   286   1      22.375006370000001      12.988592410000001      3.2332119499999998
   287   1      26.461272359999999             12.85061782      3.4229836200000001
   288   1      30.434963830000001             12.85913946      3.4743925500000001
   289   1      32.323829179999997      16.395429549999999      3.2445918900000001
   290   1      4.0796718199999997      16.475527979999999              3.41187554
   291   1      8.1626474000000009             16.52215129              3.33788858
   292   1      12.097968099999999      16.543408450000001      3.2272969900000001
   293   1      16.147566220000002      16.416253380000001              3.23738803
   294   1             20.27755909             16.30619497      3.2460842799999998
   295   1      24.404406640000001      16.401697800000001      3.3042032699999999
   296   1      28.380524550000001      16.449001330000002      3.2289756500000002
   297   1      1.9537498900000001             19.92713359              3.36884462
   298   1      5.9349304900000002      20.007262170000001              3.60502981
   299   1             10.13238106      19.933410550000001      3.2937691099999999
   300   1      14.119956459999999      19.973477519999999      3.3533226300000001
   301   1      17.970272250000001      20.122354720000001      3.1417163499999998
   302   1             22.24400602      20.064484790000002      3.2322556499999999
   303   1      26.373828639999999      19.899429219999998      3.2027829799999998
   304   1      30.235898259999999             19.78700705      3.1412459400000001
   305   1      32.336860199999997      23.290787949999999      3.2512431199999998
   306   1      4.0701662000000001      23.272208469999999      3.3942258399999998
   307   1      8.0407726900000007             23.54984945              3.48310494
   308   1      12.172324290000001      23.478250320000001      3.2043767999999999
   309   1      16.162203569999999      23.527363040000001              3.25634903
   310   1      20.097496629999998      23.444784729999999              3.47117817
   311   1      24.233583729999999              23.5956808              3.17992147
   312   1      28.409851889999999             23.30403909      3.1467448899999999
   313   1      2.0871315099999999      26.971212420000001      3.2189083200000002
   314   1      6.0484309700000001      26.975246429999999      3.3607681700000001
   315   1      9.9292179699999998             26.99556699      3.3238186600000001
   316   1             14.09079051             26.86668577      3.3315093899999999
   317   1             18.23494938      26.990830809999999      3.2791420100000002
   318   1             22.26729147             26.77090682      3.1764426100000001
   319   1      26.383746389999999      26.906406520000001              3.18421318
   320   1      30.396999139999998      26.879549239999999      3.3864687299999998
   321   1      32.501663659999998    0.064640279999999994      4.0741120899999999
   322   1      3.9698424399999999    0.051739189999999997      3.9882671699999999
   323   1      7.8755942599999997   -0.010066820000000001      4.1162566500000004
   324   1      12.218011949999999             28.12011996      4.0820273900000004
   325   1      16.176646340000001  0.00094459999999999998      3.9722184199999999
   326   1      20.282665649999998   -0.074535539999999997      4.2663728299999999
   327   1      24.345369890000001              0.09057018              4.09932695
   328   1      28.204006419999999      28.189730640000001      4.2267159899999998
   329   1              1.83296904      3.4496768200000001      4.0924781599999998
   330   1      6.0836485700000003      3.6982452800000001      4.1589891999999997
   331   1             10.10211743      3.4599402499999998      3.8458870100000002
   332   1             14.10021145              3.27363128      3.9987531999999999
   333   1      18.228484099999999      3.5174485600000001               4.0500862
   334   1      22.448439180000001              3.54964529      4.1132295799999996
   335   1      26.564627980000001      3.5137451799999999      3.9377997900000001
   336   1      30.482263849999999      3.6892826300000001      4.0700073999999997
   337   1      32.450034090000003      7.0430535499999998      4.2328616200000004
   338   1      4.0532973600000002      6.9823967099999997              3.99842824
   339   1              7.99815831      7.0829262599999998      4.0440930499999999
   340   1             12.14323272      7.1069031799999998      4.1861866900000004
   341   1      16.257477009999999      7.0561257399999997      4.0376630599999999
   342   1             20.29259605      7.0097467199999999      4.1845875899999996
   343   1      24.492900089999999              7.19892763      4.2700926399999997
   344   1             28.31966731      7.2974463900000002      4.1983695399999998
   345   1                2.003638             10.38892822      3.9032646400000002
   346   1      6.2097683000000004      10.482062989999999      3.9144430400000001
   347   1      10.197780399999999      10.483576790000001      3.8379919500000002
   348   1      14.200784949999999      10.702812120000001      4.0482128199999998
   349   1      18.239618350000001      10.592931480000001      4.0662028499999998
   350   1      22.284113359999999             10.74993007      4.0879882299999997
   351   1              26.4477245      10.556594049999999      4.1122262300000001
   352   1      30.252557150000001      10.487541179999999              4.21535233
   353   1   -0.074119009999999999      13.881837819999999      4.2173187099999998
   354   1              3.97048858             13.95253763      4.1876732199999998
   355   1      7.9802845800000002             14.26315868      4.1781835300000001
   356   1             12.26302583      14.199132759999999      4.1220327599999997
   357   1      15.945981919999999             14.25001348      4.1688953800000004
   358   1      20.347886720000002             14.13346617      4.0607498499999997
   359   1             24.29550068      14.054310190000001      4.2266910500000003
   360   1      28.329490069999999             13.95589335      4.1230263200000001
   361   1      2.1105314800000001      17.493756019999999              4.14214445
   362   1      6.0958866299999999      17.587145249999999      3.9795269200000001
   363   1             10.24743945      17.702701269999999      4.3395857400000004
   364   1             14.03405132             17.68871218      3.8685050699999999
   365   1      18.155823519999998      17.599525490000001      4.1582641599999999
   366   1      22.350227279999999             17.58673181               3.9729619
   367   1      26.353953959999998             17.66211496              4.23862088
   368   1      30.420695290000001      17.317141379999999               4.0293212
   369   1    -0.31834375999999998      21.036923420000001      4.1890275199999998
   370   1              3.93278639      21.065242359999999      4.0739622100000004
   371   1      7.9379025499999996              21.1091917      4.1398173199999997
   372   1      12.130604229999999      21.199739470000001      4.1064329800000001
   373   1      16.055524800000001             21.14621807      4.0590352000000003
   374   1      20.039645849999999             20.87329746      4.1227072900000001
   375   1      24.381223370000001      21.248190470000001      4.0005540799999997
   376   1      28.430715809999999             21.15682447      4.0699859600000003
   377   1      2.0755499099999999      24.560130050000001      3.9505612800000001
   378   1      6.0700740399999997      24.516441579999999      4.0943611600000001
   379   1             10.03795695             24.54942874      4.0886970600000003
   380   1      14.237567520000001      24.717103219999998      4.0094060499999999
   381   1      18.231741849999999             24.52754122      4.2584296500000001
   382   1      22.172797769999999             24.45601482      4.1116380000000001
   383   1      26.359638839999999              24.5242681      4.0555579799999997
   384   1             30.29318031      24.641261159999999      4.0844720199999998
   385   1               1.9740076      1.2453323999999999      4.9801113900000002
   386   1      6.1348267600000002              1.39135027              4.89717688
   387   1      9.9113629999999997      1.2338186099999999               4.7811664
   388   1      14.181657319999999      1.1997995699999999      4.9910744600000001
   389   1      18.147702720000002      1.1491442000000001      5.0197810499999997
   390   1      22.337336950000001              1.24849253      4.9989591500000001
   391   1      26.264094799999999              1.28193757      5.0484836199999998
   392   1      30.465321320000001      1.3770098900000001      4.7521680499999999
   393   1      32.457274329999997      4.7632400099999996      5.0610632799999999
   394   1      3.8934894899999999              4.60003283      4.9603705800000002
   395   1      8.0637614800000001              5.04058224      4.9474251899999997
   396   1              12.1623953      4.5718099800000003              4.80526783
   397   1      16.057361740000001      4.5811994599999997      4.7798472800000003
   398   1      20.184837529999999      4.4853922800000001      4.8640592299999996
   399   1             24.52818615      4.8695538599999999      4.8728407100000002
   400   1      28.472145810000001      4.8840164599999998      5.0774236999999998
   401   1      1.8626465999999999      8.2104229499999999      4.8506834599999999
   402   1      5.8750237900000002      8.2015927000000008      4.7446241000000002
   403   1      10.036630260000001      8.2211295599999996      4.8394595999999996
   404   1             14.13218326      8.0939966999999999              5.07945197
   405   1      18.134184399999999      8.3288452799999995      4.9126215699999998
   406   1      22.210734949999999      8.1190882200000001      4.8978131899999999
   407   1      26.392940370000002      8.5391586299999993      5.2809671299999996
   408   1      30.422389330000001      8.3168944200000006              5.04703429
   409   1      32.513436030000001      11.641789299999999      5.0136039700000001
   410   1      4.3103750200000004      11.637954629999999      4.8680677799999996
   411   1      8.2120327399999997      11.791731479999999      4.9580661299999997
   412   1             12.06302968      11.650184940000001      4.7232318700000002
   413   1      16.247692369999999             12.06963037      4.8812897700000004
   414   1      20.203714189999999             11.90762039      4.8577262699999997
   415   1      24.303074330000001      11.798391069999999              4.95786426
   416   1      28.375069109999998             11.68645369      5.0686404400000002
   417   1      1.9372866900000001      15.137833410000001      4.8435213099999999
   418   1              5.93119934      15.301445409999999      4.8356669600000002
   419   1      10.116322240000001      15.303174540000001      4.9288080499999998
   420   1      14.169222960000001             15.41860114      5.0503069099999998
   421   1      18.383761310000001             15.36245527              5.07573293
   422   1             22.39674303      15.336410089999999      5.0181403400000004
   423   1      26.565415739999999             15.28461877      5.1115665400000001
   424   1      30.364283140000001             15.22847217      4.9411885199999999
   425   1      32.235557749999998             18.64424945      5.0844336600000002
   426   1      4.1467147000000004      18.578171950000002      4.9546630199999999
   427   1      8.1421860400000003      18.665949999999999      5.1070156300000003
   428   1             12.24101557      18.676747370000001      5.0386747400000003
   429   1      15.933277240000001      18.763526509999998      5.1567768300000001
   430   1             20.14265219      18.656714690000001      5.0168672299999999
   431   1      24.282291829999998      18.875239130000001              4.82438068
   432   1      28.404910130000001      18.645571149999999              4.90601061
   433   1              1.92174786      22.160165169999999      4.7350701300000004
   434   1      5.9212226000000001             22.32417156      4.9814163999999996
   435   1              10.0052132      22.387987729999999      5.0978034299999999
   436   1             14.13112102      22.291536690000001      5.0006807799999997
   437   1      18.238980909999999      22.341082929999999              5.05135661
   438   1      22.152204449999999      22.158011909999999      5.0493468699999999
   439   1      26.222114479999998      22.361626730000001      4.9102965699999999
   440   1             30.12475148      22.246635479999998      5.0061109400000001
   441   1      32.442214370000002      25.856987180000001      4.9555420400000001
   442   1      4.2022079200000002             25.76041262      4.9521322300000001
   443   1      7.9593926100000001      25.872854310000001      4.9501241900000004
   444   1             12.14351578      25.738225060000001      4.7250013800000001
   445   1      16.201615759999999      25.778477769999999              4.95170712
   446   1             20.30348571      25.706882969999999      4.9260962399999997
   447   1      24.258052129999999              25.6426774      5.0619233399999999
   448   1      28.240059389999999             25.80947948      5.0155593300000003
   449   1    -0.17093551000000001      2.3305821299999998      5.8837864299999998
   450   1      4.1418699999999999      2.3944154599999998      5.6753912299999998
   451   1      8.1503280399999998      2.4802823300000001               5.8989772
   452   1             12.09591528      2.3891167900000001      5.7120800799999998
   453   1      16.075915810000001      2.4552808399999999      5.6693578100000002
   454   1      20.224703420000001      2.4092963699999999      5.8247550099999996
   455   1      24.229613029999999              2.30708249      5.7657457699999997
   456   1      28.276627189999999      2.3731328899999999      5.8325897600000003
   457   1      1.8712174100000001      5.9534392699999996      5.8686393199999998
   458   1      5.9576125900000001      5.9112191899999997      5.5105382699999996
   459   1             10.13749831      5.9017087899999998              5.82513214
   460   1             14.09052844              5.88819873      5.7586217700000004
   461   1             18.19897769      5.9521452699999999      5.8508774199999998
   462   1      22.333984480000002      5.9449862500000004      5.7682619800000001
   463   1      26.553437020000001      6.0907136099999999              5.91640254
   464   1      30.406667089999999      6.0618584599999998      5.6803186700000001
   465   1      32.299458199999997      9.3452653199999993      5.7924371399999997
   466   1      3.7849710000000001      9.4664044999999994      5.6929578999999997
   467   1      8.1768105000000002      9.3545639400000002      5.6730930800000001
   468   1             12.03230258      9.3366848900000008      5.8484942599999998
   469   1      16.294210119999999      9.6786095599999999      5.6755879800000004
   470   1             20.14307427      9.4968045300000004      5.9633972599999998
   471   1      24.026469809999998      9.4958165900000004      5.9819816499999998
   472   1      28.388221260000002      9.4977844299999994      6.0116884800000001
   473   1      2.1062891700000002             12.67762714      5.8170593300000002
   474   1      5.9949891199999996             13.06184449      5.8209820199999998
   475   1             10.12644045      12.835340629999999      6.0939229299999997
   476   1             14.01785623             13.16664939      5.8401453700000001
   477   1      18.126377690000002      13.177504519999999      5.9008917800000003
   478   1      22.224139449999999      13.015719280000001      5.8866041500000001
   479   1             26.53694613             12.87939561      5.8783559500000004
   480   1             30.39493281      12.844293070000001      5.9560108200000004
   481   1              0.04921652      16.303803729999998      5.9262451699999996
   482   1      3.9494368899999999             16.26940372      5.8648414500000001
   483   1      8.0069379499999993             16.33025641      5.8756660800000002
   484   1             12.03145314      16.614060850000001      5.7701901199999996
   485   1      16.292729909999998      16.539152730000001      5.8150757500000001
   486   1             20.21296212             16.49971189      5.7288275000000004
   487   1      24.486993309999999      16.454154370000001      5.8164424600000002
   488   1      28.509233869999999             16.50999186      5.8458902400000001
   489   1              2.05108705             19.82573897      5.8108712999999996
   490   1      6.0244843499999998      19.975961470000001      5.9630575700000001
   491   1      9.9680882000000004      19.983193369999999      5.9933996699999996
   492   1      14.194947239999999      20.114352629999999      5.9564683499999997
   493   1              18.1793181      19.918980869999999      5.7174193799999999
   494   1      22.066387639999999      19.769119660000001                5.774985
   495   1      26.298940590000001      19.953156360000001      5.8003874900000003
   496   1             30.39698456      20.037863139999999      5.7484056399999997
   497   1      32.292193910000002      23.398068240000001              5.70297711
   498   1              3.77738788      23.493194580000001      5.8168162299999997
   499   1      7.9740435500000002      23.517741170000001      5.9848276199999999
   500   1             11.96949562      23.314639329999999      5.7330656099999997
   501   1      16.239800769999999      23.403404420000001              5.67150803
   502   1             20.21487759      23.325967380000002      5.9384898899999996
   503   1      24.142181399999998             23.39167363              5.78288811
   504   1      28.316820660000001      23.425511960000001      5.7089128200000001
   505   1      2.1622120100000002             26.90743423      5.7487660800000002
   506   1              6.07570663      27.010530599999999      5.9591121200000003
   507   1             10.05976281      27.070044200000002      5.7170344699999998
   508   1             14.16570158              27.0498586      5.7932289900000002
   509   1      18.179451010000001      26.894971309999999              5.70884547
   510   1      22.125648529999999      26.841409630000001      5.9495464800000004
   511   1      26.186763549999998              27.0156536      5.8056321799999999
   512   1             30.36258059              27.1903349      5.8394050599999998
   513   1      32.308154989999998    0.082694439999999994      6.6967538500000003
   514   1      3.9516518600000001      28.133160019999998      6.5473682899999996
   515   1      8.2086922599999994      28.054901019999999      6.7485629899999999
   516   1             12.00280998      28.096759290000001      6.7630480999999998
   517   1      16.167068230000002      28.134265240000001      6.5244801600000004
   518   1      20.139084029999999             28.14383965      6.7935385400000001
   519   1      24.254117569999998              0.05383835      6.7743927700000004
   520   1      28.296142809999999              0.12068832      6.8322457400000003
   521   1      1.8950115999999999      3.3161572600000002      6.6471953800000003
   522   1      6.0492291600000003      3.5748859300000002      6.6937486899999996
   523   1      9.9675084700000003              3.64292544      6.8202252899999998
   524   1              14.0618301      3.6832127099999998      6.7316909599999999
   525   1      18.008567530000001      3.5767790800000001      6.5196935800000002
   526   1             22.31153363              3.55328591              6.80377601
   527   1      26.188864389999999              3.64503025      6.6335618099999998
   528   1      30.383249790000001      3.6990581300000001      6.7948863900000003
   529   1   -0.054062859999999997      6.9974265300000003      6.6508161799999996
   530   1      4.0685574999999998      6.9326852700000003      6.5195512200000003
   531   1      8.0493400200000007      7.0355629899999998      6.5346354099999999
   532   1      12.068844909999999      6.9656575099999998      6.6187901399999998
   533   1             16.06402757      7.1254643700000004      6.6526356499999997
   534   1      20.177029260000001      7.2019971099999998      6.6407037100000004
   535   1      24.200380790000001      7.3123245900000002      6.7781919000000004
   536   1      28.293952820000001      7.2312598499999998      6.7816821200000001
   537   1              1.98988772      10.444582499999999      6.8141443300000004
   538   1      6.1550025100000001      10.542416640000001      6.3887245699999999
   539   1             10.12387425             10.34799744      6.3167853699999998
   540   1      14.141678580000001              10.5800857      6.3519669499999996
   541   1      18.190741719999998      10.675367469999999      6.6132165699999996
   542   1      22.178407050000001             10.75085767      6.6269988399999997
   543   1      26.254390099999998              10.5914983      6.6861988999999999
   544   1      30.420049769999999             10.43770967              6.80609033
   545   1      32.501806360000003      13.897248429999999      6.7315389000000003
   546   1              4.02775777      13.974841420000001      6.8929565799999999
   547   1      8.0324299200000002      14.105484000000001      6.5070417300000001
   548   1             11.95662783             14.29504114      6.7623691099999998
   549   1      16.189038239999999               14.277193      6.6855199699999996
   550   1      20.225988189999999      14.152299429999999      6.6817104699999996
   551   1      24.386475770000001             14.16483918      6.7427219100000002
   552   1             28.49788659             13.90863171      6.7757612800000002
   553   1              1.94706077      17.629863329999999      6.8811077899999997
   554   1      6.0469372699999999      17.522680430000001      6.4283743099999997
   555   1      10.021684779999999      17.614931590000001      6.7157525199999997
   556   1      14.365127940000001      17.836767300000002      6.6661869999999999
   557   1      18.159368140000002      17.726721569999999      6.6388826500000002
   558   1             22.26130766             17.57583069      6.6680910799999999
   559   1             26.44705918      17.679695500000001      6.7847301499999997
   560   1      30.493434560000001             17.61819994      6.7013889100000004
   561   1      32.500862220000002             21.05169197      6.7542433400000004
   562   1              4.03186058      21.202266290000001      6.5684696599999999
   563   1      8.1956616499999999      21.356435690000001      6.6401982899999998
   564   1      11.955127969999999      21.059885520000002      6.8008080399999997
   565   1      16.144865599999999      21.321227589999999      6.6224102599999997
   566   1      20.029187270000001             21.18275453      6.7494351699999999
   567   1      24.175743780000001      21.065270940000001      6.4925083399999997
   568   1             28.26644611      21.084164269999999      6.5758462099999999
   569   1              1.94211377      24.609307489999999      6.5197165500000001
   570   1      5.9678975200000002      24.639767639999999      6.6719450800000004
   571   1             10.18354589      24.641391179999999      6.6570912299999998
   572   1             14.06426802      24.337745720000001      6.3543240299999999
   573   1      18.182892219999999             24.69419216      6.6479364900000002
   574   1      22.229286599999998      24.482347730000001      6.8419980499999999
   575   1      26.272955970000002      24.517151980000001              6.67902884
   576   1      30.281643580000001      24.810960290000001              6.67099244
   577   1              1.90764263      1.1590047999999999      7.3524710899999999
   578   1      6.0899761899999998              1.24739559      7.4755474399999997
   579   1      9.9270166799999995              1.18630346      7.6412415899999999
   580   1             14.48413446              1.33397933      7.6263628199999998
   581   1      17.857991510000002      1.1670205199999999      7.7858496099999996
   582   1      21.965922630000001              1.20043871      7.5325297300000003
   583   1      26.323064970000001              1.42581604      7.7158167500000001
   584   1             30.36041243      1.4699687800000001      7.2617016400000001
   585   1      32.364841310000003              4.80980746      7.7726505599999998
   586   1      3.9026903399999999      4.6230896399999999      7.4472067400000004
   587   1      7.9654035800000003      4.7885998299999999               7.4282778
   588   1      12.111960659999999      4.5128781499999997      7.6333740600000004
   589   1             15.87418167      4.8660884500000003               7.3611198
   590   1      20.275872150000001      4.6876131599999997      7.2847096799999997
   591   1      24.284989660000001      5.0091956099999999      7.3350380199999998
   592   1             28.22479371      4.7284564400000004      7.4728540099999998
   593   1              2.08300522      8.0968734700000002      7.8068368100000001
   594   1      6.0256434099999998      8.1734151700000002      7.2056118800000002
   595   1      9.8606595899999991      8.1797942300000006      7.6366698399999997
   596   1      13.973582970000001               8.3193883      7.7358684699999998
   597   1      18.125428899999999      8.1941851299999993      7.6357434199999998
   598   1      21.881616269999999      8.4122416100000006      7.4729932200000002
   599   1      26.145869300000001      8.3057687799999993      7.6499739099999999
   600   1             30.48284408      8.2500486199999994      7.5838875000000003
   601   1    -0.13265935000000001             11.67819618      7.7415947100000002
   602   1      4.0865761000000003             11.42876248      7.4946069199999998
   603   1      8.1230096899999999             11.42346201      7.3360124300000003
   604   1             12.05664644             11.82151088      7.3316189200000004
   605   1      18.192862510000001             13.05841734      8.2475647599999995
   606   1      20.260825359999998      12.054469449999999      7.3885652500000001
   607   1             24.40961493      11.874545550000001      7.5806223700000004
   608   1      28.553443290000001             11.58753289      7.8657950999999997
   609   1      1.9318930000000001             15.13894123      7.5511826299999996
   610   1      5.9235163200000001             15.29266157      7.5984182100000002
   611   1      9.9849892400000009      15.352382070000001      7.5632540099999996
   612   1      14.023814679999999      15.433370829999999               7.5338661
   613   1      18.258953770000002      15.377357050000001      7.4629806700000003
   614   1             22.21178536             15.33448284      7.5871070200000004
   615   1      26.501074429999999             15.22872905      7.3807761300000001
   616   1      30.313787260000002      15.266976919999999      7.5684410499999997
   617   1      32.364306020000001      18.740240780000001      7.6669963900000004
   618   1      4.0398690999999998      18.832108000000002      7.5370174700000003
   619   1      7.9663692599999996      18.724936079999999      7.5754631999999997
   620   1             12.15650801      18.813729309999999      7.5926346100000002
   621   1             16.17883187      19.027168540000002      7.6715847300000002
   622   1      20.282837279999999             19.00556366      7.5854240800000001
   623   1      24.338569660000001      18.679912059999999      7.1987606499999997
   624   1              28.3517701      18.872129059999999      7.6199543900000002
   625   1      2.0780557599999998      22.314115319999999      7.2727467900000002
   626   1      6.1154390699999999             22.43193277      7.5485698000000001
   627   1             10.11109976             22.31110104      7.5627487100000002
   628   1             14.15961965      22.265742620000001      7.6252572299999999
   629   1      18.132435050000002      22.264376250000002      7.7941462799999996
   630   1             22.18286548      22.077923160000001      7.7514930700000004
   631   1             26.24760586             22.21151416      7.5950049999999996
   632   1      30.030629090000001      22.256366440000001      7.3561477999999996
   633   1      32.274927929999997      25.738520579999999      7.4157807299999998
   634   1              3.96033269      25.857514129999998      7.4599642499999996
   635   1      8.1256926400000005      25.853457420000002      7.3790933399999998
   636   1             12.19485255      25.652203719999999      7.5085176100000002
   637   1              15.9091801             25.95710016      7.3275975200000003
   638   1      20.152509120000001      25.785551080000001      7.3779945600000003
   639   1             24.21368837      25.885169059999999      7.5768678300000003
   640   1      28.249294720000002             25.73012632      7.6367163800000002
   641   1      2.0965987300000002      5.9148322899999997      8.5602797899999992
   642   1      1.2953032900000001     0.87199864999999999      9.5181125699999996
   643   1             10.07225609      3.7212059499999999      9.1769710399999997
   644   1             11.97917537              27.9583838      9.1166402600000005
   645   1             16.15273161     0.28237261000000002      9.2557772200000006
   646   1      18.205691949999999      5.6718214500000004              8.28504167
   647   1      26.087727910000002      3.8214146499999999      9.0397339500000005
   648   1             28.40570975      2.4907475300000002      8.5130478099999998
   649   1      5.6090294700000003      3.3155114999999999      9.0874535099999996
   650   1      1.8542672099999999              26.8919198      8.0312744699999996
   651   1             11.98329446      2.0029966300000002      8.3439700200000004
   652   1              13.7892578      10.793020690000001      8.7225148600000004
   653   1      24.214053539999998      9.5083706400000008      8.3565904799999995
   654   1      31.139052360000001      1.0649466000000001      9.6442501400000005
   655   1             20.05622309      7.0014488500000001      9.0745333099999996
   656   1               4.1949391      7.1821687299999999      9.1002188200000003
   657   1      7.8217619100000002      9.2619894600000006      8.1003851000000004
   658   1      6.0936651599999996      12.715685880000001      8.1547289700000007
   659   1              7.67586602      7.2515466999999996      9.0633368599999997
   660   1             12.01206721      7.0306833400000004      9.0576345000000007
   661   1             14.15422564      17.734965540000001              9.31073387
   662   1      26.515663459999999      10.333756109999999      9.1024629400000006
   663   1      19.966624320000001      9.8395493100000007      8.4315497399999995
   664   1              32.4105378      7.1979850900000004      9.0373478299999999
   665   1             11.92548961      9.3879018300000006      8.2074006599999993
   666   1              3.92135027      16.005629580000001      8.6375135200000006
   667   1      11.993370179999999      16.484938570000001      8.2578376700000007
   668   1      16.176401800000001      11.900795430000001      7.2471084799999996
   669   1      16.372241460000001      16.722189749999998      8.4495846799999992
   670   1      26.415958580000002      12.959860689999999      8.5320522400000005
   671   1              28.5781034             14.23068539      9.1924201300000004
   672   1   -0.090381500000000004             14.01124186      9.2023540599999993
   673   1             30.46244209             17.69539039      9.1292158000000008
   674   1              2.10544208             12.80007004      8.1801742199999996
   675   1      5.8928783899999999             17.67891118      9.0256027599999999
   676   1      12.137538559999999      20.864266659999998              9.09917862
   677   1      9.6877049999999993             12.95026631      8.3846747599999993
   678   1      22.208056880000001             17.24816607      9.2511515400000004
   679   1             24.39046896             14.01715987      9.0576584199999992
   680   1      28.501591449999999      16.366055230000001      8.4261480399999993
   681   1      1.7287858199999999      24.631385529999999      8.7517651500000007
   682   1      7.9178830900000001      16.381448939999999      8.3589074700000001
   683   1      6.1606127900000001      26.720814499999999              8.30000699
   684   1      6.0413241700000002      10.434623869999999              9.02012006
   685   1      22.180113089999999             19.78441128      8.4376533699999996
   686   1             24.27696169      21.083359210000001              9.02189364
   687   1             26.37106288             15.08290508      9.9513381200000008
   688   1      30.341493289999999      20.049154699999999      8.2852934200000004
   689   1      24.334648009999999      18.595045540000001      9.7076360099999999
   690   1      4.3114042499999998      23.769677309999999      8.6373137199999999
   691   1              8.09300219      27.918487450000001              9.24377827
   692   1      10.110475109999999      26.797259570000001      8.3336607699999998
   693   1      16.056770849999999      23.573904949999999      8.1723798100000007
   694   1      18.195500500000001              19.7814619              8.39290804
   695   1      24.079398380000001             23.36580871      8.2999336400000008
   696   1      28.188301110000001      23.584475279999999      8.4706360000000007
   697   1      4.0269818400000004              2.28756695              8.13179987
   698   1      6.9525524000000001             24.32471254      8.9177345599999995
   699   1      20.463600240000002      23.528161310000002      8.2840381700000005
   700   1             16.34159417             21.18520504      9.0890118399999995
   701   1             18.08019887      26.880042670000002      8.3470133000000004
   702   1             19.92853375   -0.011452250000000001              9.15378501
   703   1             26.10307018      27.009759880000001      8.2463241499999995
   704   1      30.354460530000001      27.077510669999999      8.4130474799999995
   705   1      2.1367518400000001              3.43109178      9.2017208299999993
   706   1      10.055930610000001              1.11099657      9.9110754199999995
   707   1      13.899091950000001              3.53535508      9.1895277699999998
   708   1             14.06481134             24.78193886      9.0545379300000004
   709   1             18.19468161      24.433704479999999      8.9452257700000004
   710   1             20.05987863      21.095057919999999      9.1459036900000008
   711   1      28.217723939999999      28.319914529999998      9.2292467299999998
   712   1      32.519347359999998             26.93494141      9.5134189500000002
   713   1      32.380182689999998      2.3682341899999999      8.2610186799999994
   714   1    -0.24675067000000001             23.38459757      8.2019678099999993
   715   1      30.052716019999998      24.767398180000001      9.1183564399999995
   716   1             13.96951827      5.8568034999999998      8.3934193199999996
   717   1      24.083401500000001      28.005923330000002      9.1272627100000001
   718   1      24.211731400000001              2.72090532      8.2875793699999996
   719   1             28.11709411      8.9235047200000004      8.4173465699999994
   720   1      30.212170570000001      5.8898160300000004      8.3463990500000005
   721   1      2.0990807500000002             10.61594243      9.1448912399999998
   722   1      9.9007107300000001             10.61568497      8.8357338300000006
   723   1      6.0609833000000002      5.9383858800000002      8.0304554899999996
   724   1      7.9178323600000002      5.1361001499999999      9.7643705900000004
   725   1      9.9492107399999998      5.9992939600000001      8.2576481099999999
   726   1             15.92446711              6.94581216              8.86710083
   727   1      16.160670629999998      2.9747827299999998      8.5140490599999996
   728   1      30.141686450000002             10.37449713      9.1035494799999999
   729   1      30.392802889999999             12.97024291      8.3642408199999991
   730   1      7.9845369699999997      2.4554027899999999      8.3748160299999999
   731   1      16.180248469999999      9.4351459700000007      8.1628734699999992
   732   1      17.661765769999999      10.824946819999999      9.0919893599999995
   733   1             16.39728165      14.140687420000001      8.9165761099999994
   734   1      30.412135450000001      3.5835787899999998      9.2167631500000002
   735   1      22.269248210000001      5.8963583100000001      8.2401135700000001
   736   1      4.1132809999999997      9.3503095399999996      8.0782220900000006
   737   1             28.33043924             18.87818961      10.026767420000001
   738   1   -0.086570649999999999      9.3949869600000007      8.3518934300000005
   739   1      12.048355409999999             13.80524499      9.1266353599999999
   740   1             14.09068587              13.0259535      8.0593477799999995
   741   1      20.279847589999999      14.107039049999999              8.92640323
   742   1      26.496088289999999      6.2099385299999996      8.5037904999999991
   743   1      22.438837280000001             12.88437092      8.3840898900000003
   744   1    0.066206009999999996      16.344235980000001      8.3530140999999993
   745   1      2.0409186199999998      17.939227030000001      9.2296676000000009
   746   1      4.0873995399999998             13.65762878      9.2899099100000004
   747   1      10.022948810000001      17.364006010000001      9.2300653100000005
   748   1      9.8529988100000008      19.780038300000001               8.4939187
   749   1      20.016607390000001      16.619154930000001      8.4150319699999994
   750   1             26.53847614             17.41125005      9.1807482599999997
   751   1      24.284855230000002             16.42142612      8.3825210499999994
   752   1              1.98735898      20.091349789999999      8.2156339900000006
   753   1      1.6921057799999999      22.355368500000001      9.3804310500000003
   754   1      8.4100881100000002             21.89832496      9.0633278900000001
   755   1      3.9359411299999998      21.106396610000001      8.9300935799999994
   756   1      9.6931978900000004             24.43020495      9.0311279100000004
   757   1      14.164747780000001      20.146016450000001      8.3878837199999996
   758   1      22.215151890000001      26.828483389999999      8.5516646699999992
   759   1             26.33166507             19.87075527      8.3476460100000001
   760   1      26.381013020000001      22.090386880000001      10.168147510000001
   761   1      6.1611556800000002             20.09189701      8.4031010399999992
   762   1      26.087977420000001             19.96616431      10.956683849999999
   763   1      4.0394046399999999    0.075851360000000007      8.8092353499999998
   764   1             14.01016439      27.068999250000001      8.2339597100000006
   765   1      12.044472649999999             23.42687136      8.3370534599999999
   766   1      19.806555320000001      2.4717151400000001      8.2011016300000001
   767   1      26.107352899999999      24.581799490000002      9.1937750699999992
   768   1      28.420549149999999      21.034564920000001      9.2065296399999994
   769   2      3.8096172199999998      17.937330410000001      9.3463583000000003
   770   2      4.7092474800000002      19.420456949999998      9.2840892200000003
