N2-dn2-coord-10bar/700K/snapshots/frame-65658/run-000/../data.lammps (written by ASE) 

770 	 atoms 
2  atom types
0.0      32.470343392086264  xlo xhi
0.0      28.120142247150884  ylo yhi
0.0      31.213473999158239  zlo zhi


Atoms 

     1   1      2.0293964600000001      1.1716090800000001    0.023552650000000001
     2   1      6.0880008999999999              1.17168918              0.02556874
     3   1      10.146952280000001              1.17170328    0.025416459999999998
     4   1      14.205754900000001      1.1716496700000001              0.02501565
     5   1             18.26456816              1.17166478              0.02504435
     6   1             22.32338141      1.1716496700000001              0.02501565
     7   1      26.382184030000001              1.17170328    0.025416459999999998
     8   1      30.441135410000001              1.17168918              0.02556874
     9   1  9.1780000000000006e-05      4.6866847900000002    0.025581599999999999
    10   1      4.0587011400000002      4.6866847900000002    0.025581599999999999
    11   1      8.1174961000000003      4.6866290399999997    0.025584639999999999
    12   1             12.17638011      4.6866852999999997              0.02491202
    13   1             16.23517979      4.6866942700000003    0.025006210000000001
    14   1      20.293956519999998      4.6866942700000003    0.025006210000000001
    15   1      24.352756209999999      4.6866852999999997              0.02491202
    16   1      28.411640219999999      4.6866290399999997    0.025584639999999999
    17   1      2.0293964600000001      8.2016395800000002    0.026613040000000001
    18   1      6.0881071599999999      8.2016314300000008              0.02543782
    19   1             10.14701835               8.2017045    0.025156850000000001
    20   1      14.205766049999999      8.2017080900000003    0.024990459999999999
    21   1             18.26456816      8.2017077599999997    0.025091249999999999
    22   1      22.323370260000001      8.2017080900000003    0.024990459999999999
    23   1      26.382117969999999               8.2017045    0.025156850000000001
    24   1      30.441029149999999      8.2016314300000008              0.02543782
    25   1  9.2789999999999998e-05             11.71671873    0.025573410000000001
    26   1              4.05870014             11.71671873    0.025573410000000001
    27   1      8.1176017700000003             11.71668698              0.02497914
    28   1             12.17637068             11.71673069    0.025001590000000001
    29   1      16.235177310000001      11.716730249999999    0.025074039999999999
    30   1      20.293959009999998      11.716730249999999    0.025074039999999999
    31   1      24.352765640000001             11.71673069    0.025001590000000001
    32   1      28.411534549999999             11.71668698              0.02497914
    33   1      2.0293964600000001             15.23167155              0.02525285
    34   1      6.0881728300000004      15.231678799999999    0.025062859999999999
    35   1             10.14698486      15.231762639999999               0.0250786
    36   1             14.20578841             15.23176782    0.025201990000000001
    37   1             18.26456816              15.2317707    0.025149979999999999
    38   1      22.323347900000002             15.23176782    0.025201990000000001
    39   1      26.382151459999999      15.231762639999999               0.0250786
    40   1      30.440963480000001      15.231678799999999    0.025062859999999999
    41   1      32.470327990000001      18.746748629999999    0.024951939999999999
    42   1      4.0588083299999997      18.746748629999999    0.024951939999999999
    43   1      8.1175770200000006      18.746803499999999    0.025222040000000001
    44   1             12.17637459      18.746799750000001    0.025428470000000002
    45   1      16.235159400000001      18.746805200000001    0.025487360000000001
    46   1      20.293976919999999      18.746805200000001    0.025487360000000001
    47   1      24.352761730000001      18.746799750000001    0.025428470000000002
    48   1             28.41155929      18.746803499999999    0.025222040000000001
    49   1      2.0293964600000001      22.261939099999999    0.025844880000000001
    50   1      6.0881419299999999      22.261841799999999    0.025489439999999999
    51   1             10.14692954             22.26176895              0.02551757
    52   1             14.20573559      22.261804690000002    0.025639160000000001
    53   1             18.26456816             22.26178625    0.025640119999999999
    54   1      22.323400729999999      22.261804690000002    0.025639160000000001
    55   1      26.382206780000001             22.26176895              0.02551757
    56   1             30.44099439      22.261841799999999    0.025489439999999999
    57   1  5.6450000000000003e-05      25.776936450000001              0.02613327
    58   1      4.0587364700000004      25.776936450000001              0.02613327
    59   1      8.1175325399999991              25.7767713    0.024734180000000001
    60   1      12.176376469999999      25.776831090000002              0.02545323
    61   1      16.235145939999999      25.776775220000001    0.025273360000000002
    62   1             20.29399038      25.776775220000001    0.025273360000000002
    63   1      24.352759840000001      25.776831090000002              0.02545323
    64   1      28.411603769999999              25.7767713    0.024734180000000001
    65   1  0.00024266000000000001              2.34304215     0.80166565000000001
    66   1      4.0585502699999996              2.34304215     0.80166565000000001
    67   1      8.1157394600000003              2.34454954     0.80169402000000001
    68   1             12.17601256      2.3433829099999999     0.80116898000000003
    69   1      16.235258170000002      2.3433209100000001     0.80090046999999998
    70   1      20.293878150000001      2.3433209100000001     0.80090046999999998
    71   1      24.353123750000002      2.3433829099999999     0.80116898000000003
    72   1      28.413396859999999              2.34454954     0.80169402000000001
    73   1      2.0293964600000001      5.8582218700000004     0.80119762000000005
    74   1      6.0870566899999998      5.8583336700000004              0.80194851
    75   1             10.14649655              5.85853131     0.80121584000000001
    76   1             14.20597894      5.8582938599999999     0.80086840999999998
    77   1             18.26456816      5.8583798500000004               0.8010794
    78   1      22.323157380000001      5.8582938599999999     0.80086840999999998
    79   1             26.38263976              5.85853131     0.80121584000000001
    80   1      30.442079629999999      5.8583336700000004              0.80194851
    81   1  0.00019438999999999999      9.3717771800000005     0.80082061000000004
    82   1      4.0585985400000002      9.3717771800000005     0.80082061000000004
    83   1      8.1175070500000004      9.3725002699999997     0.80149060999999999
    84   1      12.176590020000001      9.3733583399999993     0.80088261999999999
    85   1             16.23512199      9.3733789200000004              0.80106506
    86   1             20.29401433      9.3733789200000004              0.80106506
    87   1      24.352546289999999      9.3733583399999993     0.80088261999999999
    88   1      28.411629269999999      9.3725002699999997     0.80149060999999999
    89   1      2.0293964600000001             12.88692854     0.80220621000000003
    90   1      6.0883212999999996             12.88743848     0.80138414999999996
    91   1      10.147128609999999             12.88859852     0.80085256000000005
    92   1             14.20571782      12.888558189999999     0.80113791000000001
    93   1             18.26456816      12.888409899999999     0.80109381000000002
    94   1      22.323418490000002      12.888558189999999     0.80113791000000001
    95   1             26.38200771             12.88859852     0.80085256000000005
    96   1      30.440815019999999             12.88743848     0.80138414999999996
    97   1              0.00012365      16.403222639999999     0.80145666999999998
    98   1      4.0586692700000002      16.403222639999999     0.80145666999999998
    99   1      8.1174337899999998      16.403825260000001     0.80097196999999998
   100   1              12.1761021             16.40390721     0.80133072000000005
   101   1             16.23503496      16.403861750000001     0.80140014999999998
   102   1      20.294101359999999      16.403861750000001     0.80140014999999998
   103   1      24.353034220000001             16.40390721     0.80133072000000005
   104   1      28.411702529999999      16.403825260000001     0.80097196999999998
   105   1      2.0293964600000001      19.919205120000001     0.80066369999999998
   106   1              6.08752564             19.91894023     0.80122479000000002
   107   1      10.146078839999999             19.91919038     0.80159137999999996
   108   1      14.204993419999999              19.9192584     0.80178742000000003
   109   1             18.26456816      19.919377350000001     0.80194975999999996
   110   1      22.324142899999998              19.9192584     0.80178742000000003
   111   1      26.383057470000001             19.91919038     0.80159137999999996
   112   1      30.441610669999999             19.91894023     0.80122479000000002
   113   1              0.00142012      23.434536609999999     0.80178442000000005
   114   1      4.0573728100000004      23.434536609999999     0.80178442000000005
   115   1      8.1165862000000004      23.433936769999999     0.80182306000000003
   116   1             12.17555218      23.433996919999998     0.80156656000000004
   117   1             16.23465491      23.434040110000002     0.80170828999999999
   118   1      20.294481409999999      23.434040110000002     0.80170828999999999
   119   1      24.353584130000002      23.433996919999998     0.80156656000000004
   120   1      28.412550110000002      23.433936769999999     0.80182306000000003
   121   1      2.0293964600000001      26.949875330000001              0.80297246
   122   1      6.0858208300000003      26.950066320000001              0.80215291
   123   1             10.14598146      26.949241430000001     0.80165810000000004
   124   1             14.20520604      26.948673230000001     0.80131923999999999
   125   1             18.26456816             26.94858318     0.80108193999999999
   126   1      22.323930279999999      26.948673230000001     0.80131923999999999
   127   1      26.383154860000001      26.949241430000001     0.80165810000000004
   128   1             30.44331549      26.950066320000001              0.80215291
   129   1  -0.0052407900000000004      27.981989710000001               1.4727128
   130   1      4.1158107599999996              0.11056073      1.5677687499999999
   131   1      8.2173339500000004    0.039950260000000001      1.5985360399999999
   132   1              12.1716312      28.103989259999999              1.54694072
   133   1      16.316818170000001    0.078760979999999994      1.5317168400000001
   134   1      20.362166139999999    0.067231310000000002              1.41594726
   135   1      24.342446200000001      27.969957050000001      1.6561591200000001
   136   1             28.52944888      28.168589650000001      1.3856238299999999
   137   1      1.9332950799999999      3.5661520599999998      1.5770031799999999
   138   1      5.9586639200000002      3.6049046599999999              1.33766458
   139   1      10.172133540000001      3.3787643300000001      1.5677523799999999
   140   1             14.14033478              3.48818479              1.44427292
   141   1             18.13402146      3.4015791399999999      1.4051289899999999
   142   1      22.340683299999998      3.6143675700000002      1.3617583099999999
   143   1              26.4289089      3.4458926700000001      1.4820344999999999
   144   1      30.494835930000001      3.5357452299999999      1.6522811100000001
   145   1     0.18114493000000001      6.9285437999999999      1.5117522999999999
   146   1      4.0274891300000002      7.1220551499999996      1.6108861299999999
   147   1      8.0928485299999995              6.86826325              1.36999472
   148   1      12.207711010000001      6.9892819499999996              1.51597428
   149   1      16.203236130000001      6.8306877899999998      1.5930692099999999
   150   1      20.199529290000001      6.8971640499999998              1.65099237
   151   1             24.33740324      6.8982765600000002      1.4858140799999999
   152   1      28.487460169999999      6.9483334799999996              1.63350704
   153   1      1.9502508199999999             10.48845648              1.64334684
   154   1      5.9219146800000004      10.539621240000001      1.4593117499999999
   155   1             10.27145786      10.569203099999999      1.6153508599999999
   156   1             14.24148016             10.68560474      1.6295042399999999
   157   1      18.190315550000001      10.651409510000001              1.61931001
   158   1              22.5267281      10.646450870000001              1.48941963
   159   1      26.488772749999999      10.683120840000001      1.6533128699999999
   160   1      30.415976109999999             10.55415178              1.39221007
   161   1     0.21009504000000001      14.101275469999999      1.4879435400000001
   162   1      4.0933561599999999             14.03171678      1.4430046299999999
   163   1      8.1738921100000006      14.073730899999999      1.2884817099999999
   164   1      12.131574260000001             13.86663677              1.52939972
   165   1             16.14823638      14.229747980000001              1.50042027
   166   1      20.389370509999999             13.95491912      1.4129579699999999
   167   1      24.282864310000001             14.03368534      1.3084530999999999
   168   1      28.443892290000001             13.98163392              1.42252421
   169   1      2.0413168700000002      17.712872019999999      1.4300131199999999
   170   1      5.9914360000000002      17.554494529999999      1.5233044899999999
   171   1      10.184004209999999      17.617437509999998      1.4016958399999999
   172   1             14.09063139      17.616925129999998              1.57721914
   173   1      18.135817200000002      17.564305059999999              1.46951696
   174   1      22.109156819999999      17.572033990000001      1.2774260200000001
   175   1      26.475480189999999      17.433545240000001              1.58322224
   176   1      30.651995450000001      17.691384469999999      1.4112174200000001
   177   1   -0.051894620000000002      21.061089729999999               1.2511142
   178   1      3.9673925200000002             21.10086613               1.7182085
   179   1      8.1586108999999993             21.04846976      1.2973930499999999
   180   1             12.03272391      20.965512960000002      1.4198590099999999
   181   1      16.294965009999999      21.108193119999999              1.39403239
   182   1             20.32665613             21.10779909      1.4066481799999999
   183   1      24.411477349999998      20.980458680000002               1.6916026
   184   1      28.406341659999999             21.10650034      1.3245422600000001
   185   1      1.9649340099999999             24.56256071      1.2401887199999999
   186   1      6.1859259800000004             24.63320654              1.39509985
   187   1             10.22932076      24.593830780000001      1.3990852300000001
   188   1      14.332609010000001      24.565711400000001              1.59574338
   189   1      18.309541899999999      24.618861339999999      1.4114475200000001
   190   1      22.304448499999999      24.599643799999999      1.5237177200000001
   191   1             26.49165266      24.859810660000001      1.6043729900000001
   192   1      30.414704530000002      24.513930030000001              1.32342056
   193   1      1.9953787300000001      1.1603133800000001      2.4269691600000001
   194   1      6.1807798600000003      1.2410063499999999              2.40826209
   195   1             10.31597129      1.1853109500000001      2.3171791399999999
   196   1      14.321962429999999      1.0139910400000001      2.4758361899999999
   197   1              18.2961198              1.03252148      2.4346201999999999
   198   1              22.3528637              1.14806454      2.5414951700000001
   199   1      26.426636349999999     0.90851623000000004      2.5716247499999998
   200   1      30.352352979999999              1.22042859      2.4888970499999998
   201   1             -0.04692901      4.7012922499999998              2.45760742
   202   1      3.8786795000000001      4.6288226899999998               2.3825995
   203   1      8.0758203500000008      4.4407486199999999      2.2807166099999998
   204   1      12.256539760000001      4.6342683300000003              2.46982803
   205   1      16.214751360000001              4.48059195      2.3767714400000002
   206   1      20.331912079999999      4.6201239200000002              2.38497855
   207   1             24.40886192      4.5690906900000003      2.4225135400000002
   208   1      28.345038899999999      4.5713615499999998      2.4720571800000002
   209   1              2.03507222      8.1811167099999995              2.41030649
   210   1              6.17711393      8.2003014600000004      2.2539474300000002
   211   1      10.137715930000001      8.1499932499999996      2.3984083699999998
   212   1             14.32504999      8.3757661100000007      2.3252021900000002
   213   1      18.229206139999999      8.1526009199999994              2.37854068
   214   1      22.268515300000001      8.1498130900000003      2.3636022900000002
   215   1      26.412963090000002      8.1386476000000005      2.3544303800000002
   216   1      30.480831819999999      8.1637438099999997              2.25001512
   217   1      32.623959020000001      11.695771430000001      2.4451585300000001
   218   1      3.8736933499999999      11.703945409999999      2.4513833300000001
   219   1      7.9632656199999996      11.528646459999999      2.4584485599999999
   220   1             12.22476575      11.696858499999999      2.4728844799999998
   221   1      16.264976749999999             11.86475538              2.50930651
   222   1             20.31554216      11.705323659999999               2.3763592
   223   1      24.464125169999999      11.870879459999999      2.3871575100000002
   224   1             28.48284168             11.67092605              2.41820323
   225   1              2.10832636      15.372546890000001      2.3344810300000001
   226   1      6.1104310999999996             15.08372073      2.3365357200000001
   227   1             10.18668581             15.18617046              2.33225762
   228   1             14.08463953             15.14417839      2.5788243300000002
   229   1             18.27752293      15.239837870000001              2.35340719
   230   1      22.539250249999998             15.21324881      2.2914723100000001
   231   1      26.394950940000001      15.091297750000001      2.4967570800000001
   232   1             30.67480183             15.12168947              2.34827377
   233   1     0.27366791000000001      18.890603559999999      2.5343804699999999
   234   1      4.1641062499999997             18.66415778              2.43510976
   235   1      8.0473458999999998      18.628345849999999      2.3871904700000002
   236   1      12.113560489999999      18.793241500000001      2.4087127399999999
   237   1             16.08870649      18.733189060000001      2.4081101600000001
   238   1             20.09293431             18.73027901      2.4044999800000002
   239   1      24.270409520000001      18.788044249999999              2.28821618
   240   1             28.63525886      18.564766540000001      2.5976014599999999
   241   1      1.9044747399999999             22.20675327      2.4777857999999999
   242   1      6.2295687500000003      22.263423400000001      2.3662263299999999
   243   1             10.10888901             22.09731434              2.64376883
   244   1             14.15321196      22.271631039999999      2.3842584599999999
   245   1      18.148098770000001             22.27137226      2.4329900499999999
   246   1      22.393936199999999      22.150914060000002               2.5330146
   247   1      26.466801520000001      22.040002520000002      2.5347755599999999
   248   1      30.441459869999999      22.183689869999998      2.3821103400000001
   249   1      32.315313340000003              25.8226911      2.3564723299999999
   250   1      3.9192613000000001      25.787580250000001      2.2702371499999998
   251   1      8.0402364399999993      25.934630240000001      2.4496198599999999
   252   1      12.348701760000001      25.826483540000002              2.33234751
   253   1             16.32706318      25.797120540000002      2.2122812199999999
   254   1      20.291040840000001      25.609470210000001      2.3367108999999999
   255   1      24.301022750000001             25.49917503      2.4617304999999998
   256   1      28.403020810000001      25.877561759999999      2.3850009000000001
   257   1      32.478554219999999      2.4547163200000002               3.3175477
   258   1              3.99815561      2.3886035099999998      3.3036012000000001
   259   1      8.2313298800000005      2.1466416000000001      3.4248652000000002
   260   1              12.4258799      2.2296477800000001      3.2940357100000002
   261   1      16.363048370000001      2.0829324900000001      3.2945436899999998
   262   1             20.31153956              2.34390448      3.2228192999999998
   263   1             24.39486402      2.2790434899999998              3.20663264
   264   1      28.320972130000001              2.27840161      3.3158378800000001
   265   1      2.0856181199999999      5.8765461999999999      3.3033354799999999
   266   1              6.17057813      5.6965732100000004      3.2143837500000001
   267   1      10.284413860000001      5.7156791800000004      3.2048527500000001
   268   1             14.36115524              5.86951014              3.17942977
   269   1      18.182024770000002              5.73567713      3.1726659399999999
   270   1      22.397252890000001      5.8361511999999998              3.40011894
   271   1      26.426412490000001      5.9695904899999999      3.2947900899999998
   272   1             30.47615789      5.8824721699999998      3.3174117299999999
   273   1      32.272062759999997      9.3168723199999999      3.4615390399999999
   274   1      4.1833636700000003      9.3323389100000007      3.3598374899999999
   275   1      8.2003449699999997              9.24167016      3.2840741000000002
   276   1      12.243391819999999      9.2600672500000005      3.3142970100000002
   277   1      16.282831229999999      9.3861090899999997      3.2146652699999998
   278   1             20.27739257      9.2861636300000008      3.2112092400000001
   279   1      24.289950910000002      9.3588028699999999      3.2175790000000002
   280   1             28.44181232      9.1891596700000004      3.2338734499999999
   281   1      1.8490200299999999             12.93164221      3.2586978700000002
   282   1      6.0546784499999999              12.7208469      3.2483914999999999
   283   1      10.163587189999999      12.781158319999999      3.4476528100000001
   284   1      14.187101009999999      12.840444229999999              3.38418741
   285   1      18.297970750000001             13.08846198      3.2364633600000001
   286   1      22.377433719999999             12.85611636      3.1764659100000001
   287   1      26.470028620000001             12.74069907      3.3854005800000002
   288   1      30.501695120000001      12.921160179999999      3.3595237899999999
   289   1              0.10198011      16.324939329999999      3.2368478600000001
   290   1              4.18216959      16.341077429999999              3.11920675
   291   1      8.0526904699999999      16.312238990000001              3.25459509
   292   1      11.981493029999999      16.651280369999998      3.3057679100000001
   293   1      16.092054470000001             16.52326566      3.2672534199999999
   294   1             20.27955893             16.26750316      3.2256841000000001
   295   1      24.339714499999999             16.44781601              3.29806036
   296   1             28.52161302      16.353414099999998              3.37135681
   297   1      2.2608059100000002      19.880422459999998      3.2485487800000001
   298   1      6.0499606899999998      19.976190169999999      3.2673077300000002
   299   1      9.9893553500000003             19.83075449      3.3590526700000001
   300   1      14.136139930000001      20.005724399999998      3.1284704900000002
   301   1             18.18766905             19.98423249      3.2334212400000002
   302   1      22.069263719999999      19.730062449999998      3.2464255899999999
   303   1      26.453964460000002      19.683879839999999      3.1644959199999998
   304   1      30.658052059999999             19.90517547      3.4095860899999999
   305   1      32.402855049999999      23.353531060000002               3.1862697
   306   1      4.1636644599999997      23.362731419999999              3.29337576
   307   1      8.0593128800000002      23.483215399999999      3.3693602999999999
   308   1      12.190798559999999             23.39538958      3.2924797099999998
   309   1      16.102665080000001             23.41806893      3.1932884600000002
   310   1             20.39607462      23.236740919999999      3.2685018000000001
   311   1      24.361835299999999      23.287682480000001      3.4077912800000001
   312   1      28.419887110000001      23.357659439999999      3.2771442300000002
   313   1      1.9384063600000001      26.887477879999999              3.42669574
   314   1      6.0174734799999996      26.950688280000001              3.19855051
   315   1             10.15620777              27.0100713      3.1658125300000002
   316   1      14.342062609999999      26.832876200000001              3.06696181
   317   1      18.281687470000001      26.972703370000001      3.1826617499999998
   318   1      22.274613930000001      26.907806480000001              3.34607403
   319   1      26.395783389999998             26.92467491              3.36941501
   320   1             30.54596197             26.96083118      3.3899851999999999
   321   1      32.325433689999997      28.154959819999998      4.0031597200000002
   322   1      4.0350403699999999    -0.26203749999999998      4.2380737599999998
   323   1              7.83454432             28.17720774      4.1613285600000003
   324   1             12.20061703             28.04214258      3.9252932500000002
   325   1      16.299977089999999      28.102722780000001      4.2205410299999997
   326   1      20.320671959999999             28.17456451      4.1741301200000001
   327   1      24.368051139999999      28.123847699999999      4.0812220000000003
   328   1              28.4348171      28.018505019999999      4.2000481199999999
   329   1      2.2481708199999999              3.63185271      4.1373892300000001
   330   1      6.2531874399999996      3.5709061700000002      4.0554326400000003
   331   1             10.39434144                3.395842              3.98766007
   332   1      14.427921469999999      3.4845545800000002      4.0760696699999999
   333   1             18.16994991      3.5152776299999999      4.0285882400000004
   334   1      22.445038199999999              3.68112248      4.1746844000000003
   335   1      26.389439750000001              3.67721505      4.1135703299999999
   336   1             30.44116837      3.4325132599999999      4.2636649200000001
   337   1    0.090327039999999997              6.84371975      4.1278792500000003
   338   1      4.3019241399999997      6.9841042399999997      4.1821155900000004
   339   1      8.1907481600000001      6.8145634099999999      3.9329335099999998
   340   1      12.368394220000001      7.0168517100000001      4.0683476799999996
   341   1      16.300387529999998      6.9631168199999998      4.0268811800000002
   342   1             20.20385331      7.1218487699999997      4.2560427599999997
   343   1      24.459108029999999      7.0017057400000002      4.0650795300000002
   344   1      28.560481280000001      6.9532808499999996      4.1205999200000001
   345   1      1.9961242100000001             10.51533779      4.0731894999999998
   346   1      6.1633443799999998             10.48744437      4.0612908499999998
   347   1      10.198243400000001      10.448075960000001      4.0106909000000002
   348   1             14.40082894             10.49073656      4.1234770699999999
   349   1             18.31460847      10.549455890000001      4.0538434700000003
   350   1      22.247883030000001             10.46219835      4.1607720800000001
   351   1      26.492428919999998      10.460523090000001      4.1031142599999999
   352   1      30.325272389999999      10.667194780000001      4.1604892400000004
   353   1      32.488224410000001      14.053707920000001              4.25667536
   354   1      4.2309850999999998             13.96183583      3.9681062800000002
   355   1      8.0406844399999997             13.99496231      3.9724149500000001
   356   1             12.29517778              14.1637217      4.0765540800000002
   357   1             16.26313128             14.13602478      3.9821243200000001
   358   1      20.224590549999999      14.170166500000001      3.9574133699999998
   359   1             24.39134357             14.19557962      4.1798352300000001
   360   1              28.4211065      14.094259859999999      4.2939873500000001
   361   1              2.23975546             17.55329871      4.1630744100000001
   362   1      6.2716545699999999      17.610086419999998      4.0869321999999997
   363   1             10.04424528             17.73025822      4.2740899700000003
   364   1             14.10408035      17.557325240000001      4.2549499500000003
   365   1              18.2980962      17.520658439999998      4.0175989799999998
   366   1      22.293375709999999      17.527956490000001      4.1233837400000004
   367   1      26.285248129999999      17.428861919999999      4.0928792500000002
   368   1             30.62069456              17.5065907      4.2319199000000003
   369   1              0.18199203      21.034169720000001              4.07466069
   370   1      4.1574413000000003      21.024585909999999              4.15323508
   371   1              8.14531165             21.26683873      3.9284478599999999
   372   1      12.088317269999999      21.152736520000001              4.21963256
   373   1             16.11415585             21.17302849      3.9785452600000002
   374   1      20.232429289999999             20.99502176      4.2513390400000004
   375   1      24.438213579999999      20.959320949999999      4.1965773500000001
   376   1      28.508249559999999      20.975108209999998      4.2279023699999998
   377   1      2.0354321199999998      24.355577360000002      3.8797832099999998
   378   1      6.1161702299999998      24.627171239999999      3.9262339399999999
   379   1      10.119752050000001      24.717295660000001      4.0543531499999999
   380   1      14.167044089999999              24.7383937      4.1348791900000004
   381   1      18.368985779999999      24.602780899999999              3.86819618
   382   1      22.291189859999999      24.433243439999998      4.1369585000000004
   383   1             26.51642575             24.50495596      4.0216158000000002
   384   1      30.498474130000002             24.51674714      3.9960265000000001
   385   1      2.0017781000000001      1.1533169700000001      4.9347203400000001
   386   1      6.0068067999999997      1.2430329899999999              4.82317515
   387   1             10.03878465      1.2313732500000001               4.9029482
   388   1      14.273429119999999      1.1913489500000001      4.9705199799999997
   389   1             18.15173055      1.2953954000000001      5.0868770200000002
   390   1      22.169901159999998              1.16417237      5.2344774999999997
   391   1      26.237600319999999      1.2189968499999999      4.9889838400000004
   392   1      30.342371490000001      1.0925266499999999      5.0328821899999996
   393   1             -0.06448363      4.6217334799999996      4.9025555799999996
   394   1      4.3011839600000004      4.7452155500000002      4.8778196700000001
   395   1      8.4313612800000008      4.5902545799999999              5.03824147
   396   1             12.38224928      4.5176312000000003      5.1121396299999997
   397   1             16.35116433      4.6024524199999997      4.9691756500000004
   398   1      20.379675670000001      4.7835581500000002      5.0787082899999998
   399   1      24.421760509999999      4.5388935999999998      4.8269841900000001
   400   1             28.43371943      4.4980873199999998      5.1134447200000004
   401   1              2.26331449      8.1256188900000001      4.9808025599999999
   402   1      6.3323984500000003      8.1484211900000005      4.9773226599999996
   403   1             10.23689493      8.1829530599999991      4.9432522399999996
   404   1             14.33279628      8.1232032400000005      4.9369669500000004
   405   1      18.229498079999999      8.3393411299999993      4.8430829900000001
   406   1      22.335542100000001      8.1293992399999997      4.9932088200000004
   407   1             26.31167262      8.1997404700000001      4.9091934899999998
   408   1      30.450798200000001              8.07159139      4.8253067100000004
   409   1      32.398117419999998      11.712084369999999      4.8639277200000004
   410   1      4.1355867499999999      11.573297309999999      4.7806616499999999
   411   1      8.1778337899999993             11.77210275      5.0133245899999999
   412   1      12.199725409999999      11.639220460000001      4.8197293700000001
   413   1      16.223043189999999      11.846799880000001      5.1466375500000003
   414   1      20.412276680000002      11.580016840000001              4.93151648
   415   1      24.371907029999999      11.628883070000001      5.0026070599999999
   416   1      28.429390850000001      11.739987510000001      5.1250504799999996
   417   1              1.80832182             15.21088896      5.0263188300000001
   418   1      6.1467996300000003              15.3773629      4.8404562699999998
   419   1             10.06051092             15.14078802      4.9923778099999998
   420   1             14.18762274             15.19205633              4.99262213
   421   1      18.236454460000001      15.285816560000001      4.9358931300000002
   422   1             22.28072306             15.17650572      4.9032930099999996
   423   1             26.31268807             15.04049979      4.9340023799999999
   424   1      30.466443420000001      15.189379089999999      5.1092315099999999
   425   1     0.21891873000000001             18.75475848      4.9337339299999998
   426   1      4.2228447999999998      18.807805519999999      4.9593724999999997
   427   1      8.0676078199999992      18.998308510000001      5.1073806299999998
   428   1      12.085453210000001      18.924452899999999      5.1254330100000001
   429   1             16.31482398             18.90748314      4.7137193699999997
   430   1             20.17228098      18.709105959999999      4.8744635499999998
   431   1             24.35399224      18.657814030000001      4.9496350400000004
   432   1      28.486068360000001      18.702932489999998      5.0276173200000001
   433   1      2.1226504199999998      22.082292079999998      4.9004363900000003
   434   1      6.1400461000000002      22.360386349999999      4.8742633499999997
   435   1             10.17101313             22.36132735      5.1232304600000003
   436   1             14.16375442      22.294552410000001      4.9029585000000004
   437   1      18.221430649999999      22.309954319999999      4.8840532100000003
   438   1      22.301916569999999      22.156529330000001              5.00422923
   439   1      26.379151050000001      22.268501400000002      4.9993789499999997
   440   1      30.602863889999998      22.382382150000002      5.0378926399999999
   441   1    -0.21260259000000001              25.6412093      4.8842147300000001
   442   1      4.1250124100000001             25.63866999      4.7929599899999999
   443   1      8.0792074199999995             25.95659599              4.83826131
   444   1             12.10238053      25.869030970000001      4.6966482200000002
   445   1      16.423938119999999      25.784782870000001      4.7961510699999996
   446   1             20.26789638      25.634685990000001      4.8269233099999997
   447   1      24.285207719999999      25.771442700000001      4.9777847299999998
   448   1      28.482626620000001             25.66338086      5.0735061100000003
   449   1      32.421970039999998              2.25038362      5.8137148500000002
   450   1      4.1019894199999998              2.25209394      5.9237852200000001
   451   1      8.1356661399999997              2.19029834      5.9647018300000001
   452   1      12.316333200000001              2.16060176      5.6366056899999997
   453   1             16.29036816      2.2849097199999999              5.84294929
   454   1      20.134661950000002      2.4036537199999999              5.78607417
   455   1             24.25738196      2.2192996900000002      5.9069330799999999
   456   1      28.267313000000001              2.17217701      5.6742673400000001
   457   1      2.1019430400000001      5.7135995399999997      5.7782982599999997
   458   1      6.2242066400000002      5.8027477899999997      5.6585072399999996
   459   1      10.183306679999999      5.8721536700000003      5.7266711499999996
   460   1      14.401843299999999      5.8578138800000001      5.7136566100000001
   461   1      18.299249790000001      5.9054191200000004      5.7876278699999997
   462   1      22.314775399999998              5.81007871      6.3239877800000004
   463   1      26.559075419999999      5.8129354400000004      5.8425828800000001
   464   1      30.650744759999998      5.6153659200000003      5.8900112099999999
   465   1     0.12327962000000001      9.2821541700000001      5.6966896199999999
   466   1      4.1572770600000002      9.4333765300000003      5.8243015099999997
   467   1              8.14095032      9.4405907300000003      5.8504027499999998
   468   1             12.24756548      9.3761831000000004      5.8879772499999996
   469   1      16.317823969999999      9.6742623900000009      5.9105767900000004
   470   1      20.195130370000001      9.4909254999999995      5.6896268900000004
   471   1              24.3349014      9.2699316199999995      5.7844572100000002
   472   1      28.476586279999999      9.2591513699999997      5.9921622499999998
   473   1      2.1810287399999999             12.83595895      5.6328691700000002
   474   1      6.1011000199999996      13.011978190000001      5.7587033099999996
   475   1      10.326187239999999             12.82359522      5.7412107900000002
   476   1      14.194298330000001             12.74873775      6.0077292900000003
   477   1      18.389340520000001             12.93006136      5.7239878700000002
   478   1      22.589135750000001             12.84313098      5.8073855999999999
   479   1      26.362375190000002      12.897600199999999      5.9609357000000003
   480   1      30.548737970000001      12.955441820000001      5.8462054999999999
   481   1    -0.10339487999999999             16.52862717              5.85963425
   482   1      4.1951159000000002      16.456579040000001      5.6083464699999999
   483   1      8.1894295100000001      16.500620810000001               5.7684837
   484   1             12.10718642      16.489758590000001      5.9487580199999996
   485   1      16.000377929999999      16.475890190000001      5.7027583000000002
   486   1             20.19093998      16.418863080000001      5.5809485299999997
   487   1      24.362686050000001      16.399849029999999      5.6955465299999997
   488   1             28.54659453      16.284017590000001      5.9818010499999996
   489   1              2.30195792      19.876668479999999              5.87340543
   490   1      6.1719560800000002      20.206862690000001      5.9233166700000002
   491   1             10.25584789      20.144878330000001      6.0373988399999998
   492   1      14.125268849999999      19.839205320000001      5.7865087300000004
   493   1             18.18654518      19.925285179999999      5.6771558000000004
   494   1             22.32906152      19.905702789999999      5.7932701700000004
   495   1      26.417536559999999             19.80066514      5.8130375799999996
   496   1      30.537404680000002      19.863538269999999      5.8704813299999996
   497   1     0.18039279999999999      23.503475779999999      5.6692381599999999
   498   1      4.0573782500000002             23.47021702      5.7185140199999998
   499   1      8.1208459299999998      23.552997120000001      5.7492769299999997
   500   1      12.347355990000001             23.62769772      5.7410607300000001
   501   1      16.339337279999999      23.498687700000001      5.8473587900000004
   502   1              20.2954142             23.39027802      5.8219987800000004
   503   1             24.30917475             23.36787893      5.8997246900000002
   504   1      28.426684760000001             23.31930315      5.8323263299999999
   505   1      1.9213798799999999      26.906515379999998      5.6961768499999996
   506   1      6.0685446799999996             27.06621694              5.78156348
   507   1             10.28691882      26.981532690000002      5.7011243199999999
   508   1             14.16125327      26.774583029999999      5.6177931399999999
   509   1      18.386959659999999             26.97983868      5.7839568999999997
   510   1      22.289845490000001             26.84889016      5.9514934999999998
   511   1      26.237658079999999      27.045886830000001      5.7370158800000004
   512   1             30.28413733      27.014937159999999      6.1309690200000002
   513   1   -0.064338080000000006             28.11154964      6.4852000399999996
   514   1              4.19500736   -0.065124409999999994      7.0703892399999999
   515   1      8.1146280799999992             -0.14148004      6.5122993600000001
   516   1             12.22133161   -0.045109929999999999      6.5551250100000003
   517   1      16.254400260000001             27.97335884      6.6803002999999999
   518   1      20.334714429999998     0.19747007999999999      6.9331083800000002
   519   1      24.297164510000002      28.165049060000001      6.5955372099999998
   520   1             28.21996377              28.0716064      6.6279603500000004
   521   1              2.15701315      3.3692110799999999      6.8073265799999998
   522   1      6.1911408300000002      3.6370261099999999      6.8818455700000003
   523   1      10.405892209999999              3.63092777      6.6532871299999998
   524   1             14.26564889      3.6290298499999998      6.5173854100000002
   525   1      18.193729340000001              3.58331841      6.5507417300000004
   526   1      22.260710230000001      3.5538368899999999      6.5874079200000004
   527   1             26.27349907      3.4727993399999999      6.7552999800000002
   528   1      30.288967419999999      3.3848447199999998      6.7961990400000003
   529   1    0.058392550000000001      6.8763474699999998      6.4471012200000004
   530   1      4.0924851999999996      6.8762168199999998      6.6562989799999999
   531   1      8.2225827299999992      6.9739217699999996              6.65766116
   532   1      12.243097430000001      7.0605098899999996      6.5048992400000003
   533   1      16.169192800000001      7.3827169499999998      6.7221380399999999
   534   1      20.317641989999998      7.2681581599999996              6.73786972
   535   1      24.567762999999999      7.0064568300000003      6.4152657099999999
   536   1      28.627588809999999      6.8314619600000004      6.5014871300000001
   537   1              2.16275737             10.62819526      6.6712528300000002
   538   1      6.0694189500000002      10.608740060000001              6.75349865
   539   1      10.135017360000001             10.54205084              6.75607004
   540   1      14.211915530000001             10.57977556      6.8781624399999997
   541   1              18.4057143      10.599260709999999      6.8054013800000002
   542   1      22.469246590000001             10.54263104      6.6569476999999999
   543   1      26.364699300000002              10.6397049      6.6301834199999998
   544   1      30.292574370000001             10.58812324      6.7275052500000001
   545   1  -0.0088885700000000002      14.245620690000001      6.7228845899999996
   546   1              3.92113683             14.11650933      6.5556776799999996
   547   1              8.04836171      14.123972719999999      6.6197875499999999
   548   1      12.108504269999999      14.171375940000001      6.9185261699999998
   549   1             16.43751404               14.210571               6.5021749
   550   1      20.408444620000001      14.101941569999999      6.4227791400000003
   551   1      24.488659599999998      14.120516159999999      6.7743864699999996
   552   1             28.67241306      14.013959460000001      6.8152471300000004
   553   1      2.0307427100000002             17.64424271      6.7080929300000003
   554   1      6.2091319900000004      17.580764439999999      6.5295549700000004
   555   1      9.9518499499999997      17.800658380000002      6.8694281200000002
   556   1             14.00143139             17.59144247              6.70061353
   557   1             18.28571908      17.517843410000001      6.4228002000000002
   558   1             22.22475317             17.59646596      6.5840841399999999
   559   1             26.47689712      17.397396780000001      6.5532147099999998
   560   1      30.629189610000001             17.75052466      6.8102697299999999
   561   1             32.47823588      20.952929619999999      6.3721593600000004
   562   1      4.1190452000000004      21.203429230000001      6.6401904399999996
   563   1      8.0929888499999993      21.294893179999999      6.7157905199999997
   564   1      11.986356539999999      21.386028979999999              7.07440537
   565   1              16.2452477      21.244819830000001      6.5862998499999996
   566   1             20.35782713             21.34955832      6.8498732200000001
   567   1      24.337360530000002      20.992460520000002      6.6761769199999996
   568   1      28.380777689999999      20.792672230000001      6.9053670800000004
   569   1              2.02179815      24.679138309999999      6.4912184100000001
   570   1      6.2617881100000004      24.660650230000002      6.2168298100000001
   571   1             10.09102854             24.65161054      6.5772563100000001
   572   1      14.328198309999999             24.58659102      6.6882085299999998
   573   1             18.25284602      24.646158119999999      6.5888530599999999
   574   1      22.272104989999999             24.48301983      6.5754202800000003
   575   1             26.43608489             24.51371803      6.4968914900000003
   576   1      30.481138649999998      24.366885069999999      6.6138672700000001
   577   1      2.0042223199999998              1.01524641      7.4544802800000003
   578   1      6.2210042200000002      1.2200659599999999      8.0218439999999998
   579   1             10.32077262     0.98060864999999997      7.4631667500000001
   580   1             14.27646601      1.0319996199999999      7.4242859799999996
   581   1      18.265140649999999      1.3059775899999999      7.6409773699999999
   582   1      22.563145500000001      1.0461407899999999      7.6825352000000002
   583   1      26.257507870000001               1.2928651      7.5143797799999996
   584   1      30.366029149999999     0.96645172000000001      7.4457868200000004
   585   1      32.470259120000001      4.5232643399999999      7.5337001199999998
   586   1      4.0662714400000004      4.7539140599999996               7.4237183
   587   1      8.2988081900000008      4.7687613400000002      7.5391145699999997
   588   1             12.40089279      4.8023191199999999      7.8272897700000001
   589   1      16.460775699999999      4.8865575699999999              7.38967507
   590   1             20.36600885      4.8986251599999999              7.58491933
   591   1             24.36374155      4.5344936300000001      7.2766640200000001
   592   1      28.200131209999999      4.5168866599999999      7.7535182599999999
   593   1              2.07338632              7.85728049              7.41753763
   594   1      6.0195344000000004      8.2822789100000005      7.3719849899999996
   595   1      10.145404750000001      8.2348074800000006      7.5901162700000002
   596   1             14.10014329      8.2159361900000007      7.7034834500000002
   597   1      18.142475940000001      8.2991945699999992      7.2876207600000003
   598   1      22.385393390000001      8.1645463700000001      7.4042552800000001
   599   1      26.404189800000001      8.0663153699999999      7.4253565400000001
   600   1             30.68028443      8.1101436699999994      7.3923615700000003
   601   1      32.482833249999999              11.8443963      7.6021160700000001
   602   1      4.1516003599999998              11.9628306      7.4701225600000001
   603   1      8.0902508199999996      11.820306970000001      7.7025922800000002
   604   1             12.05400348             11.64631679      7.4138002500000004
   605   1      18.515239860000001      12.737160319999999      8.2446185500000002
   606   1      20.631268710000001             11.73836571      7.5848026500000003
   607   1             24.60050708             11.64777907      7.7739701400000003
   608   1      28.404203750000001             11.51005484      7.6696232899999996
   609   1              2.04816507             15.31638096      7.5571086699999999
   610   1      5.9549353900000002             15.34086007      7.3175555599999997
   611   1             10.07626144             15.36353594      7.5448570999999998
   612   1      14.319782760000001      15.416063149999999      7.4719937200000004
   613   1      18.505353670000002      15.254270229999999      7.3484399900000001
   614   1             22.18141979             15.31361489      7.4758853500000004
   615   1             26.66884928             15.30086255      7.3721204499999997
   616   1      30.573841059999999              15.2230379              7.72005476
   617   1              0.24881803      18.601065819999999      7.4922180999999997
   618   1      4.2158986900000004      18.837863680000002      7.4734521899999997
   619   1      8.0904259599999993      19.034075349999998      7.5607334499999999
   620   1      11.993845950000001      18.716711449999998      7.8306720399999996
   621   1      16.071376109999999      18.860441420000001              7.16437481
   622   1             20.27105405             19.01464395      7.3719062199999996
   623   1             24.31212859      18.683629010000001      7.8465908400000002
   624   1             28.33376706              18.5087823      7.8174397899999999
   625   1              1.99621665      22.267447310000001      7.4158496400000002
   626   1              6.00779511      22.316650299999999              7.68445511
   627   1      10.059189979999999      22.374726620000001      7.6383799100000003
   628   1      14.238946179999999              22.3548443      7.6376381100000001
   629   1      18.281276989999999      22.214703629999999      7.6076882499999998
   630   1      22.510704130000001      22.340501459999999      7.7390133099999998
   631   1      26.377694760000001      22.251505309999999      7.2725576500000004
   632   1      30.440288389999999      21.962949120000001      7.7562525999999998
   633   1    0.021857120000000001      25.664601659999999      7.2197962699999998
   634   1      4.1504389599999998      25.819464870000001              7.45007602
   635   1      8.2188737399999994      25.833461750000001      7.3790726500000003
   636   1      12.070471660000001             25.66971062      7.4531894200000002
   637   1      16.277830890000001      25.712383299999999      7.2077665199999998
   638   1      20.243223180000001      25.770104589999999      7.2717573700000004
   639   1      24.481804140000001             25.73276452      7.6406820199999999
   640   1      28.491970200000001             25.66711377      7.3822224299999997
   641   1   -0.070674819999999999      7.1832998100000003      8.8388247300000007
   642   1      1.6535110799999999              0.39437348              9.70273085
   643   1             10.54292536      3.5401327299999998      9.1204150800000008
   644   1             12.30206875              2.26037461      8.0975215400000007
   645   1      12.308560099999999 -0.00097168000000000005      8.9138753800000003
   646   1             16.34528555      2.5190709299999998      8.1376879399999993
   647   1             23.49615408      6.2356134299999999              8.50712036
   648   1      30.466056559999998              3.31145399      9.0278820300000007
   649   1              1.96126303              3.06770488      9.1765051999999994
   650   1      2.3299333899999999      26.784577200000001              8.41726025
   651   1             14.36733725     0.70662468000000001      9.8299973200000004
   652   1             12.12144224      9.5506508799999992      8.4480941600000001
   653   1      24.388565109999998      9.0799351700000006      8.3987724999999998
   654   1      4.3860825999999999   -0.084657750000000004      9.4166729199999999
   655   1      18.161744420000002      3.6139342499999998      8.9797999900000001
   656   1      3.9743179300000002      7.2389376199999997      8.9223092200000007
   657   1      7.9572704500000002      9.4238107000000007      8.2012205500000004
   658   1      14.159079459999999      17.800501409999999      9.0715832800000005
   659   1      6.0464072599999996      8.3461599700000004      9.8196446599999998
   660   1              10.1265652      5.9454162899999998      8.3283478100000004
   661   1      16.457601010000001      23.584645590000001      8.4090632000000003
   662   1      28.638910630000002      9.1481025500000008      8.2763319000000006
   663   1      20.747620229999999      6.7459694800000003      9.1398177500000006
   664   1     0.38720845999999998      9.4076041400000001      8.3643477799999992
   665   1      9.6723158100000006             10.65692716      9.1226448599999994
   666   1      6.0542199400000003      17.325528899999998      9.2279129900000001
   667   1             13.66593046             21.88275252      9.7862379300000004
   668   1      15.978562009999999             12.03130155      7.5562703999999998
   669   1      20.366223219999998             14.15445087      8.7738701700000004
   670   1      26.678624299999999      10.704767110000001      9.0366335899999992
   671   1              0.11226963      16.257914070000002      8.6459389499999997
   672   1      2.0314678100000001             13.00534871      8.1450340200000007
   673   1      4.0679092399999996             16.64895121      8.2045735000000004
   674   1      4.0927969500000003             14.27857408      8.8280730700000003
   675   1      7.8418437699999997      18.915354170000001      9.8546895400000007
   676   1             10.21011186      20.196795430000002      8.5896848800000001
   677   1      13.934508689999999      20.035752729999999      8.2579585400000006
   678   1              20.0165477      16.687779949999999      8.3163178700000007
   679   1      26.484266170000001      13.158593140000001      8.3382808900000001
   680   1      28.602808150000001               16.284226      8.4182308700000004
   681   1               3.8991159      25.704696819999999      9.8792430600000003
   682   1      7.9427255199999998      16.503868629999999      8.2132626399999999
   683   1      6.2913495499999996      26.810906769999999      8.4674437400000002
   684   1      8.0835453000000008             14.00588041      9.0094472799999998
   685   1      22.388216310000001             17.39668301      8.9471246099999995
   686   1      22.130746340000002      24.269538829999998      9.0501697399999994
   687   1      30.363655739999999             12.92905024      8.4589275900000001
   688   1      30.532140259999998             19.69112483      8.2631782200000004
   689   1      24.342781030000001      21.115976209999999      8.9505282699999995
   690   1      3.8900805599999999             23.58863376      8.1166724000000006
   691   1      3.8877987300000001      4.9037511900000004      9.7543348099999996
   692   1      12.161976259999999      25.653992930000001      9.6617468300000002
   693   1             20.34967159      21.405990150000001      9.3268718699999997
   694   1      18.165500869999999      19.753109210000002      8.3176890799999992
   695   1      24.595790740000002      23.670321090000002      8.3885442099999992
   696   1      28.469818790000001      23.299660830000001      8.2286512999999992
   697   1              3.95823451      2.1079201300000001      8.3629945600000006
   698   1      8.1310163000000006      25.880750769999999      9.8135202499999998
   699   1             20.05879839      23.551706469999999      8.3247724600000002
   700   1             14.36953507      24.598162129999999      9.0874686800000006
   701   1      16.478374729999999   0.0067764399999999999      9.0244444000000001
   702   1      22.290366930000001      26.634202640000002              8.32076891
   703   1      28.585333110000001      1.8862229800000001      8.2610406600000008
   704   1      29.079916799999999      27.566684729999999      8.7566788300000002
   705   1      1.9444853600000001      5.7648540199999996      8.2816930899999992
   706   1      8.3653805800000001  -0.0088253399999999992      8.9257023600000007
   707   1             14.50372817      5.8395328900000001      8.3060212500000006
   708   1      16.009440099999999      21.150818309999998      9.1119348299999992
   709   1      18.297509120000001      26.542852979999999      8.4027048600000001
   710   1      22.218352729999999      19.920101979999998      8.4838526699999992
   711   1      26.127154010000002      5.9141848299999999      8.2111244400000007
   712   1      1.6413641299999999      24.558365800000001      9.2749871400000004
   713   1      32.302007770000003      2.1222660599999998      8.1655872800000004
   714   1   -0.089143810000000004      23.316621229999999      8.1597078500000002
   715   1      30.550145300000001             25.21843251      8.8201446099999998
   716   1             14.30597626      3.4442299699999999      8.9935171500000006
   717   1             26.46053259      27.189437890000001      8.3503881500000006
   718   1             24.74551593              2.61897344      8.5857097800000002
   719   1      32.488580409999997      4.9168917600000004      9.7699567599999995
   720   1      30.613625030000001      5.6364663799999999      8.4492837200000004
   721   1      3.8896300799999999      9.8096038100000005      8.4737941499999998
   722   1      12.168417829999999      16.264523390000001      8.4106090600000005
   723   1      6.0009457199999998      5.8534600799999996      8.5451536499999996
   724   1      8.0820727800000007      7.1856252100000004      9.2850596200000002
   725   1      12.244156630000001      7.1162157099999996      8.9437718900000007
   726   1      18.327014120000001      6.0378310300000004      8.3000108499999996
   727   1      14.380876860000001      26.822533669999999      8.5394550200000001
   728   1    0.074238239999999997              13.9633419      9.1464747499999994
   729   1      4.3965003899999999      19.015154339999999      9.9331818599999995
   730   1      8.5025186700000006              2.36140814      8.2177124199999998
   731   1      14.006745970000001      13.047618549999999              8.32095859
   732   1             16.04023574      9.6173444900000007      8.2307419799999995
   733   1      16.206186169999999      16.704474090000001              7.95143953
   734   1      31.798555530000002             27.77657176      8.8613738099999999
   735   1             22.30484143      4.2640155200000001      8.9147823699999993
   736   1      6.1629730199999999              10.7174181      9.2626092399999997
   737   1      28.752161489999999             20.98622044      9.3604211599999996
   738   1      30.531056159999999      10.493214569999999      9.0508886099999994
   739   1      10.339627370000001      13.049639150000001      8.5020887799999993
   740   1             16.20884281             14.17722148      8.7959064300000005
   741   1             22.26460003             10.40135684      9.1524990099999997
   742   1             28.37849529      6.7377517899999999      8.8565159399999995
   743   1             20.09790065      9.3910608399999997      8.2630470700000007
   744   1      2.1553171899999999      17.514598199999998      9.3386884699999992
   745   1              2.15938579              19.7309105      8.2989255699999998
   746   1      6.1250426899999999      12.960295410000001      8.2748483700000008
   747   1             10.00746728      17.728927559999999      9.1750109700000007
   748   1      7.9615455500000003      21.334184390000001              9.14494045
   749   1      22.564215220000001      12.683309080000001      8.4618391400000004
   750   1      26.415078250000001             17.30568251      9.0456952800000003
   751   1      24.458763399999999      16.085575800000001      8.4120022700000003
   752   1             -0.11737227      18.842402010000001      9.9899059799999996
   753   1      4.1381795300000004      21.338941890000001      9.1203978299999999
   754   1      7.9027086500000001      23.480247930000001      8.1097878100000003
   755   1      6.0269643400000001             24.52075073      9.1472656400000005
   756   1              10.1752445      26.782531160000001      8.5070923799999996
   757   1             12.30315379      23.510901839999999      8.4959994400000003
   758   1      24.389217930000001      28.090415669999999      8.9998754200000004
   759   1      26.402730330000001             19.98357966      8.3695727699999996
   760   1      26.586291710000001      22.112286749999999      9.7368321800000004
   761   1      6.1621038500000003      19.887884589999999      8.3694319099999994
   762   1      30.758541300000001             17.48987971      9.0544333100000003
   763   1      6.0848897900000001              3.40315616      9.2988327000000002
   764   1             10.17378731              1.08153707      9.9564211700000005
   765   1             10.19170433      24.240620360000001      9.0470777699999996
   766   1      20.317187749999999              2.66392659      8.2595450800000005
   767   1      26.537570599999999      24.685227130000001      8.9171301300000003
   768   1      32.403690509999997             21.08421572      8.9121058600000005
   769   2      21.395225610000001      8.5972636799999993      9.4545792599999992
   770   2      22.988562479999999      8.0157057999999992      9.1972997999999997
